  68
        -84.26278190
 C          0.0545912462        0.3574172092       -3.2187561592
 C          1.1639773982       -0.6226657146       -2.8570505923
 C          2.5403651038        0.0189070825       -3.0166616327
 C          3.6988159598       -0.9303075461       -2.7039334846
 C          3.8262196360       -1.2880951178       -1.2214998863
 C          4.3772614230       -0.1338152715       -0.3784955117
 C          3.9088554860       -0.1745423912        1.0907108353
 C          4.4649009914       -1.4314567570        1.7648399728
 C          4.4707929226        1.0449531996        1.8361347282
 C          2.3901563350       -0.1155324835        1.1111781387
 C          1.7385471951        0.9715359168        0.5493348802
 C          0.3529119545        1.0303970088        0.4855387478
 C         -0.4370460575       -0.0272124532        0.9459908024
 C         -1.9292986033        0.0031789149        0.7125385179
 C         -2.4299221401       -1.2226064219       -0.0631951224
 C         -3.8799415230       -1.0769862633       -0.4284560439
 C         -4.5757761066       -2.3678645319       -0.7800986514
 O         -4.6100739457       -3.2707570260        0.3081948271
 C         -4.5212001370        0.0824281094       -0.3830968974
 C         -3.8570705092        1.3834655296       -0.0485487184
 C         -2.3411321937        1.2264340690       -0.1177042162
 C         -1.5253444781        2.4686190746        0.2659151289
 C         -1.8810190627        3.6710257838       -0.6100303474
 C         -1.6488844996        2.8475741642        1.7454105684
 O         -0.1587018781        2.1822868585       -0.0386617671
 C          0.2087818419       -1.0687006174        1.6148723246
 C         -0.5381644592       -2.1724790720        2.3097342691
 C          1.5968606265       -1.1017073139        1.6791552098
 H          0.1758920137        0.7157533587       -4.2393940804
 H         -0.9211866813       -0.1192883181       -3.1405846975
 H          0.0797438117        1.2141174413       -2.5487692363
 H          1.0244181539       -0.9460671230       -1.8238341002
 H          1.0983767761       -1.5051375441       -3.4988429821
 H          2.6450671889        0.3653182988       -4.0484461203
 H          2.5916446340        0.8964321577       -2.3707875757
 H          4.6341159160       -0.4737256399       -3.0381342746
 H          3.5589471925       -1.8490138756       -3.2793915868
 H          4.4841370211       -2.1543996906       -1.1269969733
 H          2.8459316060       -1.5775987456       -0.8419850310
 H          5.4693245374       -0.1488217947       -0.4050167291
 H          4.0588686731        0.8119619901       -0.8153940735
 H          4.2059991204       -1.4498331058        2.8212280107
 H          4.0895140758       -2.3346616238        1.2925979367
 H          5.5502768513       -1.4340924698        1.6847751663
 H          5.5584331318        1.0118497711        1.8444066189
 H          4.1621125262        1.9741943473        1.3660076981
 H          4.1177359049        1.0502583615        2.8653069048
 H          2.2785261567        1.8141585777        0.1485344720
 H         -2.4535282121        0.0349144542        1.6770190680
 H         -1.8326164725       -1.3482243489       -0.9721962303
 H         -2.3253474819       -2.1382577744        0.5164666839
 H         -4.0218406454       -2.8910596882       -1.5649917962
 H         -5.5930999160       -2.1653598570       -1.1436048634
 H         -5.0714530073       -2.8462981894        1.0398683366
 H         -5.5771386990        0.1339535680       -0.6157421153
 H         -4.1957734486        2.1458035497       -0.7534413905
 H         -4.1696428240        1.7020174753        0.9512906520
 H         -2.0796272893        1.0161777549       -1.1618724352
 H         -1.1281143832        4.4430536661       -0.4738745914
 H         -2.8512609341        4.0728523954       -0.3353582312
 H         -1.8918782440        3.3848905165       -1.6587594741
 H         -1.0437104246        3.7300300659        1.9407114791
 H         -1.2900330767        2.0424508685        2.3815580291
 H         -2.6812562442        3.0703824126        1.9986783363
 H          0.0327153549       -2.5122875971        3.1721382358
 H         -1.5140859780       -1.8418099431        2.6555100470
 H         -0.6739445289       -3.0297602546        1.6506238521
 H          2.0499672319       -1.9356755771        2.1901892143
