  68

 C          0.4113747300       -5.4425154800        5.5411962400
 C         -0.8409856700       -4.6852344900        5.9673488600
 C         -0.6213515300       -3.1762438700        6.0916780000
 C         -0.3007358600       -2.4607537200        4.7778124000
 C         -1.4768254000       -2.4451441700        3.8016976000
 C         -1.1852689100       -1.6480446800        2.5220777200
 C         -0.7619900300       -2.4645149200        1.2787133300
 C          0.4186346100       -3.3991817200        1.5722032300
 C         -1.9382001400       -3.3238625000        0.8069738900
 C         -0.3367718600       -1.4598848400        0.2154784700
 C         -0.9947451000       -1.3111079500       -0.9910014500
 C         -0.5868360800       -0.3584293400       -1.9207083400
 C          0.4645917900        0.5196347200       -1.6503487900
 C          0.7721417700        1.6355610300       -2.6217835500
 C          0.7269823800        3.0211865500       -1.9647361800
 C          0.8639614700        4.1101034800       -2.9900948600
 C          1.2382795500        5.4588151900       -2.4351452900
 O          2.4646984300        5.3471446900       -1.7349488000
 C          0.6987354100        3.9031990800       -4.2882982800
 C          0.2810142500        2.5867139900       -4.8689982700
 C         -0.2472930200        1.6723060800       -3.7680710800
 C         -0.6417976000        0.2573215800       -4.2140008100
 C         -1.7075627500        0.2847421000       -5.3107943400
 C          0.5490887000       -0.5931707100       -4.6685011600
 O         -1.2760479400       -0.3717281100       -3.0985413100
 C          1.1931023000        0.3075792300       -0.4761201500
 C          2.4474861400        1.0689201900       -0.1514426300
 C          0.7807922700       -0.6595721500        0.4278923400
 H          0.2258942400       -6.5145001700        5.5508835000
 H          0.7183461200       -5.1632841800        4.5367017700
 H          1.2334315900       -5.2309256700        6.2218936600
 H         -1.6472142300       -4.8859510000        5.2598215500
 H         -1.1639917400       -5.0628468500        6.9409309200
 H         -1.5199441200       -2.7276387300        6.5236567900
 H          0.2002474300       -3.0042175100        6.7920365900
 H          0.5678668700       -2.9240903800        4.3126421700
 H         -0.0318596000       -1.4270688000        5.0126282000
 H         -2.3313406300       -1.9932329000        4.3116651200
 H         -1.7591393100       -3.4663446700        3.5515666500
 H         -2.0789702800       -1.0874730800        2.2372024900
 H         -0.4102059500       -0.9125179500        2.7424368200
 H          1.2535730500       -2.8625516700        2.0126534800
 H          0.1178031300       -4.1925662300        2.2516593500
 H          0.7607501400       -3.8571562100        0.6458992500
 H         -2.2070214100       -4.0485447100        1.5718302900
 H         -2.8129770900       -2.7113955900        0.6034117900
 H         -1.6720728800       -3.8747362300       -0.0920684700
 H         -1.8333359300       -1.9240763300       -1.2731090400
 H          1.7757129600        1.4952381900       -3.0429380300
 H         -0.2167621800        3.1398292000       -1.4215151300
 H          1.5346222900        3.1505480900       -1.2480049600
 H          0.4458972400        5.7990431100       -1.7483578500
 H          1.3250137400        6.1886646000       -3.2516143600
 H          2.7133606800        6.2148228400       -1.4023533000
 H          0.8481273900        4.7077305800       -4.9959918100
 H         -0.4881624200        2.7603096600       -5.6249594000
 H          1.1375121200        2.1288928100       -5.3736572900
 H         -1.1679692300        2.1225813100       -3.3746326200
 H         -1.2770852900        0.5984686800       -6.2565957200
 H         -2.5134428800        0.9610595400       -5.0377642400
 H         -2.1229709500       -0.7130966200       -5.4251390100
 H          0.1929332500       -1.5767242700       -4.9667662800
 H          1.2627739700       -0.7213448500       -3.8588309100
 H          1.0484984600       -0.1317118000       -5.5152570000
 H          3.1203563400        0.4350313600        0.4237305500
 H          2.9662990900        1.3924932100       -1.0495511100
 H          2.2255749200        1.9457975400        0.4563441200
 H          1.3641312000       -0.7816145800        1.3284896900
