68
HU210
C   0.41137473 -5.44251548  5.54119624
C  -0.84098567 -4.68523449  5.96734886
C  -0.62135153 -3.17624387  6.09167800
C  -0.30073586 -2.46075372  4.77781240
C  -1.47682540 -2.44514417  3.80169760
C  -1.18526891 -1.64804468  2.52207772
C  -0.76199003 -2.46451492  1.27871333
C   0.41863461 -3.39918172  1.57220323
C  -1.93820014 -3.32386250  0.80697389
C  -0.33677186 -1.45988484  0.21547847
C  -0.99474510 -1.31110795 -0.99100145
C  -0.58683608 -0.35842934 -1.92070834
C   0.46459179  0.51963472 -1.65034879
C   0.77214177  1.63556103 -2.62178355
C   0.72698238  3.02118655 -1.96473618
C   0.86396147  4.11010348 -2.99009486
C   1.23827955  5.45881519 -2.43514529
O   2.46469843  5.34714469 -1.73494880
C   0.69873541  3.90319908 -4.28829828
C   0.28101425  2.58671399 -4.86899827
C  -0.24729302  1.67230608 -3.76807108
C  -0.64179760  0.25732158 -4.21400081
C  -1.70756275  0.28474210 -5.31079434
C   0.54908870 -0.59317071 -4.66850116
O  -1.27604794 -0.37172811 -3.09854131
C   1.19310230  0.30757923 -0.47612015
C   2.44748614  1.06892019 -0.15144263
C   0.78079227 -0.65957215  0.42789234
H   0.22589424 -6.51450017  5.55088350
H   0.71834612 -5.16328418  4.53670177
H   1.23343159 -5.23092567  6.22189366
H  -1.64721423 -4.88595100  5.25982155
H  -1.16399174 -5.06284685  6.94093092
H  -1.51994412 -2.72763873  6.52365679
H   0.20024743 -3.00421751  6.79203659
H   0.56786687 -2.92409038  4.31264217
H  -0.03185960 -1.42706880  5.01262820
H  -2.33134063 -1.99323290  4.31166512
H  -1.75913931 -3.46634467  3.55156665
H  -2.07897028 -1.08747308  2.23720249
H  -0.41020595 -0.91251795  2.74243682
H   1.25357305 -2.86255167  2.01265348
H   0.11780313 -4.19256623  2.25165935
H   0.76075014 -3.85715621  0.64589925
H  -2.20702141 -4.04854471  1.57183029
H  -2.81297709 -2.71139559  0.60341179
H  -1.67207288 -3.87473623 -0.09206847
H  -1.83333593 -1.92407633 -1.27310904
H   1.77571296  1.49523819 -3.04293803
H  -0.21676218  3.13982920 -1.42151513
H   1.53462229  3.15054809 -1.24800496
H   0.44589724  5.79904311 -1.74835785
H   1.32501374  6.18866460 -3.25161436
H   2.71336068  6.21482284 -1.40235330
H   0.84812739  4.70773058 -4.99599181
H  -0.48816242  2.76030966 -5.62495940
H   1.13751212  2.12889281 -5.37365729
H  -1.16796923  2.12258131 -3.37463262
H  -1.27708529  0.59846868 -6.25659572
H  -2.51344288  0.96105954 -5.03776424
H  -2.12297095 -0.71309662 -5.42513901
H   0.19293325 -1.57672427 -4.96676628
H   1.26277397 -0.72134485 -3.85883091
H   1.04849846 -0.13171180 -5.51525700
H   3.12035634  0.43503136  0.42373055
H   2.96629909  1.39249321 -1.04955111
H   2.22557492  1.94579754  0.45634412
H   1.36413120 -0.78161458  1.32848969