  53
        -68.44839091
 C          5.3507630559       -2.4959045479       -1.7104806302
 C          5.2646291699       -0.9758539243       -1.6478448733
 C          4.5192815720       -0.5007359615       -0.4032994616
 C          4.4279962454        1.0209544348       -0.3366421787
 C          3.6811147432        1.5043572623        0.9130960724
 C          2.2460004083        1.0631231032        0.8964357150
 C          1.8144643554       -0.0030345156        1.6715724016
 C          0.4993035558       -0.4417498013        1.6141677317
 C         -0.4245483895        0.1621662468        0.7574236406
 C         -1.8513325999       -0.3148978694        0.6263841777
 C         -2.0022480868       -1.8035968924        0.4566684395
 C         -3.0001563064       -2.3564828905       -0.2176009578
 C         -4.0596828942       -1.5514377348       -0.9219052873
 C         -3.9854413390       -0.0593431342       -0.5966367005
 C         -2.5200282804        0.3617231334       -0.5744191365
 C         -2.2359186793        1.8698252438       -0.5801026335
 O         -0.8223428501        2.0410979197       -0.7337608307
 C         -0.0019355690        1.2860811321        0.0434535348
 C          1.3230937230        1.7121335414        0.0984855607
 C         -2.8440793823        2.5609869099       -1.8024136397
 C         -2.6945755496        2.5794461396        0.6977422298
 C         -3.1410052369       -3.8429681898       -0.3592766724
 O          0.0880047933       -1.4686584374        2.4186829535
 H          4.3544212995       -2.9323756732       -1.7279545194
 H          5.8812317845       -2.8144658897       -2.6049462780
 H          5.8789114696       -2.8844642334       -0.8421367624
 H          6.2730117583       -0.5546951966       -1.6491487196
 H          4.7504211435       -0.6049934854       -2.5373287373
 H          5.0338938832       -0.8716839263        0.4869141559
 H          3.5107721720       -0.9198605234       -0.4047873484
 H          5.4355017564        1.4442269591       -0.3349494984
 H          3.9104649141        1.3894830783       -1.2245283013
 H          4.1803351715        1.1152489928        1.8028440050
 H          3.7241794867        2.5951436899        0.9476175929
 H          2.5076717308       -0.5020721296        2.3370695964
 H         -2.3852133863       -0.0418558342        1.5495159026
 H         -1.2707649707       -2.4249447767        0.9456877279
 H         -3.9370412816       -1.6960097763       -2.0012661612
 H         -5.0469061909       -1.9426064634       -0.6604798445
 H         -4.4360243734        0.1268241332        0.3801245009
 H         -4.5481877575        0.5028867407       -1.3425529930
 H         -2.0413224957       -0.0331212519       -1.4804451790
 H          1.6034275525        2.5727208827       -0.4880325993
 H         -2.6426727002        1.9864767418       -2.7027724687
 H         -3.9161362692        2.6818870299       -1.6828302453
 H         -2.3894246120        3.5420116845       -1.9131238712
 H         -3.7511786435        2.3980737450        0.8723831444
 H         -2.1240484764        2.2332714397        1.5558342441
 H         -2.5329210223        3.6500388226        0.5944149921
 H         -3.1603195971       -4.1238185731       -1.4123388364
 H         -2.3178123952       -4.3604170674        0.1257138703
 H         -4.0760461607       -4.1793238624        0.0888908736
 H          0.8305302994       -1.7545146982        2.9641900385
  53
        -68.44836633
 C          5.2906631083       -2.4172744758       -1.8483974202
 C          5.2332089274       -0.9015214526       -1.7038399388
 C          4.4998061166       -0.4794413492       -0.4333418895
 C          4.4332429835        1.0382049390       -0.2896268519
 C          3.6876565063        1.4686257562        0.9795972058
 C          2.2503075186        1.0349510109        0.9441359272
 C          1.7988300151       -0.0182368368        1.7253049004
 C          0.4804678528       -0.4459233037        1.6556840935
 C         -0.4258301880        0.1536386164        0.7774369964
 C         -1.8555949851       -0.3109095405        0.6330541003
 C         -2.0213473987       -1.8009747800        0.4912914826
 C         -3.0145349960       -2.3566977784       -0.1876295188
 C         -4.0525353204       -1.5548001266       -0.9265665458
 C         -3.9673012235       -0.0575629555       -0.6292678568
 C         -2.4980794673        0.3491201920       -0.5911795866
 C         -2.2004555818        1.8543459123       -0.6209814832
 O         -0.7829768811        2.0119156713       -0.7501056051
 C          0.0174730556        1.2632639580        0.0535498585
 C          1.3442415152        1.6809778036        0.1246483097
 C         -2.7785380200        2.5258265712       -1.8686910422
 C         -2.6776663210        2.5932773432        0.6332174106
 C         -3.1709821534       -3.8441667361       -0.2993108757
 O          0.0494709359       -1.4575729450        2.4692563927
 H          5.8125795212       -2.6968464831       -2.7607763345
 H          5.8137011744       -2.8619175912       -1.0042550822
 H          4.2862231584       -2.8334249162       -1.8856499579
 H          6.2492528381       -0.4995594778       -1.6861887423
 H          4.7237894897       -0.4741090594       -2.5704318627
 H          5.0105054842       -0.9037581604        0.4349308339
 H          3.4843872231       -0.8812597234       -0.4521402121
 H          5.4472088689        1.4448296668       -0.2625629869
 H          3.9261965356        1.4589409120       -1.1600559667
 H          4.1841913306        1.0388123027        1.8519102174
 H          3.7353207525        2.5568018841        1.0627474937
 H          2.4783552520       -0.5155221534        2.4060895810
 H         -2.4006007440       -0.0133479931        1.5420534964
 H         -1.3057436334       -2.4202912937        1.0056166318
 H         -3.9125975665       -1.7221341592       -2.0005199425
 H         -5.0485056861       -1.9299518969       -0.6750197492
 H         -4.4315916116        0.1523034016        0.3362026230
 H         -4.5118363599        0.4958393270       -1.3950353307
 H         -2.0087024970       -0.0676152142       -1.4815587723
 H          1.6393445434        2.5325709371       -0.4676768192
 H         -2.5645481186        1.9315078699       -2.7531594195
 H         -3.8516048783        2.6582796954       -1.7729747084
 H         -2.3130370931        3.5004832015       -1.9900636200
 H         -2.1285350845        2.2579615270        1.5093922491
 H         -2.5022838597        3.6598935851        0.5125788475
 H         -3.7395180508        2.4264614615        0.7894527526
 H         -3.1770514293       -4.1478252252       -1.3461791850
 H         -2.3619260885       -4.3605112992        0.2100489453
 H         -4.1170199479       -4.1595617574        0.1409915985
 H          0.7821585317       -1.7419012577        3.0286486775
  53
        -68.44835445
 C          5.3491788612        3.2714839175        0.7875865341
 C          5.5198857404        1.7573944585        0.7792039607
 C          4.5352670869        1.0819707526       -0.1720134322
 C          4.7006665989       -0.4346402386       -0.1861172940
 C          3.7068767706       -1.1190723954       -1.1340408911
 C          2.2888886055       -0.9326240093       -0.6762692702
 C          1.7929563001       -1.6799103692        0.3832509874
 C          0.4914147533       -1.5099324776        0.8298443864
 C         -0.3676689584       -0.5950547940        0.2138179577
 C         -1.8079418795       -0.4162945038        0.6312836633
 C         -2.5760460655       -1.7005031475        0.8003326484
 C         -3.8811443202       -1.7947946700        0.5907734945
 C         -4.7219798821       -0.6386671046        0.1184300137
 C         -3.9604537081        0.6870926055        0.1166130451
 C         -2.5489442298        0.4368461407       -0.4032233172
 C         -1.7250632651        1.6744756025       -0.7831575640
 O         -0.5181692966        1.2151500328       -1.4023376331
 C          0.1646035739        0.2083365884       -0.7963787839
 C          1.4702120487        0.0212203437       -1.2477829160
 C         -2.4170745439        2.5127893915       -1.8601457388
 C         -1.3714046044        2.5607414372        0.4153796790
 C         -4.6293760061       -3.0805987474        0.7815315540
 O          0.0378272786       -2.2307620947        1.9001920970
 H          6.0550906132        3.7346588499        1.4733328033
 H          5.5182118588        3.6794224065       -0.2066754271
 H          4.3415335520        3.5383087010        1.0987700082
 H          6.5412757895        1.5088723860        0.4803672703
 H          5.3682785690        1.3700443643        1.7895697800
 H          4.6869233636        1.4702910044       -1.1819132908
 H          3.5146898119        1.3285010308        0.1280146581
 H          5.7179505125       -0.6848096845       -0.4972600413
 H          4.5570027508       -0.8215353586        0.8252949624
 H          3.8264026731       -0.7059204264       -2.1368075855
 H          3.9378939378       -2.1862940198       -1.1747957799
 H          2.4279270159       -2.4084094424        0.8719482448
 H         -1.8173351453        0.0937812833        1.6067570703
 H         -2.0202538951       -2.5579462899        1.1410219503
 H         -5.0688348683       -0.8614364424       -0.8969377391
 H         -5.6134803415       -0.5572028140        0.7465968615
 H         -3.9128868571        1.0852106300        1.1320157170
 H         -4.4900999894        1.4086978963       -0.5062309273
 H         -2.6278519898       -0.1594909731       -1.3219569650
 H          1.8233647319        0.6510444853       -2.0487507250
 H         -2.7977031814        1.8733831634       -2.6522977474
 H         -3.2340258244        3.0875228229       -1.4352698401
 H         -1.6918109730        3.1977984980       -2.2915716446
 H         -2.2724188587        2.8610589309        0.9424107048
 H         -0.7127502769        2.0345915448        1.1016936565
 H         -0.8538829644        3.4513100187        0.0659361401
 H         -3.9568464415       -3.8835703469        1.0705628250
 H         -5.3882521253       -2.9661986836        1.5557072861
 H         -5.1382966876       -3.3637493140       -0.1398716283
 H          0.7516699909       -2.7938385158        2.2226532389
  53
        -68.44834683
 C          5.0074578172       -1.1701202859       -3.0419496855
 C          5.2329960390       -1.0512772477       -1.5397697653
 C          4.3662012445        0.0430179916       -0.9220188973
 C          4.5903309072        0.1706860291        0.5817177858
 C          3.7114061074        1.2610481905        1.2084922522
 C          2.2540580291        0.9143648226        1.1074518174
 C          1.6946658916       -0.0113716040        1.9776600126
 C          0.3638509053       -0.3836147057        1.8656277609
 C         -0.4494825720        0.1450427046        0.8588413685
 C         -1.8889914918       -0.2698217591        0.6688130621
 C         -2.1208046786       -1.7576562083        0.6869211226
 C         -3.0948671325       -2.3455707621        0.0074353955
 C         -4.0412027824       -1.5914032870       -0.8883936603
 C         -3.8981598530       -0.0746194221       -0.7596994871
 C         -2.4152980022        0.2681586214       -0.6655745527
 C         -2.0360640255        1.7440018399       -0.8479203729
 O         -0.6066747569        1.8183347451       -0.8977360166
 C          0.0988452136        1.1357568967        0.0421811640
 C          1.4412423569        1.4950532865        0.1542273499
 C         -2.4988046648        2.2898052436       -2.2005354587
 C         -2.5496071156        2.6468772669        0.2780451878
 C         -3.3184308752       -3.8279735415        0.0536216462
 O         -0.1763503902       -1.2644118334        2.7619137969
 H          5.6285022092       -1.9574296978       -3.4633820804
 H          3.9659459946       -1.4034358325       -3.2519318450
 H          5.2543376987       -0.2346864694       -3.5395094860
 H          5.0019496012       -2.0063471207       -1.0620589470
 H          6.2861908727       -0.8319797266       -1.3470496084
 H          3.3137276140       -0.1790352374       -1.1100737119
 H          4.5948515695        0.9972367470       -1.4026221539
 H          4.3708709687       -0.7861618899        1.0608458596
 H          5.6401944260        0.4066732872        0.7727444928
 H          3.9872355646        1.3743998656        2.2598005056
 H          3.9009389889        2.2088054457        0.7021457563
 H          2.3004672101       -0.4465025774        2.7627689633
 H         -2.4759482137        0.1561296541        1.4969369844
 H         -1.4719647113       -2.3427772575        1.3169424508
 H         -3.8420950908       -1.8900637483       -1.9238178416
 H         -5.0690991897       -1.8904914502       -0.6649497081
 H         -4.4123881592        0.2680962859        0.1402193558
 H         -4.3626253094        0.4077858117       -1.6203459745
 H         -1.8920989487       -0.2729159217       -1.4652564708
 H          1.8205630140        2.2487862424       -0.5172779955
 H         -1.9753275853        3.2210541783       -2.4007529443
 H         -2.2624629542        1.5864088982       -2.9946574519
 H         -3.5671542485        2.4816046424       -2.1934166757
 H         -2.3117314907        3.6828010263        0.0473708516
 H         -3.6262893290        2.5472811650        0.3810950386
 H         -2.0734346344        2.3933940151        1.2217764586
 H         -3.2708230891       -4.2504774469       -0.9500870171
 H         -2.5715642537       -4.3155597837        0.6741585610
 H         -4.3060267776       -4.0497881558        0.4582677212
 H          0.5000952330       -1.5110367347        3.4039360688
  53
        -68.44834492
 C          5.9450710832        0.7401821645        2.5610887926
 C          5.6623468178        1.2384854321        1.1491094144
 C          4.7555668098        0.2809819300        0.3802106687
 C          4.4698431188        0.7748285211       -1.0349429295
 C          3.5653044832       -0.1867814873       -1.8164590960
 C          2.1989194033       -0.2841499581       -1.2009587421
 C          1.8472151675       -1.3641286297       -0.4048848198
 C          0.5881778346       -1.4461255212        0.1725416362
 C         -0.3714312782       -0.4547735271       -0.0482947239
 C         -1.7727683035       -0.5325699240        0.5095228119
 C         -2.4510781389       -1.8631246078        0.3163484034
 C         -3.7627328321       -1.9932527807        0.1798437287
 C         -4.7057690049       -0.8198734480        0.1588867200
 C         -4.0218003645        0.4965463437        0.5284574374
 C         -2.6529553288        0.5386942806       -0.1421834200
 C         -1.9376835392        1.8961994846       -0.1627606608
 O         -0.7700444896        1.7560544296       -0.9799927444
 C          0.0193478272        0.6674741294       -0.7827839478
 C          1.2816600950        0.7358241262       -1.3678119960
 C         -2.7724212453        2.9708260745       -0.8628514871
 C         -1.5241827052        2.3863991724        1.2285417782
 C         -4.4180444479       -3.3309740910        0.0050568000
 O          0.2806033789       -2.5009830672        0.9872799068
 H          6.5891592478        1.4367765649        3.0928719747
 H          5.0176305591        0.6346439113        3.1199109231
 H          6.4386487412       -0.2290485320        2.5321343607
 H          5.1868226021        2.2205805154        1.1995569354
 H          6.6056492272        1.3553319104        0.6100157856
 H          3.8113615232        0.1684680668        0.9174468747
 H          5.2313316583       -0.7019209693        0.3310536351
 H          3.9890214914        1.7536739433       -0.9840488299
 H          5.4132449734        0.8918276007       -1.5739051358
 H          3.4724879593        0.1755222909       -2.8425623603
 H          4.0309558982       -1.1740044672       -1.8445650148
 H          2.5617077635       -2.1577064028       -0.2254810772
 H         -1.7166106201       -0.3556379327        1.5945574458
 H         -1.8201952157       -2.7360485470        0.3277471015
 H         -5.1299389200       -0.7405440256       -0.8484468593
 H         -5.5400888232       -1.0119404785        0.8393313210
 H         -3.9023086090        0.5572987807        1.6118917608
 H         -4.6456933472        1.3317454047        0.2085636529
 H         -2.7838524249        0.2570151158       -1.1954907374
 H          1.5237676996        1.6113406141       -1.9492281093
 H         -2.1294248767        3.8137195675       -1.1025680533
 H         -3.1894535595        2.5839335385       -1.7889378462
 H         -3.5765996944        3.3139729516       -0.2195869014
 H         -0.7745495755        1.7285383502        1.6608783669
 H         -1.0938922726        3.3820530679        1.1477048100
 H         -2.3873389083        2.4281675460        1.8865954713
 H         -4.9928083968       -3.3537624111       -0.9208297823
 H         -3.6785048798       -4.1265337358       -0.0227543211
 H         -5.1079969486       -3.5252767160        0.8263689959
 H          1.0507002115       -3.0781115494        1.0547759579
  53
        -68.44806374
 C          7.8529790853       -0.6714845777       -1.7247157533
 C          6.3479155168       -0.8797600022       -1.6092268189
 C          5.7238474432        0.0481138258       -0.5696828859
 C          4.2160779974       -0.1549696210       -0.4510797584
 C          3.5918632183        0.7787656554        0.5922398641
 C          2.1099723749        0.5569209451        0.6765189638
 C          1.5838549404       -0.3809373594        1.5531680754
 C          0.2206160010       -0.6334046746        1.5945700691
 C         -0.6611573723        0.0311498718        0.7377039741
 C         -2.1450507624       -0.2482904327        0.7149332494
 C         -2.5080312877       -1.7092476319        0.6747524899
 C         -3.6103507716       -2.1643246040        0.0968682242
 C         -4.5898094114       -1.2724154809       -0.6186135375
 C         -4.2925915264        0.2142244346       -0.4207546829
 C         -2.7845563086        0.4245622193       -0.5037953606
 C         -2.2977355836        1.8728263306       -0.6470126822
 O         -0.8853479856        1.8314282414       -0.8808713876
 C         -0.1319545347        1.0281993868       -0.0846105834
 C          1.2403366032        1.2668047087       -0.1280304852
 C         -2.8758667745        2.5492001924       -1.8919614811
 C         -2.5797034892        2.7337067339        0.5883776546
 C         -3.9609568790       -3.6225757261        0.0832925752
 O         -0.2796922110       -1.5294821983        2.4987188355
 H          8.2771926969       -1.3410344803       -2.4693917836
 H          8.0747365763        0.3524357859       -2.0179186970
 H          8.3396613594       -0.8662183571       -0.7713123498
 H          5.8805625470       -0.6985279780       -2.5797848498
 H          6.1450638690       -1.9174460973       -1.3342041507
 H          5.9279451303        1.0856713219       -0.8449766709
 H          6.1915522665       -0.1331120033        0.4013817524
 H          3.7439336806        0.0287248780       -1.4185029711
 H          4.0068891832       -1.1910258053       -0.1747298252
 H          4.0542597776        0.5905499097        1.5636886167
 H          3.7956779613        1.8138152932        0.3120540663
 H          2.2413720592       -0.9210341274        2.2229053237
 H         -2.5813025947        0.1651024943        1.6371860983
 H         -1.8404137649       -2.3896619384        1.1762612700
 H         -4.5527537184       -1.5127485751       -1.6871589545
 H         -5.6039356611       -1.4996517000       -0.2781720897
 H         -4.6548368491        0.5344433100        0.5580119767
 H         -4.8160686540        0.7932039233       -1.1822815902
 H         -2.4186813636       -0.1004303006       -1.3962173223
 H          1.6004294138        2.0327267287       -0.7964180386
 H         -2.2985420702        3.4452521106       -2.1044291504
 H         -2.8076145324        1.8861135175       -2.7503963393
 H         -3.9125308224        2.8285792181       -1.7322665630
 H         -2.0132557484        2.3753149203        1.4441363878
 H         -2.2787624828        3.7598904427        0.3900190472
 H         -3.6392598019        2.7172556570        0.8268159987
 H         -4.9064833538       -3.7898434675        0.5993240264
 H         -4.0776630890       -3.9753544082       -0.9414599821
 H         -3.1901649255       -4.2131756968        0.5707764815
 H          0.4474357698       -1.8770229858        3.0289325147
  53
        -68.44805829
 C          8.1498848098        1.1601022252       -0.0853469125
 C          6.6866439692        1.2028967013        0.3376711875
 C          5.8232109803        0.2688405710       -0.5068267886
 C          4.3557408242        0.3109964230       -0.0903974615
 C          3.4907168333       -0.6261363347       -0.9410318041
 C          2.0536436776       -0.5540365322       -0.5135589770
 C          1.5747512624       -1.3763820730        0.4960364019
 C          0.2536289526       -1.3007133898        0.9115740380
 C         -0.6393097813       -0.4074927739        0.3130424781
 C         -2.0989242001       -0.3324180058        0.6932046962
 C         -2.7940181358       -1.6656503761        0.7775488880
 C         -4.0843761138       -1.8255349195        0.5216301694
 C         -4.9783347894       -0.6987778870        0.0767452425
 C         -4.2976549696        0.6675641183        0.1623068503
 C         -2.8590063222        0.5258779140       -0.3229771781
 C         -2.0995928005        1.8265611470       -0.6168106810
 O         -0.8499322477        1.4692835976       -1.2183865199
 C         -0.1265450587        0.4744673677       -0.6407175262
 C          1.1989808450        0.3828203302       -1.0607340242
 C         -2.8086600012        2.6755240839       -1.6742282450
 C         -1.8346456971        2.6712716932        0.6334661370
 C         -4.7597570799       -3.1604843248        0.6279649500
 O         -0.1861455640       -2.0956355093        1.9340563689
 H          8.2548274395        1.4606784580       -1.1256361524
 H          8.7465303877        1.8316934106        0.5276864463
 H          8.5485408293        0.1533417535        0.0206690378
 H          6.6041969531        0.9179610423        1.3891716217
 H          6.3108676956        2.2241767786        0.2424507641
 H          6.1981337579       -0.7532173890       -0.4104073277
 H          5.9082608513        0.5529585872       -1.5584754356
 H          4.2654598824        0.0263898070        0.9605576694
 H          3.9760768534        1.3302610285       -0.1884214319
 H          3.5779064621       -0.3379521916       -1.9901391472
 H          3.8601573283       -1.6485184189       -0.8358920976
 H          2.2374755775       -2.0897627150        0.9698101369
 H         -2.1662095842        0.1282075747        1.6907020042
 H         -2.1983776651       -2.5047745217        1.0957276959
 H         -5.2806316217       -0.8914843285       -0.9588129917
 H         -5.8915318639       -0.7001863168        0.6784703098
 H         -4.3038891494        1.0173052450        1.1964311721
 H         -4.8509119391        1.3868484459       -0.4424214870
 H         -2.8751003250       -0.0280917883       -1.2710151383
 H          1.5389638663        1.0696643207       -1.8195077272
 H         -3.1275758219        2.0550982414       -2.5076561360
 H         -3.6702188050        3.1803478252       -1.2486690285
 H         -2.1131081724        3.4218228317       -2.0492075964
 H         -2.7667419277        2.8897461076        1.1465508956
 H         -1.1636073573        2.1521443154        1.3130498826
 H         -1.3637432498        3.6078721437        0.3436338423
 H         -4.0490815359       -3.9361189453        0.8998565592
 H         -5.5459406350       -3.1284435163        1.3824246771
 H         -5.2243087725       -3.4273739709       -0.3212947035
 H          0.5504010324       -2.6314407631        2.2519233289
  53
        -68.44785751
 C          4.8374897315        3.2049291624       -1.1649016639
 C          5.0651847307        1.7163456892       -0.9327994202
 C          4.4947074900        1.2669508684        0.4103163649
 C          4.7174506219       -0.2170604368        0.6995612490
 C          3.8715704976       -1.1483753540       -0.1810866377
 C          2.4024867229       -0.9287479756        0.0376475567
 C          1.7793988412       -1.4420802581        1.1669190282
 C          0.4282549482       -1.2315965651        1.3957298474
 C         -0.3526642040       -0.5117408859        0.4866096169
 C         -1.8371643030       -0.3029273493        0.6686928849
 C         -2.6067749788       -1.5472842304        1.0252044354
 C         -3.8717761469       -1.7383814423        0.6798174292
 C         -4.6556956681       -0.7511629349       -0.1433497930
 C         -3.9152097663        0.5706754645       -0.3480560813
 C         -2.4448303659        0.2686975869       -0.6162315248
 C         -1.5921406681        1.4235064365       -1.1586933683
 O         -0.3090831935        0.8876980882       -1.5014814032
 C          0.2988760822        0.0684475866       -0.6032393507
 C          1.6546169870       -0.1605835768       -0.8328279810
 C         -2.1457406159        1.9731957690       -2.4751375591
 C         -1.4095911934        2.5671771186       -0.1558438998
 C         -4.6244688521       -2.9785886598        1.0603464191
 O         -0.1542278605       -1.7156062181        2.5347949541
 H          3.7730130782        3.4295392743       -1.1608536218
 H          5.3135216334        3.7921206116       -0.3821524961
 H          5.2501673620        3.5124436043       -2.1232136109
 H          4.5932898378        1.1562894882       -1.7411254636
 H          6.1366639066        1.5024372328       -0.9609331972
 H          3.4238850170        1.4791345404        0.4381882443
 H          4.9696162534        1.8514739932        1.2027422390
 H          5.7736662882       -0.4587682085        0.5577619338
 H          4.4689460175       -0.4100948957        1.7458672928
 H          4.1169291383       -0.9848800390       -1.2302173732
 H          4.1257191608       -2.1818567817        0.0669181421
 H          2.3528740749       -2.0165111098        1.8838167157
 H         -1.9801858020        0.4104943415        1.4947866865
 H         -2.0912052079       -2.2844188580        1.6177394702
 H         -4.8629278363       -1.2078515285       -1.1177249776
 H         -5.6231680413       -0.5682543092        0.3327075329
 H         -4.0063330974        1.1859145553        0.5491571707
 H         -4.3662278305        1.1138843798       -1.1791027145
 H         -2.3954156881       -0.5194653729       -1.3793435119
 H          2.1003835483        0.2892313580       -1.7056105763
 H         -1.3778031978        2.5741260199       -2.9554031072
 H         -2.4118916309        1.1589952630       -3.1441110776
 H         -3.0178030289        2.5944196035       -2.2967951742
 H         -0.8400302787        2.2339984259        0.7079817962
 H         -0.8619518322        3.3789258672       -0.6293260813
 H         -2.3754550181        2.9392449393        0.1733297660
 H         -5.0042239367       -3.4801572109        0.1702038061
 H         -3.9872217749       -3.6691130513        1.6059166652
 H         -5.4800239866       -2.7254664777        1.6866428985
 H          0.5176203541       -2.1623994121        3.0635453437
  53
        -68.44784420
 C          4.7275471972        0.0195298375       -3.1629900387
 C          4.9651200889        0.3862881596       -1.7033559609
 C          4.3562414750       -0.6491284298       -0.7607219004
 C          4.5970942760       -0.3421351143        0.7168480614
 C          3.8030254416        0.8682983423        1.2288922422
 C          2.3238556950        0.6360515098        1.1216202608
 C          1.6697342924       -0.1490661882        2.0612381224
 C          0.3148099764       -0.4199370415        1.9474770424
 C         -0.4294869486        0.0694602962        0.8699177197
 C         -1.8949063035       -0.2416222273        0.6802064553
 C         -2.2537353217       -1.6955345573        0.8385854514
 C         -3.2619064324       -2.2651113512        0.1941374646
 C         -4.1230487473       -1.5282847769       -0.7970067395
 C         -3.8513643816       -0.0237823123       -0.8163209473
 C         -2.3464985376        0.2007573363       -0.7153170599
 C         -1.8378773622        1.6134409367       -1.0328990479
 O         -0.4067165633        1.5628282389       -1.0484407405
 C          0.2179983957        0.9240607149       -0.0240655526
 C          1.5829868214        1.1823156481        0.0921641575
 C         -2.2243156157        2.0553125498       -2.4460743459
 C         -2.2946275439        2.6660116701       -0.0179068122
 C         -3.6128402869       -3.7114638897        0.3797881790
 O         -0.3168171638       -1.1586494387        2.9098888802
 H          5.1673297572        0.7637286325       -3.8233504582
 H          5.1711190995       -0.9473285948       -3.3921043568
 H          3.6609490309       -0.0363949064       -3.3694917348
 H          6.0394842813        0.4590023523       -1.5158459057
 H          4.5267205880        1.3660840221       -1.5094911738
 H          4.7918898519       -1.6254670375       -0.9888027010
 H          3.2813515032       -0.7153966214       -0.9411688598
 H          4.3123990659       -1.2167107287        1.3065519046
 H          5.6624801961       -0.1617355664        0.8800713649
 H          4.0708525338        1.0390682848        2.2745917996
 H          4.0806274119        1.7565429418        0.6617197773
 H          2.2198030271       -0.5519168905        2.9025959056
 H         -2.4599016435        0.3130751928        1.4449804717
 H         -1.6689648476       -2.2667637543        1.5400256057
 H         -3.9322740531       -1.9462351958       -1.7919355497
 H         -5.1768389095       -1.7151575995       -0.5721166203
 H         -4.3511683521        0.4509491355        0.0301819691
 H         -4.2555809156        0.4059705146       -1.7334432094
 H         -1.8567041447       -0.4608164833       -1.4422379513
 H          2.0365592043        1.8323600403       -0.6389816001
 H         -1.6186570240        2.9142644677       -2.7231489908
 H         -2.0335593633        1.2573186573       -3.1589034399
 H         -3.2720895635        2.3355572603       -2.4889747259
 H         -3.3778311232        2.6686537667        0.0623631858
 H         -1.8624721022        2.4702383691        0.9601466974
 H         -1.9627230258        3.6494252941       -0.3430720206
 H         -4.6231056820       -3.8081343859        0.7776742952
 H         -3.5833237935       -4.2349452395       -0.5758744624
 H         -2.9221421374       -4.1951728913        1.0650329804
 H          0.3228946299       -1.3952069452        3.5920793633
  53
        -68.44776619
 C          5.4143381196       -2.5937573508       -0.6257697922
 C          5.3785290491       -1.1105911771       -0.2776538502
 C          4.3809844059       -0.3540805351       -1.1520661531
 C          4.3396942962        1.1475208089       -0.8703547435
 C          3.7214363799        1.5020675091        0.4894094285
 C          2.2942897935        1.0440830074        0.5758567023
 C          1.9481691977       -0.0971705720        1.2843078061
 C          0.6365126321       -0.5487658122        1.3156805722
 C         -0.3721369799        0.1197994211        0.6173699122
 C         -1.8023761093       -0.3636085432        0.5841758083
 C         -1.9621864884       -1.8315104373        0.2884033344
 C         -3.0203564249       -2.3325211074       -0.3324592026
 C         -4.1496075715       -1.4798525234       -0.8467821420
 C         -4.0502568665       -0.0243883585       -0.3892378062
 C         -2.5921880264        0.4140867239       -0.4732963383
 C         -2.3179015390        1.9199563839       -0.3625899972
 O         -0.9278531319        2.1262602687       -0.6386893199
 C         -0.0294890965        1.3129029524       -0.0234905875
 C          1.2920037121        1.7515220980       -0.0603040513
 C         -3.0492439365        2.7146760713       -1.4466323688
 C         -2.6501056736        2.4983166313        1.0165405613
 C         -3.1677595236       -3.8008326104       -0.6006060065
 O          0.3145348210       -1.6546960185        2.0536347454
 H          4.4313718372       -3.0400076332       -0.4892141231
 H          5.7103638914       -2.7355583761       -1.6629927388
 H          6.1235529478       -3.1216166050        0.0081751969
 H          5.1097362110       -0.9989888230        0.7738984684
 H          6.3746108647       -0.6815516505       -0.4116707420
 H          3.3817478851       -0.7710796870       -1.0093961110
 H          4.6548721999       -0.5042642184       -2.1994308849
 H          5.3538458633        1.5519662845       -0.9152608628
 H          3.7501269436        1.6322100481       -1.6513054007
 H          4.3085077404        1.0512636054        1.2903004387
 H          3.7616454422        2.5866435593        0.6128886677
 H          2.7056272878       -0.6469844400        1.8286285579
 H         -2.2419691228       -0.1871757333        1.5778934753
 H         -1.1826906241       -2.4859274836        0.6412000891
 H         -4.1356107211       -1.5195898352       -1.9418432395
 H         -5.1035411604       -1.9083557494       -0.5268301630
 H         -4.4009218014        0.0616832352        0.6409850801
 H         -4.6882095375        0.5977967496       -1.0177888498
 H         -2.2052289895        0.1141707853       -1.4562784111
 H          1.5069151901        2.6682093869       -0.5862903873
 H         -2.9358441411        2.2311996520       -2.4134132420
 H         -4.1045888695        2.8076549619       -1.2103298289
 H         -2.6132817953        3.7084712184       -1.5073448092
 H         -2.5044323364        3.5760385964        1.0008541419
 H         -3.6831689465        2.2863266853        1.2767037629
 H         -1.9951258733        2.0803513145        1.7767814799
 H         -4.0515976765       -4.1913224604       -0.0959249346
 H         -3.2912159992       -3.9809995043       -1.6685147016
 H         -2.2976402153       -4.3500266986       -0.2514533518
 H          1.1097027119       -1.9794842737        2.4928521636
  53
        -68.44772512
 C          5.8358260256       -0.7448154930        2.1974233560
 C          5.6140032437       -0.2845108974        0.7617603606
 C          4.6326990716        0.8835713187        0.6931096034
 C          4.4063361199        1.4070504509       -0.7248817032
 C          3.6201214053        0.4392930871       -1.6207464666
 C          2.2462822261        0.1753713713       -1.0750248817
 C          1.9589498140       -0.9976566955       -0.3927565149
 C          0.6937422962       -1.2310675352        0.1269162777
 C         -0.3361879683       -0.3019372065       -0.0403717484
 C         -1.7418247996       -0.5389921538        0.4583263095
 C         -2.3054729323       -1.8948979483        0.1242320455
 C         -3.5984192170       -2.1132413164       -0.0672713078
 C         -4.6316888681       -1.0195363069       -0.0149450792
 C         -4.0655388073        0.3070880598        0.4919276415
 C         -2.6870573037        0.5157296764       -0.1257326727
 C         -2.0824873745        1.9207403053       -0.0019906835
 O         -0.8858216426        1.9459071814       -0.7881976096
 C         -0.0162808693        0.9095027722       -0.6582041241
 C          1.2534923934        1.1302334139       -1.1863662370
 C         -2.9813610061        2.9866858967       -0.6323982969
 C         -1.7470450508        2.3132372812        1.4403765757
 C         -4.1395781351       -3.4759673066       -0.3829100939
 O          0.4489870246       -2.3772034756        0.8325503814
 H          6.5316340279       -1.5804175816        2.2312855426
 H          6.2430688571        0.0648387456        2.7992816206
 H          4.8957434127       -1.0609754728        2.6451155265
 H          6.5688605968        0.0198983576        0.3262121016
 H          5.2355491796       -1.1224401761        0.1742214079
 H          5.0221015501        1.6994584010        1.3073630818
 H          3.6736225527        0.5797056585        1.1181635922
 H          3.8521387718        2.3459483312       -0.6649578976
 H          5.3720716220        1.6166922950       -1.1912173418
 H          3.5333378970        0.8850679896       -2.6141576802
 H          4.1682047486       -0.4982181315       -1.7206868180
 H          2.7281029860       -1.7476330024       -0.2576720614
 H         -1.7302246510       -0.4580817305        1.5561108484
 H         -1.6070488288       -2.7135903613        0.0786820979
 H         -5.0348279583       -0.8821090145       -1.0246460304
 H         -5.4650980706       -1.3369295410        0.6180518206
 H         -3.9802623506        0.2786004065        1.5799067955
 H         -4.7456465647        1.1169535250        0.2260341229
 H         -2.7667509779        0.3215750394       -1.2036439177
 H          1.4406473850        2.0717625713       -1.6779551279
 H         -3.3410605872        2.6543766075       -1.6026598216
 H         -3.8274164538        3.2068931646        0.0109480473
 H         -2.4016728842        3.8950050296       -0.7747147749
 H         -2.6281909532        2.2287984509        2.0698346419
 H         -0.9593300892        1.6786301778        1.8383547045
 H         -1.3952515294        3.3421799959        1.4623469075
 H         -4.6859936427       -3.4581983474       -1.3259328704
 H         -3.3381798614       -4.2059705724       -0.4567671864
 H         -4.8332004192       -3.7975973918        0.3941221909
 H          1.2609845292       -2.8963016206        0.8764715415
  53
        -68.44759286
 C          4.7138844274       -1.1202175093       -2.6592706637
 C          5.3567410819       -1.3207589823       -1.2918863316
 C          4.5362959687       -0.7200963454       -0.1502811705
 C          4.4912518536        0.8052933041       -0.1792665551
 C          3.7199155191        1.3789204913        1.0161934674
 C          2.2738946890        0.9764121747        0.9739406546
 C          1.7811950381       -0.0184632164        1.8051908224
 C          0.4562059838       -0.4232350302        1.7273782256
 C         -0.4161236024        0.1426645896        0.7940954505
 C         -1.8516707897       -0.3009380639        0.6430756162
 C         -2.0441875375       -1.7929249899        0.5748246272
 C         -3.0356440274       -2.3634884716       -0.0942771220
 C         -4.0438667659       -1.5806767566       -0.8927737096
 C         -3.9321003772       -0.0716192674       -0.6737330467
 C         -2.4553532393        0.3057449280       -0.6275478427
 C         -2.1225996521        1.8002919385       -0.7314126008
 O         -0.6996724314        1.9179536615       -0.8430868761
 C          0.0674380491        1.1990496499        0.0184156101
 C          1.4018191460        1.5909257250        0.0954468113
 C         -2.6639661578        2.4174965591       -2.0227999687
 C         -2.6035381466        2.6151028858        0.4733941210
 C         -3.2195412019       -3.8515202027       -0.1342497737
 O         -0.0162189722       -1.3771244458        2.5863951761
 H          3.6981401639       -1.5096827532       -2.6608501279
 H          4.6780247814       -0.0669694292       -2.9242000068
 H          5.2837837204       -1.6421250637       -3.4249974332
 H          5.4710781464       -2.3925389663       -1.1113403408
 H          6.3560217457       -0.8784690493       -1.2913924489
 H          4.9727802875       -1.0399184127        0.7999101033
 H          3.5168062356       -1.1091061239       -0.1956139191
 H          5.5114000835        1.1970823083       -0.1666263268
 H          4.0092750903        1.1419392658       -1.0974061769
 H          4.1775478776        1.0280356426        1.9435046723
 H          3.7931153312        2.4684809823        0.9912256704
 H          2.4333836016       -0.4873438311        2.5313123954
 H         -2.4092514924        0.0540421220        1.5233496234
 H         -1.3503666284       -2.3984729240        1.1335934956
 H         -3.8894863672       -1.8077369769       -1.9537043393
 H         -5.0516319582       -1.9216677346       -0.6396045512
 H         -4.4101447708        0.1993699951        0.2695726440
 H         -4.4497995193        0.4509956394       -1.4787649448
 H         -1.9584216022       -0.1685535134       -1.4843344644
 H          1.7296468358        2.3991119596       -0.5390624732
 H         -2.4495226240        1.7724414251       -2.8708551391
 H         -3.7350885760        2.5789247121       -1.9530435588
 H         -2.1738583684        3.3736302583       -2.1870346117
 H         -3.6711779002        2.4791530656        0.6198638654
 H         -2.0761744607        2.3153991277        1.3754626241
 H         -2.4029234203        3.6698631238        0.2996474892
 H         -3.2128284017       -4.2073477093       -1.1645425642
 H         -2.4300278746       -4.3566513801        0.4154016680
 H         -4.1793032908       -4.1264154689        0.3034092769
 H          0.6963990541       -1.6436608111        3.1794480421
  53
        -68.44756139
 C          5.0139692131        2.6934276206        1.2570887940
 C          5.6387143124        1.3030915751        1.2655736568
 C          4.7385422299        0.2381722035        0.6387957075
 C          4.5612066380        0.4103303034       -0.8674003927
 C          3.6916737549       -0.6986885934       -1.4735040495
 C          2.2909420641       -0.6532604194       -0.9335668593
 C          1.8625173009       -1.5596688018        0.0247491188
 C          0.5734264946       -1.5040626962        0.5352001233
 C         -0.3386429306       -0.5460242020        0.0852704041
 C         -1.7661829808       -0.4823477907        0.5738143695
 C         -2.4840444374       -1.8060179578        0.5874790162
 C         -3.7927239088       -1.9200088263        0.4130699399
 C         -4.6895848321       -0.7422978616        0.1384012273
 C         -3.9727553389        0.5989105672        0.2960505459
 C         -2.5759404820        0.4777056371       -0.3034400920
 C         -1.8092601305        1.7867952673       -0.5342508775
 O         -0.6139343434        1.4648999172       -1.2542741812
 C          0.1265531245        0.4113227412       -0.8194958881
 C          1.4177497566        0.3391601811       -1.3366861403
 C         -2.5715148839        2.7400340742       -1.4572405873
 C         -1.4369180183        2.5101595312        0.7639070322
 C         -4.4898962243       -3.2475386446        0.4469560940
 O          0.1882555047       -2.3839325034        1.5091219698
 H          5.6486368404        3.3963934474        1.7922794066
 H          4.8864570190        3.0591365541        0.2418208822
 H          4.0392598177        2.6735443735        1.7399296312
 H          6.5928161030        1.3297964492        0.7335421728
 H          5.8465299114        1.0180841525        2.3000229705
 H          3.7584128026        0.2672380300        1.1197548718
 H          5.1743888407       -0.7461002462        0.8303907383
 H          4.0920311766        1.3722954520       -1.0744825970
 H          5.5415417586        0.3991974286       -1.3500735501
 H          3.6642887760       -0.5702086535       -2.5579076099
 H          4.1419443837       -1.6697008729       -1.2571647432
 H          2.5401035043       -2.3225629127        0.3872134637
 H         -1.7532081713       -0.1138742500        1.6110917164
 H         -1.8869409436       -2.6806863835        0.7839997898
 H         -5.0699797961       -0.8344553780       -0.8851709181
 H         -5.5569739897       -0.7832830906        0.8032088769
 H         -3.8972460659        0.8532196389        1.3550237789
 H         -4.5506102822        1.3794641494       -0.1998843301
 H         -2.6722446245        0.0126700785       -1.2936297290
 H          1.7177901326        1.0861672137       -2.0544295761
 H         -2.9627239604        2.2032616100       -2.3175136782
 H         -3.3890430770        3.2182256614       -0.9269310887
 H         -1.8872978891        3.5057821814       -1.8133793017
 H         -0.9638069337        3.4600633294        0.5253640973
 H         -2.3252478332        2.6989810048        1.3597252967
 H         -0.7337556981        1.9191771417        1.3452799776
 H         -3.7802782993       -4.0565702054        0.5969487244
 H         -5.2210107155       -3.2711444988        1.2552033017
 H         -5.0251670986       -3.4190047996       -0.4869979995
 H          0.9332976436       -2.9580069229        1.7235651948
  53
        -68.44756129
 C          5.0866736476        2.6931454562        1.2146541452
 C          5.6713162218        1.2858250938        1.2463880391
 C          4.7426439577        0.2367415662        0.6346331636
 C          4.5613770539        0.3986451190       -0.8722002017
 C          3.6835154205       -0.7095173355       -1.4675221449
 C          2.2847030464       -0.6558320815       -0.9232392624
 C          1.8555158312       -1.5569202132        0.0397704178
 C          0.5664239706       -1.4977020428        0.5498144342
 C         -0.3448904062       -0.5413604749        0.0947328332
 C         -1.7738023555       -0.4768662045        0.5791678666
 C         -2.4903034815       -1.8012990796        0.5953291729
 C         -3.7980029860       -1.9177909460        0.4151749653
 C         -4.6950991954       -0.7424141102        0.1315175704
 C         -3.9809343537        0.6003075512        0.2883578926
 C         -2.5813753563        0.4789920564       -0.3046881676
 C         -1.8152603490        1.7882186260       -0.5367731723
 O         -0.6172672175        1.4652095317       -1.2518752361
 C          0.1218540172        0.4123649140       -0.8130353390
 C          1.4130577966        0.3365659113       -1.3297996616
 C         -2.5753150567        2.7379049396       -1.4652117607
 C         -1.4482271121        2.5158306684        0.7605011981
 C         -4.4934222661       -3.2461871974        0.4507803287
 O          0.1800461374       -2.3728955668        1.5274728286
 H          5.7394589441        3.3855333907        1.7419146783
 H          4.9737555260        3.0469542201        0.1934409948
 H          4.1100934838        2.7085955836        1.6938168552
 H          6.6264992272        1.2770791112        0.7156955373
 H          5.8695328474        1.0111837973        2.2854843656
 H          3.7659975487        0.2927524338        1.1202874138
 H          5.1568449220       -0.7554261288        0.8336561585
 H          4.0978516259        1.3620711887       -1.0851246866
 H          5.5401454755        0.3773135507       -1.3578381755
 H          3.6523249340       -0.5875077331       -2.5525758039
 H          4.1302510818       -1.6812767208       -1.2472729024
 H          2.5320830304       -2.3191753545        0.4054363411
 H         -1.7645504204       -0.1045091690        1.6150360556
 H         -1.8929661328       -2.6744260855        0.7978984043
 H         -5.0699703354       -0.8386207087       -0.8937317761
 H         -5.5659171579       -0.7823410234        0.7918708874
 H         -3.9105072648        0.8578997152        1.3468856001
 H         -4.5576674231        1.3785398648       -0.2125435105
 H         -2.6728907447        0.0104422126       -1.2936388071
 H          1.7143161512        1.0806821450       -2.0500066203
 H         -3.3951018552        3.2168332455       -0.9390803434
 H         -1.8906641140        3.5033088105       -1.8212975713
 H         -2.9630624631        2.1981976970       -2.3252110216
 H         -0.9763486860        3.4660596760        0.5208651745
 H         -2.3387536360        2.7044120451        1.3531241566
 H         -0.7456567250        1.9278293444        1.3455660429
 H         -3.7834348609       -4.0535967688        0.6075835496
 H         -5.2286506291       -3.2676787102        1.2553278318
 H         -5.0236396021       -3.4221305618       -0.4852343869
 H          0.9246163977       -2.9463912687        1.7450803765
  53
        -68.44752264
 C          5.3889630457        1.2511307424        2.2395204886
 C          5.5162215032        1.8780933272        0.8558083020
 C          4.4804539242        1.3535879583       -0.1389309986
 C          4.6939119230       -0.1099993804       -0.5150192536
 C          3.6719941867       -0.5896344217       -1.5541033348
 C          2.2743415840       -0.5618502116       -1.0052683891
 C          1.8612115167       -1.5274856865       -0.0974941568
 C          0.5798057442       -1.5091610595        0.4314664204
 C         -0.3429159502       -0.5305770198        0.0499519862
 C         -1.7656650621       -0.5055504093        0.5558226909
 C         -2.4749128376       -1.8327338592        0.4983419845
 C         -3.7841534073       -1.9459728462        0.3277641020
 C         -4.6911349378       -0.7608860596        0.1287733648
 C         -3.9823711108        0.5737542788        0.3607804150
 C         -2.5898124413        0.4988591429       -0.2560149315
 C         -1.8344361280        1.8251926962       -0.4146143849
 O         -0.6427557321        1.5559514005       -1.1618081461
 C          0.1067620806        0.4815048128       -0.8001626925
 C          1.3934439534        0.4486734885       -1.3357747255
 C         -2.6111135432        2.8256315707       -1.2734024278
 C         -1.4566925291        2.4730666533        0.9212726548
 C         -4.4718591614       -3.2783442883        0.2905013535
 O          0.2095239417       -2.4482344208        1.3546393345
 H          4.3782118688        1.3786874626        2.6212820983
 H          5.6142756448        0.1883026678        2.2103034876
 H          6.0807001734        1.7232553899        2.9338368915
 H          5.3916668523        2.9597279556        0.9483709944
 H          6.5200110432        1.6943880847        0.4647884467
 H          4.5295436994        1.9584397938       -1.0478234787
 H          3.4805024786        1.4730495492        0.2832894891
 H          5.7006143801       -0.2355371368       -0.9213776951
 H          4.6096401802       -0.7345658082        0.3751895752
 H          3.7317247513        0.0468871173       -2.4384126499
 H          3.9248828963       -1.6105081263       -1.8511552123
 H          2.5457709922       -2.3099371099        0.2055682156
 H         -1.7446796356       -0.1986408106        1.6127839233
 H         -1.8705358669       -2.7130567574        0.6395744593
 H         -5.0777923935       -0.7951971684       -0.8960435185
 H         -5.5537045527       -0.8473446131        0.7954859653
 H         -3.8998858962        0.7647812698        1.4324759490
 H         -4.5697251751        1.3782783926       -0.0830041643
 H         -2.6912498180        0.0928372403       -1.2712881681
 H          1.6819574421        1.2419685346       -2.0068696611
 H         -3.0054651035        2.3378603814       -2.1609761188
 H         -3.4276904748        3.2652586561       -0.7093270329
 H         -1.9352880438        3.6163434716       -1.5887457593
 H         -0.9920211093        3.4388737773        0.7358162959
 H         -2.3415591798        2.6197600419        1.5338983756
 H         -0.7449563777        1.8538644094        1.4613240402
 H         -5.1945626100       -3.3546690545        1.1030284660
 H         -5.0153470438       -3.3988182352       -0.6466545001
 H         -3.7552473945       -4.0894973187        0.3859762349
 H          0.9593594284       -3.0304954303        1.5258817926
  53
        -68.44750731
 C          6.5500330900       -1.0970254462       -1.8003274236
 C          5.0565935297       -1.3775774342       -1.6774406942
 C          4.4364148860       -0.8031237152       -0.4036241875
 C          4.4090580310        0.7229326445       -0.3820889228
 C          3.6907668363        1.2675943297        0.8595541101
 C          2.2361283845        0.8954757192        0.8619032866
 C          1.7551712390       -0.1152840093        1.6809693096
 C          0.4196019832       -0.4900219201        1.6440897124
 C         -0.4763476992        0.1233184879        0.7648028368
 C         -1.9255140231       -0.2871037783        0.6565912853
 C         -2.1506600001       -1.7720764590        0.5473420298
 C         -3.1786926589       -2.3010192966       -0.1003741199
 C         -4.2014529558       -1.4729374162       -0.8318664899
 C         -4.0502991004        0.0256342036       -0.5688126294
 C         -2.5654511154        0.3727311735       -0.5689753719
 C         -2.2059528254        1.8630669365       -0.6379652494
 O         -0.7862778078        1.9566124055       -0.8020262969
 C         -0.0012567399        1.1944855027        0.0042772010
 C          1.3433320680        1.5562169291        0.0395680186
 C         -2.7841466101        2.5327358627       -1.8865116847
 C         -2.6226474736        2.6471384656        0.6103941315
 C         -3.3935280551       -3.7831445114       -0.1825562773
 O         -0.0392246259       -1.4611263996        2.4910812952
 H          6.7413372849       -0.0315935831       -1.8972534755
 H          7.0796158361       -1.4643479715       -0.9235921198
 H          6.9565322329       -1.5940746830       -2.6784079220
 H          4.5369645397       -0.9664184580       -2.5457998034
 H          4.9009088180       -2.4592436832       -1.6824469582
 H          4.9938586819       -1.1676923657        0.4630912302
 H          3.4105122087       -1.1689267423       -0.3186257259
 H          5.4285066528        1.1121386139       -0.3927024832
 H          3.8973560411        1.0852005560       -1.2759437941
 H          4.1766984178        0.8761491979        1.7556419795
 H          3.7847083406        2.3558317515        0.8692153314
 H          2.4252159160       -0.6201147763        2.3656301156
 H         -2.4411187381        0.0490425472        1.5692391912
 H         -1.4476406463       -2.4090420102        1.0575656067
 H         -4.0937962189       -1.6675865155       -1.9049244569
 H         -5.2051928337       -1.8028441376       -0.5496269928
 H         -4.4855745900        0.2744687844        0.4009148618
 H         -4.5880931207        0.5844256153       -1.3354314386
 H         -2.1120378480       -0.0827396345       -1.4594204261
 H          1.6634485288        2.3775277665       -0.5818590414
 H         -2.6155500447        1.9120765274       -2.7626544318
 H         -3.8483139038        2.7119422216       -1.7696536582
 H         -2.2816124268        3.4843766944       -2.0389138815
 H         -3.6865022233        2.5278053144        0.7941231824
 H         -2.0674513114        2.3074497226        1.4810353480
 H         -2.4065312914        3.7028389861        0.4628634390
 H         -4.3416803141       -4.0549255430        0.2815879478
 H         -3.4320944982       -4.1039144338       -1.2236122033
 H         -2.5942849350       -4.3211569368        0.3197799138
 H          0.6901161741       -1.7608720283        3.0468052856
  53
        -68.44750066
 C          5.0155008965       -2.2383515140       -1.4231042605
 C          5.2285886389       -0.8000531444       -1.8813574379
 C          4.3082544565        0.1973275359       -1.1774298098
 C          4.6183487728        0.3566472787        0.3084092625
 C          3.7180095796        1.4074570595        0.9698469293
 C          2.2726741900        1.0022098785        0.9207604607
 C          1.8087061191       -0.0281487864        1.7277562287
 C          0.4895827065       -0.4487585966        1.6605962555
 C         -0.4097987073        0.1409504742        0.7673090092
 C         -1.8416285644       -0.3178663157        0.6295388066
 C         -2.0125786010       -1.8081935587        0.4973662297
 C         -3.0125853607       -2.3630619947       -0.1722125717
 C         -4.0537049846       -1.5605081238       -0.9064226914
 C         -3.9565146990       -0.0607366257       -0.6246394209
 C         -2.4841556567        0.3349190461       -0.5984056839
 C         -2.1711750712        1.8365772072       -0.6454658741
 O         -0.7528882101        1.9754893172       -0.7894829573
 C          0.0428445507        1.2324242457        0.0241147201
 C          1.3759658950        1.6363644728        0.0842370725
 C         -2.7540824656        2.5029734537       -1.8934365602
 C         -2.6284624607        2.5918666080        0.6064263592
 C         -3.1743479565       -3.8503687571       -0.2786999989
 O          0.0448020798       -1.4397452487        2.4919806792
 H          5.2983620103       -2.3635870857       -0.3811615247
 H          3.9702503398       -2.5193910103       -1.5328094762
 H          5.6190051465       -2.9188370056       -2.0199582500
 H          6.2698439729       -0.5152574210       -1.7110819011
 H          5.0432518053       -0.7436361621       -2.9566730749
 H          3.2705581169       -0.1223005658       -1.2943069589
 H          4.4097801853        1.1713790079       -1.6624394382
 H          4.4780075776       -0.5978218210        0.8170385421
 H          5.6628791121        0.6540141011        0.4308063226
 H          4.0263905575        1.5301193456        2.0114419167
 H          3.8477730670        2.3646775043        0.4623258473
 H          2.4807552541       -0.5089462256        2.4275620498
 H         -2.3836047438       -0.0120308198        1.5375180030
 H         -1.2943957594       -2.4273223393        1.0085524069
 H         -3.9268087080       -1.7386620104       -1.9802491977
 H         -5.0490683701       -1.9272610269       -0.6404657121
 H         -4.4142331959        0.1625766798        0.3409568202
 H         -4.5011601307        0.4886360756       -1.3932362662
 H         -2.0030069565       -0.0953336957       -1.4868652035
 H          1.6803772072        2.4674778732       -0.5318440210
 H         -3.8248765652        2.6466112398       -1.7884779815
 H         -2.2804177507        3.4720002710       -2.0275407445
 H         -2.5543683149        1.8990949592       -2.7747271908
 H         -3.6901133370        2.4359724801        0.7750014680
 H         -2.0735241832        2.2598308004        1.4801732885
 H         -2.4448805380        3.6556949213        0.4739970829
 H         -2.3635312814       -4.3677713698        0.2267480273
 H         -4.1184717674       -4.1618645168        0.1683672608
 H         -3.1879240085       -4.1567081742       -1.3247301535
 H          0.7713911311       -1.7192748368        3.0616314853
  53
        -68.44747439
 C          6.8441378847        1.8049309971        0.5856618172
 C          5.3636062625        1.8610020245        0.9451018293
 C          4.4599271681        1.2313337941       -0.1152218392
 C          4.6370328093       -0.2797057012       -0.2380173076
 C          3.6376572762       -0.8975499257       -1.2255479813
 C          2.2222558660       -0.7644653437       -0.7420893075
 C          1.7518699426       -1.5836986487        0.2751389553
 C          0.4524259222       -1.4661942780        0.7438920809
 C         -0.4305214497       -0.5330222212        0.1924209991
 C         -1.8693241134       -0.4080302599        0.6337204092
 C         -2.6106945478       -1.7150570525        0.7327383488
 C         -3.9159102319       -1.8225702640        0.5304428061
 C         -4.7839861768       -0.6571754816        0.1367213193
 C         -4.0481196961        0.6811495586        0.2069590799
 C         -2.6377878977        0.4904512181       -0.3406205537
 C         -1.8420665082        1.7646640971       -0.6537839766
 O         -0.6330552364        1.3672760231       -1.3105815751
 C          0.0753256941        0.3397339769       -0.7726817919
 C          1.3794011136        0.2057724113       -1.2470343096
 C         -2.5615657905        2.6514152535       -1.6723772560
 C         -1.4931709520        2.5850152471        0.5921153934
 C         -4.6370463063       -3.1321462498        0.6506708480
 O          0.0242458256       -2.2586181150        1.7733304531
 H          7.1985275471        0.7783108239        0.5446878808
 H          7.0174649497        2.2684803843       -0.3832278356
 H          7.4339428916        2.3361927300        1.3294654264
 H          5.2027414397        1.3563741049        1.9007325466
 H          5.0724815772        2.9064934442        1.0724496968
 H          4.6613611087        1.6978315418       -1.0824569520
 H          3.4188713155        1.4387493651        0.1424057151
 H          5.6481859892       -0.5078186311       -0.5793456267
 H          4.5010423155       -0.7376938774        0.7443734615
 H          3.7423258167       -0.4062291360       -2.1941768456
 H          3.8784477903       -1.9559556425       -1.3524086861
 H          2.4054490408       -2.3281229592        0.7125827479
 H         -1.8779142939        0.0425554168        1.6380540027
 H         -2.0348493633       -2.5801555266        1.0158894425
 H         -5.1377446282       -0.8256151444       -0.8866949195
 H         -5.6698533813       -0.6311234479        0.7774648173
 H         -3.9971158263        1.0187400357        1.2438828602
 H         -4.5982885086        1.4280625648       -0.3662939753
 H         -2.7152072817       -0.0515336062       -1.2925627469
 H          1.7114737997        0.8888854593       -2.0126377353
 H         -1.8544782409        3.3755363417       -2.0686393255
 H         -2.9375836247        2.0527386541       -2.4978588305
 H         -3.3853195150        3.1830455775       -1.2065338543
 H         -0.9965134555        3.5048647225        0.2917216056
 H         -2.3943262438        2.8355066530        1.1443367032
 H         -0.8173321897        2.0322993616        1.2397486618
 H         -5.3887971300       -3.0798919862        1.4383890863
 H         -5.1513328733       -3.3690340826       -0.2807525064
 H         -3.9459603599       -3.9376916008        0.8832532132
 H          0.7522464016       -2.8255953064        2.0546763228
  53
        -68.44747247
 C          6.4984733980       -0.9581620604       -1.9352246412
 C          4.9852369067       -1.1408134718       -1.9007276151
 C          4.2549128594       -0.0021954425       -1.1883684617
 C          4.5410197171        0.0533109689        0.3098720175
 C          3.7078626279        1.1332973201        1.0133970898
 C          2.2410390977        0.8168309576        0.9656359474
 C          1.7041989322       -0.1363320633        1.8203494602
 C          0.3622011210       -0.4784480663        1.7563607847
 C         -0.4866827959        0.1092162990        0.8136395877
 C         -1.9421517318       -0.2689746887        0.6755445312
 C         -2.2054962904       -1.7513309067        0.6434753252
 C         -3.2228761783       -2.2907754230       -0.0123373618
 C         -4.1930353305       -1.4811611451       -0.8308004888
 C         -4.0114674069        0.0256694881       -0.6464471209
 C         -2.5188131157        0.3353323808       -0.6087362143
 C         -2.1178318231        1.8102153298       -0.7471677685
 O         -0.6910676703        1.8602854927       -0.8605149504
 C          0.0430526131        1.1244098288        0.0150305626
 C          1.3962423806        1.4538866443        0.0784621141
 C         -2.6306799669        2.4213989338       -2.0529612885
 C         -2.5603951996        2.6741739660        0.4379553499
 C         -3.4767356101       -3.7689762744       -0.0157657695
 O         -0.1529614987       -1.3878694399        2.6387556864
 H          6.7554508983       -0.0018946204       -2.3861086164
 H          6.9199335991       -0.9912233915       -0.9339100932
 H          6.9611826142       -1.7485012574       -2.5223475852
 H          4.6153634336       -1.2011647487       -2.9270971708
 H          4.7447421750       -2.0861543215       -1.4086168283
 H          3.1797110169       -0.1304613631       -1.3318709818
 H          4.5394028854        0.9486781369       -1.6452544363
 H          4.3165842145       -0.9189265148        0.7545908749
 H          5.5982189604        0.2657733984        0.4779220932
 H          4.0308845122        1.2029824550        2.0551418714
 H          3.8928678101        2.0960740286        0.5343502222
 H          2.3370506472       -0.6169977292        2.5560202661
 H         -2.4801551428        0.1331760534        1.5476693262
 H         -1.5410316508       -2.3751720313        1.2175148676
 H         -4.0483428648       -1.7396920191       -1.8858688208
 H         -5.2157812835       -1.7690727498       -0.5718316823
 H         -4.4756093390        0.3399260002        0.2903463759
 H         -4.5050956916        0.5531812348       -1.4632791058
 H         -2.0450569466       -0.1810619292       -1.4542363558
 H          1.7586747052        2.2300589178       -0.5766888053
 H         -3.6933342088        2.6329593716       -1.9880717985
 H         -2.0975456509        3.3501847397       -2.2387604052
 H         -2.4457474238        1.7477975731       -2.8856211389
 H         -2.0469456644        2.3718787477        1.3471444806
 H         -2.3116273285        3.7142617260        0.2396109617
 H         -3.6330937552        2.5908088087        0.5868543212
 H         -2.7129594824       -4.2968925856        0.5486648884
 H         -4.4492471097       -3.9873205636        0.4256593834
 H         -3.4849784044       -4.1503609594       -1.0368789482
 H          0.5480482778       -1.6753404952        3.2358864317
  53
        -68.44746514
 C          6.9273995383        1.4688113988        0.8585887469
 C          5.4730691222        1.3986939469        1.3103662908
 C          4.6820450094        0.2809787871        0.6303980422
 C          4.4719974667        0.5141180075       -0.8634435271
 C          3.5895605448       -0.5694713197       -1.4972496588
 C          2.1941687411       -0.5456939149       -0.9426488259
 C          1.7779469436       -1.4829891030       -0.0088020570
 C          0.4920259508       -1.4510287072        0.5116791677
 C         -0.4294941349       -0.4866908717        0.0957306388
 C         -1.8548916067       -0.4480728980        0.5932493177
 C         -2.5620786231       -1.7774676192        0.5743262445
 C         -3.8703668349       -1.8979781224        0.4012844905
 C         -4.7779781166       -0.7211448508        0.1605195302
 C         -4.0721083241        0.6211258462        0.3539633310
 C         -2.6764870073        0.5291795384       -0.2535285052
 C         -1.9222673954        1.8511375366       -0.4495139497
 O         -0.7267529231        1.5607560797       -1.1824836681
 C          0.0236320035        0.5003870534       -0.7828971351
 C          1.3120648242        0.4527370299       -1.3098063674
 C         -2.6963427854        2.8233108727       -1.3424687634
 C         -1.5518300018        2.5405586183        0.8674880613
 C         -4.5561747766       -3.2318337417        0.4028107333
 O          0.1195414320       -2.3619669330        1.4616955147
 H          7.4640178318        2.2236804565        1.4291513150
 H          7.4198147467        0.5105829401        1.0112129987
 H          6.9978605381        1.7286060530       -0.1943233233
 H          5.4484676663        1.2344934759        2.3905480002
 H          4.9845404584        2.3552993275        1.1118179387
 H          3.7032522083        0.2041199812        1.1096128483
 H          5.2022087697       -0.6687868011        0.7792138607
 H          4.0012970724        1.4880253520       -1.0113176398
 H          5.4352422880        0.5212398109       -1.3761796915
 H          3.5497476586       -0.4015494542       -2.5758434819
 H          4.0418146906       -1.5477388879       -1.3218853464
 H          2.4623552554       -2.2527790423        0.3252614294
 H         -1.8393424088       -0.1079738202        1.6400981943
 H         -1.9571910899       -2.6519782142        0.7460738197
 H         -5.1595046426       -0.7882950908       -0.8645936059
 H         -5.6437211317       -0.7878380349        0.8253864072
 H         -3.9950030681        0.8456722736        1.4195262694
 H         -4.6583888705        1.4104881700       -0.1175616483
 H         -2.7724210129        0.0915852786       -1.2561452835
 H          1.6027814584        1.2227188178       -2.0067869516
 H         -3.5159300142        3.2791878754       -0.7959464209
 H         -2.0201218540        3.6047716968       -1.6792597810
 H         -3.0861489012        2.3076625461       -2.2162012955
 H         -1.0898235242        3.5019436158        0.6546281419
 H         -2.4395178163        2.7026452153        1.4720795997
 H         -0.8398478063        1.9406367229        1.4286019610
 H         -3.8392704982       -4.0384200531        0.5295147804
 H         -5.2843416984       -3.2826421145        1.2124489621
 H         -5.0930932096       -3.3835449436       -0.5336067624
 H          0.8698759210       -2.9369894517        1.6540171217
  53
        -68.44735298
 C          7.9959715327       -0.3788688494       -0.6732445195
 C          6.5389837709       -0.5151256800       -0.2476803994
 C          5.5872668533       -0.0399247768       -1.3436765425
 C          4.1125415663       -0.2601153967       -1.0088885521
 C          3.6145243474        0.6187639076        0.1449447322
 C          2.1394435861        0.4250749536        0.3431702335
 C          1.6648113033       -0.5628331985        1.1938795402
 C          0.3037636066       -0.7887922885        1.3361708746
 C         -0.6295499890       -0.0447017698        0.6090535580
 C         -2.1169445384       -0.2914805798        0.6946822057
 C         -2.5202831378       -1.7378906444        0.5806940758
 C         -3.6789002508       -2.1267704263        0.0683764119
 C         -4.6915583334       -1.1648832259       -0.4938517324
 C         -4.3397484588        0.2967728745       -0.2156095585
 C         -2.8391045250        0.4823883107       -0.4128397859
 C         -2.3279867470        1.9271368495       -0.4930199081
 O         -0.9421087818        1.8745227955       -0.8504600307
 C         -0.1456168959        0.9989813534       -0.1827102670
 C          1.2239435907        1.2107772674       -0.3291157972
 C         -2.9913522633        2.7052798532       -1.6314807268
 C         -2.4814108647        2.6998101947        0.8208623701
 C         -4.0675005017       -3.5727297592       -0.0200635304
 O         -0.1417813253       -1.7381087997        2.2143390972
 H          8.1916794853       -0.9733457591       -1.5632442044
 H          8.2311878509        0.6592512909       -0.8981927438
 H          8.6608558797       -0.7172888252        0.1182522107
 H          6.3258772008       -1.5613414291       -0.0153723219
 H          6.3784195221        0.0684898036        0.6603251474
 H          5.8185769887       -0.5820511118       -2.2642202542
 H          5.7595516518        1.0218536288       -1.5353355476
 H          3.5105535758       -0.0375074132       -1.8928641578
 H          3.9483340320       -1.3100768216       -0.7557713362
 H          4.1457847330        0.3581405756        1.0613227981
 H          3.8220042182        1.6644486359       -0.0892677624
 H          2.3623331136       -1.1645141786        1.7631837688
 H         -2.4626145864        0.0612518384        1.6784687799
 H         -1.8309859024       -2.4667986141        0.9728591486
 H         -4.7511400657       -1.3260530023       -1.5761673297
 H         -5.6789684868       -1.3964090303       -0.0846758186
 H         -4.6095159323        0.5508103674        0.8112501489
 H         -4.9102388300        0.9409566234       -0.8854865813
 H         -2.5638466693        0.0175501182       -1.3689160919
 H          1.5463391631        2.0154884734       -0.9707013536
 H         -4.0030216943        2.9929329376       -1.3631531638
 H         -2.4106381901        3.6027840187       -1.8279894453
 H         -3.0135790412        2.1062773178       -2.5381070098
 H         -2.1713867325        3.7315945197        0.6716109152
 H         -3.5170356099        2.6870826607        1.1481591941
 H         -1.8541601735        2.2677719935        1.5964505931
 H         -4.9691507406       -3.7592605661        0.5635115617
 H         -4.2811707071       -3.8457590089       -1.0534858932
 H         -3.2733623849       -4.2132045134        0.3537072867
 H          0.6182397733       -2.1388439708        2.6529491147
  53
        -68.44734819
 C          7.7771466720        0.4490389582       -1.5030702554
 C          6.2702619263        0.5601003951       -1.3046239398
 C          5.6946591346       -0.7003471839       -0.6624562809
 C          4.1706737603       -0.6840681949       -0.5487074896
 C          3.6473355588        0.3584578751        0.4468155124
 C          2.1552725952        0.2527448468        0.5708090087
 C          1.5805974797       -0.5852187484        1.5155306975
 C          0.2037969944       -0.7324835440        1.5955570265
 C         -0.6448612951       -0.0609625492        0.7111656836
 C         -2.1452517893       -0.2310906189        0.7301402553
 C         -2.6137044869       -1.6608814064        0.7918533371
 C         -3.7574537384       -2.0700575266        0.2621116197
 C         -4.6838499496       -1.1565729277       -0.4955978348
 C         -4.2761398147        0.3138463344       -0.4002553364
 C         -2.7588752383        0.4068943222       -0.5202217406
 C         -2.1716850281        1.8033232630       -0.7656843078
 O         -0.7710728689        1.6432798796       -1.0182492155
 C         -0.0617405167        0.8393188875       -0.1831494534
 C          1.3230063268        0.9724520584       -0.2640858216
 C         -2.7244456102        2.4388935319       -2.0432463256
 C         -2.3654547225        2.7605204188        0.4146081214
 C         -4.2132710776       -3.4962921426        0.3505688461
 O         -0.3414844360       -1.5290139977        2.5646094615
 H          8.1721671623        1.3548767412       -1.9572447066
 H          8.2772597614        0.2979539110       -0.5486212043
 H          8.0168963457       -0.3918092244       -2.1506395467
 H          6.0577980723        1.4261025994       -0.6756979449
 H          5.7880894544        0.7225356352       -2.2713237246
 H          6.1309743847       -0.8302172748        0.3311432549
 H          5.9883355243       -1.5634494899       -1.2656012757
 H          3.7322990297       -0.4889068847       -1.5296188007
 H          3.8287138394       -1.6709543828       -0.2270979693
 H          4.1161939394        0.1907320610        1.4189228684
 H          3.9134442476        1.3582717197        0.1034571395
 H          2.2108089584       -1.1287522413        2.2084309666
 H         -2.5315372104        0.2719368397        1.6298464108
 H         -1.9876661340       -2.3545153748        1.3277465604
 H         -4.6854279816       -1.4673176748       -1.5464609184
 H         -5.7048410260       -1.2860842069       -0.1258122521
 H         -4.5943907476        0.7221393286        0.5608471988
 H         -4.7715309250        0.8795561208       -1.1899915696
 H         -2.4500871052       -0.2000568968       -1.3817146360
 H          1.7240648932        1.6648076216       -0.9872275829
 H         -2.0883178922        3.2746075824       -2.3229917690
 H         -2.7216283396        1.7187483556       -2.8572960766
 H         -3.7347780846        2.8033332079       -1.8862207911
 H         -3.4183710833        2.8371117988        0.6701888919
 H         -1.8090513697        2.4172758011        1.2830666003
 H         -1.9953025381        3.7470054506        0.1446576848
 H         -3.4768080323       -4.1096763923        0.8623863842
 H         -5.1567858555       -3.5597042420        0.8928813695
 H         -4.3779842046       -3.9046864505       -0.6465473165
 H          0.3693373088       -1.8946950525        3.1046505584
  53
        -68.44734714
 C          8.0943080570        0.0229872803       -0.3481823334
 C          6.6231501107       -0.2498879779       -0.0587630921
 C          5.7737304859        1.0071550906       -0.2352077607
 C          4.3082101224        0.8123999741        0.1517434124
 C          3.5504723757       -0.1272304440       -0.7942011492
 C          2.0994707831       -0.1900341355       -0.4145731551
 C          1.6534377862       -1.1152056964        0.5181248316
 C          0.3188494391       -1.1644992371        0.8926172566
 C         -0.6199969197       -0.2968721540        0.3275970596
 C         -2.0911576160       -0.3519682477        0.6643688460
 C         -2.6901362413       -1.7333464264        0.6359238741
 C         -3.9583134713       -1.9651200896        0.3291550449
 C         -4.9189597790       -0.8756255523       -0.0669157557
 C         -4.3413455209        0.5257690708        0.1328632055
 C         -2.8836493509        0.5199320722       -0.3148141920
 C         -2.2130296269        1.8884122158       -0.4948582449
 O         -0.9244998346        1.6636530113       -1.0781157030
 C         -0.1465076148        0.6849207315       -0.5455463823
 C          1.1938207152        0.7191702341       -0.9251344114
 C         -2.9525313795        2.7569911538       -1.5148464848
 C         -2.0450274411        2.6602839115        0.8177521459
 C         -4.5383434363       -3.3482644753        0.3238183240
 O         -0.0901432295       -2.0602437937        1.8419842640
 H          8.6849664778       -0.8816368952       -0.2222990914
 H          8.2220205057        0.3766387634       -1.3690819921
 H          8.4824929197        0.7828406997        0.3269159601
 H          6.2685098670       -1.0332518186       -0.7306386445
 H          6.5172790960       -0.6143725703        0.9659164404
 H          5.8317742743        1.3385223030       -1.2747294095
 H          6.1943519800        1.8012474722        0.3872490394
 H          4.2488049900        0.4202825878        1.1697279937
 H          3.8070112506        1.7830328973        0.1440927010
 H          3.6480739022        0.2426686759       -1.8164421573
 H          3.9850948797       -1.1264864618       -0.7455743567
 H          2.3532430673       -1.8110848507        0.9638915422
 H         -2.2187509488        0.0317996589        1.6881916009
 H         -2.0442895175       -2.5487086921        0.9155933013
 H         -5.1782374963       -1.0162675342       -1.1223369553
 H         -5.8457302071       -0.9830988510        0.5036616256
 H         -4.4006102472        0.8008328733        1.1876660760
 H         -4.9286773830        1.2450527119       -0.4388435294
 H         -2.8340084579        0.0341302274       -1.2983982173
 H          1.5038367593        1.4812564908       -1.6224670678
 H         -3.2021674767        2.1753735963       -2.3983895734
 H         -3.8600615611        3.1685466047       -1.0844421847
 H         -2.3030626178        3.5750365024       -1.8154527442
 H         -1.6350067463        3.6455363204        0.6076191739
 H         -3.0044833914        2.7765400358        1.3134414239
 H         -1.3576065770        2.1432661736        1.4824213131
 H         -3.7816527863       -4.0890352010        0.5673007932
 H         -5.3461531460       -3.4231962094        1.0519395917
 H         -4.9549891365       -3.5812721032       -0.6561292711
 H          0.6745606121       -2.5634763921        2.1462858417
  53
        -68.44734148
 C          7.8471192279        0.9105414665       -1.2387311327
 C          6.3270166888        0.8672183809       -1.1390179146
 C          5.8670363006        0.4845503714        0.2661305286
 C          4.3503539384        0.5392595580        0.4459486348
 C          3.6057434899       -0.5381252162       -0.3517825099
 C          2.1331238062       -0.4737219393       -0.0677755601
 C          1.5816896235       -1.1946670875        0.9814474311
 C          0.2250621674       -1.1226822936        1.2613253291
 C         -0.6297453420       -0.3363336964        0.4839807979
 C         -2.1206102183       -0.2736436415        0.7164972379
 C         -2.7850541222       -1.6140174263        0.8887985024
 C         -4.0400791488       -1.8495363413        0.5344672996
 C         -4.9165834247       -0.8137765170       -0.1179818692
 C         -4.2838987773        0.5780283572       -0.1269087350
 C         -2.8020070636        0.4367147863       -0.4574289007
 C         -2.0525815234        1.7237316029       -0.8272323288
 O         -0.7421175967        1.3480326675       -1.2660729135
 C         -0.0514127372        0.4516916258       -0.5135607734
 C          1.3101017689        0.3628002599       -0.7962101867
 C         -2.6791947379        2.4224137539       -2.0358940084
 C         -1.9310655696        2.7120582461        0.3369751107
 C         -4.6869940954       -3.1884627687        0.7303100372
 O         -0.2896529171       -1.8140050234        2.3234203195
 H          8.2554679676        1.6430841366       -0.5455297772
 H          8.2727603855       -0.0613279617       -0.9976004195
 H          8.1581178291        1.1805988118       -2.2453446652
 H          5.9186891873        1.8474456474       -1.3956405744
 H          5.9440294700        0.1461687319       -1.8629062756
 H          6.3263279177        1.1716641291        0.9816219748
 H          6.2239054467       -0.5213454035        0.5010699641
 H          4.1139472437        0.4104868881        1.5051533086
 H          3.9815645608        1.5220442072        0.1448553055
 H          3.7749416279       -0.3861968310       -1.4179028108
 H          3.9960876694       -1.5202487153       -0.0763462495
 H          2.2146616182       -1.8245720479        1.5940328249
 H         -2.2956204099        0.2928045579        1.6439743720
 H         -2.2008106929       -2.3894147362        1.3552894083
 H         -5.1122290687       -1.1321153851       -1.1481743788
 H         -5.8832686827       -0.7820714980        0.3924220537
 H         -4.3988753804        1.0404613042        0.8552841378
 H         -4.7952949876        1.2042276776       -0.8586977179
 H         -2.7121847421       -0.2199987840       -1.3329767346
 H          1.7030935496        0.9721220647       -1.5946011857
 H         -2.9003888864        1.7013700487       -2.8184598945
 H         -3.5905192167        2.9394255050       -1.7523229506
 H         -1.9707586936        3.1473234845       -2.4283096398
 H         -2.9134657341        2.9515468289        0.7336147339
 H         -1.3145986868        2.2973866937        1.1304757247
 H         -1.4596314800        3.6273422214       -0.0137187484
 H         -3.9860621713       -3.9013401999        1.1558453447
 H         -5.5439204236       -3.1012967273        1.3984408098
 H         -5.0490286701       -3.5777540446       -0.2212976062
 H          0.4269671542       -2.2827221107        2.7676893238
  53
        -68.44732274
 C          3.2204581049        3.0970570114        1.3036508086
 C          3.6204601348        1.6288434169        1.2277551320
 C          4.5998342464        1.3716333534        0.0829995587
 C          4.9098989775       -0.1142289915       -0.1280942656
 C          3.9789139200       -0.7952947065       -1.1434138511
 C          2.5384031263       -0.7408759070       -0.7276847010
 C          2.0650665283       -1.5784621939        0.2736484497
 C          0.7477861594       -1.5069016045        0.7001326590
 C         -0.1486200948       -0.6027659684        0.1222241140
 C         -1.5978261190       -0.5133548777        0.5365451541
 C         -2.3107845235       -1.8370645966        0.6197940540
 C         -3.6108250476       -1.9709164111        0.4004592011
 C         -4.4982922425       -0.8220971793        0.0008096409
 C         -3.7915543716        0.5315280322        0.0808063462
 C         -2.3704979912        0.3702081952       -0.4478460566
 C         -1.5945931532        1.6592649363       -0.7503330163
 O         -0.3736580161        1.2818806563       -1.3968262891
 C          0.3530292942        0.2792058244       -0.8367627499
 C          1.6729646386        0.1861852349       -1.2745078156
 C         -2.3200185589        2.5361019143       -1.7730161347
 C         -1.2684143398        2.4819844856        0.5002335635
 C         -4.3056861814       -3.2959564849        0.5048393131
 O          0.3153088904       -2.3113463323        1.7181826280
 H          2.5509939732        3.2691328709        2.1434968606
 H          4.0973383986        3.7295709617        1.4277948724
 H          2.7082801330        3.3947589019        0.3913763672
 H          4.0852932585        1.3286127400        2.1704210857
 H          2.7255715790        1.0223295244        1.0883961658
 H          5.5279609584        1.9072875175        0.2983502599
 H          4.1898542878        1.7881353992       -0.8386659178
 H          5.9335122599       -0.2221564830       -0.4945457932
 H          4.8466352018       -0.6349316953        0.8294788820
 H          4.0962752598       -0.3068993245       -2.1122794818
 H          4.2884810682       -1.8381907704       -1.2501118788
 H          2.7335549235       -2.2917587741        0.7392255968
 H         -1.6340628625       -0.0657486265        1.5416837303
 H         -1.7197034476       -2.6910346104        0.9054998604
 H         -4.8382912525       -0.9955948483       -1.0264366082
 H         -5.3909558445       -0.8158400139        0.6325668177
 H         -3.7615272726        0.8704177146        1.1181376503
 H         -4.3495954969        1.2666678683       -0.5000074220
 H         -2.4244781404       -0.1723274654       -1.4011146129
 H          2.0016860393        0.8771285585       -2.0343243332
 H         -2.6789412554        1.9332622519       -2.6030849295
 H         -3.1565285387        3.0524073495       -1.3126588940
 H         -1.6222278233        3.2733286260       -2.1616035887
 H         -2.1768856034        2.7112467385        1.0497047674
 H         -0.5831781365        1.9416339297        1.1484634598
 H         -0.7898894004        3.4133294816        0.2058463869
 H         -3.6011992297       -4.0874056990        0.7454805871
 H         -5.0705931199       -3.2626906312        1.2808057856
 H         -4.8001529511       -3.5403555614       -0.4353477508
 H          1.0532870234       -2.8518172398        2.0245252051
  53
        -68.44731928
 C          3.3019014348        3.0856811300        1.3453149074
 C          3.6507681248        1.6070573691        1.2294735145
 C          4.6292756422        1.3490181586        0.0843700756
 C          4.9120685775       -0.1386245390       -0.1500825573
 C          3.9651932252       -0.7896359244       -1.1700430766
 C          2.5281285328       -0.7314181624       -0.7427775604
 C          2.0583598189       -1.5755275423        0.2547279957
 C          0.7431279778       -1.5056241589        0.6876472724
 C         -0.1553587267       -0.5976811388        0.1189913300
 C         -1.6036926705       -0.5125649462        0.5373149057
 C         -2.3146028232       -1.8377863599        0.6140597017
 C         -3.6148070931       -1.9724724871        0.3960380465
 C         -4.5047815654       -0.8227572458        0.0047240913
 C         -3.8000010237        0.5314310776        0.0918186708
 C         -2.3795735948        0.3757776392       -0.4402715874
 C         -1.6066482684        1.6681732863       -0.7361441968
 O         -0.3855393260        1.2974835030       -1.3861732941
 C          0.3431536746        0.2913122849       -0.8351416604
 C          1.6616566399        0.2013437533       -1.2780739918
 C         -2.3350963109        2.5494035354       -1.7529586467
 C         -1.2810221523        2.4843394087        0.5188089419
 C         -4.3073094172       -3.2992816595        0.4935740213
 O          0.3145589363       -2.3164559266        1.7022819256
 H          2.8108541271        3.4287678898        0.4373879445
 H          2.6297068710        3.2564554697        2.1832149761
 H          4.1991653039        3.6825731961        1.4972836691
 H          4.0980115717        1.2644202466        2.1661668526
 H          2.7366169543        1.0360150508        1.0670315881
 H          5.5670318673        1.8622868750        0.3125057799
 H          4.2317817792        1.7888453496       -0.8320174715
 H          5.9318251849       -0.2578670619       -0.5238213631
 H          4.8454847405       -0.6720575582        0.8002260644
 H          4.0794791686       -0.2837057131       -2.1302427240
 H          4.2635066089       -1.8332797311       -1.2998491681
 H          2.7278842754       -2.2934183076        0.7116504193
 H         -1.6384236125       -0.0711152652        1.5452060022
 H         -1.7216946371       -2.6925729103        0.8934164133
 H         -4.8462075498       -0.9905464379       -1.0229979413
 H         -5.3963914628       -0.8218358915        0.6379992375
 H         -3.7687581937        0.8638985497        1.1311825766
 H         -4.3602386648        1.2692263778       -0.4834668499
 H         -2.4342721900       -0.1609790065       -1.3967512322
 H          1.9881854438        0.8980198590       -2.0336285251
 H         -3.1722938971        3.0611780399       -1.2888015389
 H         -1.6393840537        3.2904144869       -2.1380838763
 H         -2.6936213438        1.9505863195       -2.5860904469
 H         -0.5950164178        1.9411639931        1.1638496689
 H         -0.8036539068        3.4178058549        0.2293231659
 H         -2.1895880761        2.7094325939        1.0698382538
 H         -3.6009886601       -4.0911156222        0.7274691518
 H         -5.0703733252       -3.2722346355        1.2715821117
 H         -4.8036172528       -3.5385241019       -0.4469689194
 H          1.0536410053       -2.8590720026        2.0021156140
  53
        -68.44730410
 C          5.3624194588        3.2979423335        0.6573474123
 C          5.5236200860        1.7840480588        0.7212309244
 C          4.5411542911        1.0696314180       -0.2032842550
 C          4.6995185649       -0.4467269075       -0.1454158596
 C          3.7049149859       -1.1704342736       -1.0623245601
 C          2.2875193352       -0.9597104311       -0.6132387783
 C          1.8010417699       -1.6386474725        0.4933473398
 C          0.4979634513       -1.4450251547        0.9277750162
 C         -0.3663202423       -0.5857282319        0.2430684258
 C         -1.8193901608       -0.4261701344        0.6275060224
 C         -2.5799939969       -1.7275646802        0.7272651685
 C         -3.8941524859       -1.7941433957        0.5611352108
 C         -4.7398416879       -0.5963621056        0.2225526941
 C         -3.9515732625        0.7151990830        0.1464752460
 C         -2.5598125139        0.4299605821       -0.4076041280
 C         -1.7144410296        1.6408119970       -0.8262400241
 O         -0.5354731418        1.1366483755       -1.4618178376
 C          0.1610854931        0.1648761990       -0.8091943936
 C          1.4674618321       -0.0408914155       -1.2432234375
 C         -2.4117060352        2.4741395949       -1.9029921308
 C         -1.3163926345        2.5396191843        0.3490141109
 C         -4.6450823811       -3.0875283134        0.6589573556
 O          0.1203678695       -2.1163493378        2.0558211531
 H          6.0664693823        3.7886775886        1.3257665551
 H          5.5410507433        3.6579145551       -0.3537161357
 H          4.3542710902        3.5851585142        0.9484274889
 H          6.5453929454        1.5158053732        0.4413960530
 H          5.3626793487        1.4452309437        1.7473297139
 H          4.6998965406        1.4107553479       -1.2292120567
 H          3.5201372394        1.3337922084        0.0798176700
 H          5.7165572881       -0.7153121382       -0.4415889066
 H          4.5495366344       -0.7857246552        0.8816852840
 H          3.8265226647       -0.8049262219       -2.0834376276
 H          3.9314694878       -2.2389189229       -1.0514818278
 H          2.4228107411       -2.3279096353        1.0422538722
 H         -1.8766593860        0.0819968436        1.6056125321
 H         -2.0221415237       -2.6356446527        0.9055539063
 H         -5.2103328847       -0.7928107170       -0.7468824851
 H         -5.5498376333       -0.5040825269        0.9515351609
 H         -3.8660953498        1.1550373040        1.1422782212
 H         -4.4900776608        1.4210725612       -0.4861021491
 H         -2.6723008724       -0.1775383503       -1.3150677601
 H          1.8220883826        0.5436226771       -2.0772396674
 H         -1.6830973933        3.1404124608       -2.3571793235
 H         -2.8158790355        1.8293274991       -2.6788674860
 H         -3.2118113150        3.0682312367       -1.4725557275
 H         -0.7788128624        3.4068626518       -0.0272282645
 H         -2.1995751045        2.8781812649        0.8832910377
 H         -0.6611297871        2.0099069264        1.0360919393
 H         -5.1668068719       -3.2939077825       -0.2751865962
 H         -3.9742924228       -3.9153005984        0.8730816629
 H         -5.3938943887       -3.0312797202        1.4489713494
 H         -0.7689112507       -1.8484860445        2.3142980812
  53
        -68.44729825
 C          5.3641417829       -2.5645276747       -1.6003675703
 C          5.2649458211       -1.0439950770       -1.6016288470
 C          4.5267028396       -0.5233107647       -0.3710285383
 C          4.4234383690        0.9989564503       -0.3666311168
 C          3.6773803605        1.5260619635        0.8658390985
 C          2.2430026171        1.0823473489        0.8658253847
 C          1.8179472196        0.0393349054        1.6722610599
 C          0.5017402943       -0.4003310939        1.6277742321
 C         -0.4175466660        0.1746220652        0.7468018362
 C         -1.8322215796       -0.3388894234        0.6067027311
 C         -1.9295415820       -1.8215290313        0.3340409973
 C         -2.9701532690       -2.3604961247       -0.2869608798
 C         -4.1245838383       -1.5483287888       -0.8088156505
 C         -4.0155582744       -0.0511241569       -0.5024664616
 C         -2.5489277556        0.3634900706       -0.5532610304
 C         -2.2496145165        1.8690595056       -0.5536292853
 O         -0.8435361826        2.0227164017       -0.7717479956
 C         -0.0047553742        1.2872384484        0.0099728769
 C          1.3172331200        1.7167157491        0.0550642454
 C         -2.9076628896        2.5776231406       -1.7389390356
 C         -2.6436242510        2.5670823630        0.7520678376
 C         -3.0628607488       -3.8319674264       -0.5566628890
 O          0.1590730708       -1.3979711312        2.4955465520
 H          5.9031065092       -2.9106645180       -0.7209645247
 H          4.3715980167       -3.0096058835       -1.5889789374
 H          5.8892289978       -2.9169176180       -2.4854248490
 H          6.2696277236       -0.6148249062       -1.6303156060
 H          4.7398346978       -0.7155383302       -2.5016170325
 H          5.0515666382       -0.8523798282        0.5291492923
 H          3.5220931169       -0.9503700225       -0.3439835943
 H          5.4275907606        1.4298185402       -0.3861299968
 H          3.9001286692        1.3276423484       -1.2669860017
 H          4.1758250914        1.1675179602        1.7680800321
 H          3.7195643882        2.6175053875        0.8615699858
 H          2.4927717859       -0.4485949427        2.3572740969
 H         -2.3833118700       -0.1234398796        1.5384440674
 H         -1.1032204680       -2.4526196884        0.6283386876
 H         -4.1623844822       -1.6942566323       -1.8937680750
 H         -5.0608252874       -1.9448470934       -0.4060606970
 H         -4.4200864798        0.1548971171        0.4906566633
 H         -4.6077861847        0.5073557963       -1.2275487754
 H         -2.1180585546       -0.0220450519       -1.4865106476
 H          1.5956361155        2.5669182501       -0.5473989511
 H         -2.7452425521        2.0153628297       -2.6547328158
 H         -3.9734961871        2.6984455283       -1.5722725511
 H         -2.4557112741        3.5590729666       -1.8553986637
 H         -2.4673672876        3.6358397293        0.6562312607
 H         -3.6955423998        2.4024431288        0.9673869897
 H         -2.0444067952        2.2011237598        1.5821531993
 H         -3.9474653690       -4.2495120300       -0.0759536606
 H         -3.1521488982       -4.0158333441       -1.6269901340
 H         -2.1853615317       -4.3548936313       -0.1856912301
 H         -0.7891807367       -1.5644484118        2.4456812269
  53
        -68.44724345
 C          5.9436246301        0.9131549423        2.5296245388
 C          5.6474875731        1.3294873649        1.0940679025
 C          4.7626853706        0.3110803384        0.3795862621
 C          4.4670719701        0.7200081981       -1.0602879482
 C          3.5696767177       -0.2947343986       -1.7804717231
 C          2.2023976302       -0.3594720144       -1.1626936851
 C          1.8585403019       -1.3845806577       -0.2967150349
 C          0.5960146440       -1.4329127932        0.2788364810
 C         -0.3684896592       -0.4688556503       -0.0247954304
 C         -1.7832143133       -0.5468088472        0.5017209863
 C         -2.4690304462       -1.8671615529        0.2401404682
 C         -3.7884397840       -1.9767622787        0.1624237803
 C         -4.7180787361       -0.8001055292        0.2882389508
 C         -4.0032030317        0.5242897890        0.5747989764
 C         -2.6595269020        0.5324346051       -0.1462407833
 C         -1.9163132927        1.8734153369       -0.2202561308
 O         -0.7819821454        1.6843816407       -1.0721039007
 C          0.0193116316        0.6120687856       -0.8199987249
 C          1.2835495627        0.6490317322       -1.3982232791
 C         -2.7528338557        2.9475307967       -0.9177984169
 C         -1.4494697027        2.3854042614        1.1462843479
 C         -4.4649449054       -3.2883846592       -0.0992451325
 O          0.3630341899       -2.4495464088        1.1608762785
 H          5.0192633547        0.8124065417        3.0942901005
 H          6.4613236504       -0.0435068821        2.5499109473
 H          6.5697995754        1.6527854422        3.0236570342
 H          5.1492895784        2.3018253140        1.0937045782
 H          6.5872149031        1.4399828866        0.5472717874
 H          3.8212558777        0.2055395125        0.9225740495
 H          5.2592354225       -0.6622506880        0.3839938489
 H          3.9768048895        1.6957248021       -1.0645690910
 H          5.4073178820        0.8152598271       -1.6090656064
 H          3.4777492460        0.0001319793       -2.8281791860
 H          4.0388519724       -1.2793081698       -1.7417651414
 H          2.5608775322       -2.1631766714       -0.0452533304
 H         -1.7688612427       -0.3761945469        1.5920764030
 H         -1.8547190117       -2.7409235831        0.0766366371
 H         -5.2694380268       -0.7174643028       -0.6546150355
 H         -5.4580306122       -1.0017082966        1.0678735424
 H         -3.8429160344        0.6346049784        1.6492759928
 H         -4.6325567473        1.3505190601        0.2437332012
 H         -2.8303405260        0.2333487857       -1.1886361296
 H          1.5286571043        1.4886321256       -2.0293214235
 H         -3.5344292285        3.3148386232       -0.2600845694
 H         -2.1036242215        3.7753830036       -1.1902748871
 H         -3.1995602244        2.5501731456       -1.8253739026
 H         -0.9935610743        3.3654470117        1.0269943445
 H         -2.2916526034        2.4702652912        1.8271635736
 H         -0.7054818899        1.7186566850        1.5751940427
 H         -5.1348390226       -3.5391428279        0.7231484848
 H         -5.0652551081       -3.2302604242       -1.0067635351
 H         -3.7385226001       -4.0885807482       -0.2131944051
 H         -0.5074714287       -2.3430863970        1.5612033512
  53
        -68.44722289
 C          6.1900848074       -0.6465823944       -2.6931723298
 C          6.5395812995       -0.8344200993       -1.2215011469
 C          5.8185060442        0.1514832641       -0.3015765581
 C          4.3115643391       -0.0815016930       -0.2306444337
 C          3.6380175710        0.8642824756        0.7704881109
 C          2.1574602317        0.6213542769        0.8058446104
 C          1.6096967498       -0.2859878411        1.7010260783
 C          0.2498166167       -0.5595268487        1.6978745720
 C         -0.6054459611        0.0513045874        0.7766415825
 C         -2.0825690744       -0.2545873207        0.7052626950
 C         -2.4208025177       -1.7219959973        0.7153029573
 C         -3.4908003111       -2.2210149483        0.1134695092
 C         -4.4532403025       -1.3784277611       -0.6805871321
 C         -4.1875539582        0.1203938607       -0.5372673752
 C         -2.6808060646        0.3529468298       -0.5675421100
 C         -2.2108861639        1.8017457536       -0.7551523475
 O         -0.7895190506        1.7744536633       -0.9287386385
 C         -0.0577602516        1.0203003873       -0.0669180196
 C          1.3112199072        1.2803582213       -0.0645031439
 C         -2.7468123638        2.4126403542       -2.0517810536
 C         -2.5574951122        2.7111163985        0.4279353828
 C         -3.8180613628       -3.6842585540        0.1507816571
 O         -0.2739982876       -1.4234179024        2.6198900876
 H          6.7831812537       -1.3176869165       -3.3105528673
 H          5.1400729903       -0.8589274651       -2.8754527550
 H          6.3946077495        0.3755735730       -3.0046436969
 H          6.2946155291       -1.8549248948       -0.9180692436
 H          7.6172306614       -0.7028190571       -1.0961004337
 H          6.0109866986        1.1705877902       -0.6454607343
 H          6.2356503484        0.0597187844        0.7048974614
 H          3.8607476423        0.0741659845       -1.2113929414
 H          4.1153957935       -1.1145987061        0.0659079704
 H          4.0675337019        0.7046404659        1.7619870069
 H          3.8367078507        1.8961305924        0.4748030474
 H          2.2468808018       -0.7850539469        2.4204287773
 H         -2.5634952368        0.1912628456        1.5893808870
 H         -1.7644981718       -2.3680346417        1.2739586428
 H         -4.3678926741       -1.6648027184       -1.7349315421
 H         -5.4770712130       -1.6079837365       -0.3722615665
 H         -4.5953572280        0.4770331420        0.4104931684
 H         -4.6875846554        0.6561888359       -1.3447746745
 H         -2.2698584864       -0.2043829573       -1.4198504756
 H          1.6871593423        2.0224541013       -0.7508602899
 H         -2.6324930380        1.7137685398       -2.8762602138
 H         -3.7934401137        2.6807723147       -1.9474645438
 H         -2.1750440502        3.3083499354       -2.2801244605
 H         -2.2643169010        3.7326157531        0.1965152222
 H         -3.6257181526        2.6869106098        0.6230866716
 H         -2.0219189950        2.4004740237        1.3214082211
 H         -4.7805266481       -3.8449986139        0.6367124695
 H         -3.8888443087       -4.0832719531       -0.8611297473
 H         -3.0581358999       -4.2397960941        0.6934556855
 H          0.4355418925       -1.7344774867        3.1947056409
  53
        -68.44721219
 C          6.5785409638        2.4925071282        0.1463852491
 C          6.8158219304        1.0010406825        0.3526116248
 C          5.9028202889        0.1225307520       -0.5034794745
 C          4.4341930102        0.1998394891       -0.0943378760
 C          3.5668841900       -0.7662929757       -0.9097456593
 C          2.1281125901       -0.6638865596       -0.4943372650
 C          1.6341995378       -1.4454266116        0.5401099488
 C          0.3116987245       -1.3407570169        0.9448761632
 C         -0.5676695642       -0.4588022568        0.3106372472
 C         -2.0281883073       -0.3536632322        0.6800050921
 C         -2.7394643793       -1.6749009065        0.8073214638
 C         -4.0305614854       -1.8283040497        0.5511452371
 C         -4.9090415249       -0.7072710973        0.0630449873
 C         -4.2122932053        0.6530296901        0.1035948320
 C         -2.7733071035        0.4772900879       -0.3694375363
 C         -1.9972760987        1.7579057502       -0.7050541075
 O         -0.7486997656        1.3655310085       -1.2866140625
 C         -0.0396773473        0.3836090894       -0.6701947017
 C          1.2871103880        0.2629179831       -1.0787076510
 C         -2.6910900119        2.5767959078       -1.7958038458
 C         -1.7289815149        2.6434642325        0.5159079573
 C         -4.7224042256       -3.1506178442        0.7007262569
 O         -0.1426828824       -2.0949032431        1.9915992152
 H          7.3007608872        3.0720015846        0.7172625051
 H          6.6853493178        2.7522881100       -0.9046781787
 H          5.5821328393        2.7783649449        0.4725665021
 H          7.8543657377        0.7718302399        0.1011548208
 H          6.6694804084        0.7528910978        1.4064875122
 H          6.2364368113       -0.9151926877       -0.4187716613
 H          6.0018047419        0.4150652090       -1.5515109486
 H          4.3382060001       -0.0417917138        0.9669002218
 H          4.0563359691        1.2124515706       -0.2401713709
 H          3.6627988627       -0.5235187604       -1.9695986844
 H          3.9264611737       -1.7866498391       -0.7594468997
 H          2.2861224254       -2.1493711137        1.0421828710
 H         -2.0949556050        0.1423887302        1.6604185614
 H         -2.1552537635       -2.5094620949        1.1571263992
 H         -5.2095989884       -0.9326336006       -0.9664118532
 H         -5.8245480590       -0.6765932381        0.6604652696
 H         -4.2188273909        1.0391006597        1.1247112824
 H         -4.7542579606        1.3570275750       -0.5287202197
 H         -2.7917948815       -0.1094938661       -1.2974683138
 H          1.6388140217        0.9187229916       -1.8593250045
 H         -3.5490110600        3.1060708578       -1.3932271875
 H         -1.9851434347        3.3014403770       -2.1931603075
 H         -3.0127965890        1.9308088789       -2.6084778867
 H         -1.0682777307        2.1408178815        1.2176578187
 H         -1.2450030009        3.5633815460        0.1957275518
 H         -2.6611837058        2.8913734397        1.0152107460
 H         -5.5119420211       -3.0827303319        1.4492968195
 H         -5.1853430751       -3.4453569077       -0.2410651235
 H         -4.0224387907       -3.9245056277        1.0036068656
 H          0.5858280261       -2.6280535907        2.3316652479
  53
        -68.44720473
 C          6.4873451222       -1.8763469575       -1.4879673797
 C          6.4630528051       -0.3651172719       -1.6854053436
 C          5.7859365266        0.3817875073       -0.5357436942
 C          4.2857622901        0.1147894558       -0.4431842928
 C          3.6249263267        0.9649091839        0.6481637927
 C          2.1522884609        0.6829962637        0.7127636005
 C          1.6556299171       -0.3038910761        1.5519143546
 C          0.3026244865       -0.6090559423        1.5724359970
 C         -0.5971234632        0.0500465191        0.7302066260
 C         -2.0691269931       -0.2844017723        0.6842256222
 C         -2.3759850401       -1.7559337309        0.5935696500
 C         -3.4550579777       -2.2334009318       -0.0095984580
 C         -4.4612639369       -1.3564459882       -0.7061307079
 C         -4.2229886934        0.1330788575       -0.4571224652
 C         -2.7234860337        0.4033001435       -0.5182513823
 C         -2.2917549395        1.8730868974       -0.6095184576
 O         -0.8768243746        1.8937759005       -0.8299560811
 C         -0.0998931095        1.0938181217       -0.0532987855
 C          1.2623441224        1.3862612619       -0.0753476508
 C         -2.8841954781        2.5671117807       -1.8379390802
 C         -2.6180506135        2.6816862614        0.6500318124
 C         -3.7501350265       -3.7025687218       -0.0726617604
 O         -0.1700017232       -1.5536405731        2.4415198908
 H          5.4808522905       -2.2861213128       -1.4879132508
 H          7.0462491382       -2.3527800527       -2.2904195157
 H          6.9635796961       -2.1286998793       -0.5427456980
 H          7.4910691089       -0.0054644155       -1.7759800215
 H          5.9476606613       -0.1298834624       -2.6193561097
 H          5.9421230122        1.4544868271       -0.6765003817
 H          6.2634777557        0.1009674846        0.4063392169
 H          3.8141212612        0.3408297436       -1.4019112956
 H          4.1050562934       -0.9385466701       -0.2238130796
 H          4.0918535548        0.7396999325        1.6095206356
 H          3.7898252567        2.0213356420        0.4280419523
 H          2.3279400680       -0.8414022765        2.2089913551
 H         -2.5285458827        0.0819871071        1.6150689454
 H         -1.6877342789       -2.4265339026        1.0802402007
 H         -4.4051002808       -1.5600783634       -1.7814612339
 H         -5.4690930212       -1.6329726342       -0.3839501717
 H         -4.6057816442        0.4069146759        0.5278757155
 H         -4.7615510446        0.7164771500       -1.2046273784
 H         -2.3299681036       -0.0777389686       -1.4235970397
 H          1.5982358554        2.1877154270       -0.7140449495
 H         -3.9323029062        2.8011862757       -1.6801327416
 H         -2.3400023282        3.4911006179       -2.0153601501
 H         -2.7824874181        1.9355071679       -2.7165786928
 H         -2.3548547086        3.7245035635        0.4881099285
 H         -3.6783660293        2.6171454926        0.8766044368
 H         -2.0462718004        2.3172962252        1.4996847343
 H         -2.9608322482       -4.2792280495        0.4017289134
 H         -4.6920559413       -3.9217846013        0.4303268295
 H         -3.8467176407       -4.0262123786       -1.1090295221
 H          0.5655803598       -1.8902576385        2.9671026102
  53
        -68.44719591
 C          6.9429563066        0.8587207058        1.5300922684
 C          6.7516668449        1.3335243414        0.0942979672
 C          5.8605367416        0.4064951361       -0.7331281095
 C          4.4048213675        0.4000117872       -0.2736158454
 C          3.5248508918       -0.4579722080       -1.1901817056
 C          2.1012368315       -0.4507238912       -0.7143935640
 C          1.6634527126       -1.3793353990        0.2188907716
 C          0.3553892907       -1.3655385076        0.6799374634
 C         -0.5656382260       -0.4278405460        0.2046951838
 C         -2.0131884901       -0.4125978340        0.6349016326
 C         -2.6909984479       -1.7569663447        0.6026304944
 C         -3.9870129961       -1.9077220980        0.3708921320
 C         -4.9065770051       -0.7538633816        0.0714065074
 C         -4.2383126825        0.6057817508        0.2769845869
 C         -2.8142850893        0.5348866614       -0.2637290001
 C         -2.0787886546        1.8694769399       -0.4446474501
 O         -0.8448125758        1.5937477207       -1.1172234379
 C         -0.0928507525        0.5548393416       -0.6678219779
 C          1.2195878924        0.5255544159       -1.1352837014
 C         -2.8300045115        2.8124657672       -1.3870366529
 C         -1.7840311826        2.5850031079        0.8775037583
 C         -4.6443852852       -3.2557872694        0.3598531515
 O         -0.0431105604       -2.2679605450        1.6274447103
 H          6.0025937855        0.8731916392        2.0746636520
 H          7.3361671334       -0.1557149114        1.5459375749
 H          7.6450942282        1.5057858913        2.0511870835
 H          6.3201137218        2.3370035813        0.0987647419
 H          7.7300861884        1.3971177317       -0.3883162801
 H          6.2595146459       -0.6099569933       -0.6883705024
 H          5.8961576468        0.7280214780       -1.7772147894
 H          4.3348014559        0.0112433347        0.7434038407
 H          4.0189191037        1.4216725497       -0.2666996885
 H          3.5755613617       -0.0642974364       -2.2070152397
 H          3.9091348263       -1.4803077309       -1.2004655860
 H          2.3484465206       -2.1285731130        0.5958416973
 H         -2.0537550773       -0.0578093190        1.6761688070
 H         -2.0767265720       -2.6159112033        0.8148998173
 H         -5.2389331645       -0.8434145991       -0.9689929273
 H         -5.8004954543       -0.8297326346        0.6968307245
 H         -4.2156077595        0.8470771667        1.3414249294
 H         -4.8181095673        1.3756940086       -0.2331385528
 H         -2.8543660975        0.0811820353       -1.2629609824
 H          1.5278413267        1.2915450779       -1.8290602927
 H         -3.6834096151        3.2584516871       -0.8859971077
 H         -2.1548715454        3.6032600429       -1.7036437053
 H         -3.1678696235        2.2764970082       -2.2701300867
 H         -1.0867242124        2.0081458424        1.4796685683
 H         -1.3323427093        3.5528000412        0.6717275051
 H         -2.7019624708        2.7368241880        1.4379765995
 H         -5.1340385777       -3.4313221493       -0.5980517705
 H         -3.9175297590       -4.0451008967        0.5308729867
 H         -5.4080815380       -3.3114314847        1.1357349579
 H          0.7085750070       -2.8241579804        1.8645830680
  53
        -68.44707585
 C          3.4092642088       -1.2392077834       -2.6536179538
 C          3.5726386301       -1.0189122189       -1.1548003681
 C          4.6052315531        0.0671524470       -0.8580174045
 C          4.7811720878        0.3519589405        0.6365562195
 C          3.8200568631        1.4196520916        1.1790510221
 C          2.3786903558        1.0161307189        1.0746904790
 C          1.8588705482        0.0481917811        1.9242595147
 C          0.5446822323       -0.3756073455        1.8027168409
 C         -0.2919260117        0.1470526387        0.8116836123
 C         -1.7105462997       -0.3274709606        0.6071006656
 C         -1.8712158470       -1.8244008622        0.5728098022
 C         -2.8184309824       -2.4331254742       -0.1260164038
 C         -3.8019336697       -1.6931419945       -0.9932223582
 C         -3.7284714100       -0.1764752830       -0.8138100789
 C         -2.2628077733        0.2308018026       -0.7082707685
 C         -1.9517724095        1.7278120485       -0.8402886951
 O         -0.5273492005        1.8688942532       -0.8880599171
 C          0.2101562714        1.1866176572        0.0267689188
 C          1.5370981354        1.5972753964        0.1465308434
 C         -2.4414761973        2.2975533630       -2.1733766273
 C         -2.5038010474        2.5674507073        0.3160195218
 C         -2.9716926137       -3.9250992881       -0.1326749467
 O          0.0426515437       -1.3039175698        2.6726421627
 H          3.0586357792       -0.3282155317       -3.1334902145
 H          4.3573130274       -1.5227494315       -3.1069925824
 H          2.6859949999       -2.0279424479       -2.8472352390
 H          2.6098829456       -0.7403277051       -0.7264302909
 H          3.8908021883       -1.9527397283       -0.6841855247
 H          4.3156662071        0.9872948281       -1.3692214775
 H          5.5647688430       -0.2504145788       -1.2749771717
 H          4.6500202637       -0.5753669075        1.1977142153
 H          5.7998523029        0.7046167226        0.8159625509
 H          4.0677542671        1.6019796742        2.2284880248
 H          3.9781244165        2.3492788514        0.6296544336
 H          2.4849060938       -0.3846071510        2.6943236721
 H         -2.3160567773        0.0410849373        1.4492550236
 H         -1.1931195148       -2.4000798488        1.1803728248
 H         -3.5933752336       -1.9472266297       -2.0386252263
 H         -4.8141173767       -2.0466710333       -0.7776097200
 H         -4.2564297086        0.1120563056        0.0971115103
 H         -4.2160796626        0.3125485286       -1.6577749838
 H         -1.7164116550       -0.2583077110       -1.5257408648
 H          1.8823092277        2.3850116149       -0.5040081946
 H         -1.9621471837        3.2584411174       -2.3417045494
 H         -2.1741788646        1.6333511918       -2.9910987089
 H         -3.5175544619        2.4392678634       -2.1595753070
 H         -3.5747599053        2.4158867548        0.4154056707
 H         -2.0154950485        2.3034014299        1.2506293436
 H         -2.3132766679        3.6204121241        0.1211785432
 H         -2.9077216872       -4.3087172901       -1.1509705358
 H         -2.2005105280       -4.3987546943        0.4686003242
 H         -3.9463416730       -4.2076193841        0.2655143957
 H          0.7304025499       -1.5433162082        3.3052711560
  53
        -68.44701213
 C          3.8103469062       -2.4138432382       -1.4870720312
 C          3.5961728414       -0.9179384760       -1.2894491413
 C          4.7570399899       -0.2813749625       -0.5271872693
 C          4.5809959939        1.2200973338       -0.2829423294
 C          3.7961199314        1.5547525750        0.9933779750
 C          2.3701746963        1.0898176787        0.9437281154
 C          1.9380493167        0.0208174752        1.7155315121
 C          0.6323306513       -0.4407129741        1.6282281749
 C         -0.2806042524        0.1456902591        0.7480658675
 C         -1.6916849341       -0.3632800848        0.5778161577
 C         -1.8007905866       -1.8538107512        0.3928327371
 C         -2.7690032169       -2.4249493348       -0.3089349711
 C         -3.8323678839       -1.6399283090       -1.0300139909
 C         -3.7997901939       -0.1481689919       -0.6957430966
 C         -2.3452734904        0.3055695774       -0.6354955909
 C         -2.0941698313        1.8195141380       -0.6263314630
 O         -0.6812659638        2.0219767553       -0.7451192986
 C          0.1363096598        1.2801218013        0.0473104838
 C          1.4516764203        1.7296165045        0.1323374662
 C         -2.6876177338        2.5043713389       -1.8593367746
 C         -2.5987164070        2.5115658993        0.6438022033
 C         -2.8688193913       -3.9130065512       -0.4677884951
 O          0.2187085789       -1.4736992475        2.4233283997
 H          3.8838046434       -2.9184175731       -0.5258315496
 H          2.9802428981       -2.8489991003       -2.0385010825
 H          4.7279683946       -2.6014113326       -2.0415098315
 H          3.5025144560       -0.4341183845       -2.2644850567
 H          2.6636043100       -0.7547364155       -0.7495056297
 H          5.6721851498       -0.4413294845       -1.1037854727
 H          4.8840741562       -0.7915114233        0.4303948905
 H          5.5670126067        1.6829697207       -0.1939665638
 H          4.0801739786        1.6687551004       -1.1423970243
 H          4.3018304056        1.1028566641        1.8493943869
 H          3.8115552708        2.6394067460        1.1280093073
 H          2.6246423452       -0.4677723852        2.3955087816
 H         -2.2556261235       -0.1105098353        1.4887034784
 H         -1.0643232384       -2.4610900080        0.8920466108
 H         -3.6845485067       -1.7754854031       -2.1073772768
 H         -4.8153673970       -2.0553211964       -0.7909063337
 H         -4.2782382919        0.0228208704        0.2704933126
 H         -4.3567438227        0.4051699593       -1.4525801895
 H         -1.8357316704       -0.0734317590       -1.5314575828
 H          1.7301133380        2.5956777600       -0.4466370546
 H         -2.2529012436        3.4961145406       -1.9532861081
 H         -2.4510820395        1.9400717148       -2.7576236000
 H         -3.7647554910        2.6002266969       -1.7655744186
 H         -2.0429208639        2.1715138028        1.5139326732
 H         -2.4564358510        3.5858524458        0.5508047242
 H         -3.6554344818        2.3077198690        0.7908066983
 H         -2.0448680959       -4.4144375556        0.0324733787
 H         -3.8057355872       -4.2771324679       -0.0460438895
 H         -2.8551971660       -4.1837876995       -1.5235797523
 H          0.9531831525       -1.7497625548        2.9844655001
  53
        -68.44700901
 C          3.8701851573       -2.4086890677       -1.4941066259
 C          3.6264812010       -0.9191619289       -1.2830126070
 C          4.7833049549       -0.2634962444       -0.5311142477
 C          4.5831190566        1.2336389017       -0.2802986651
 C          3.7921550342        1.5511300592        0.9964915808
 C          2.3677963795        1.0816663708        0.9399931252
 C          1.9347937913        0.0118501420        1.7101988843
 C          0.6286727830       -0.4485508749        1.6225175299
 C         -0.2842156472        0.1398057288        0.7435867716
 C         -1.6977363126       -0.3639653450        0.5776317701
 C         -1.8145926826       -1.8542211970        0.3953911417
 C         -2.7886624381       -2.4218328219       -0.3011426880
 C         -3.8507635689       -1.6328469603       -1.0197258431
 C         -3.8096859474       -0.1407558093       -0.6880935759
 C         -2.3528320755        0.3063048188       -0.6341020080
 C         -2.0953458723        1.8191980883       -0.6277430858
 O         -0.6820004803        2.0158663290       -0.7506782786
 C          0.1345094164        1.2731009580        0.0420918664
 C          1.4502618250        1.7213772253        0.1274669012
 C         -2.6895409807        2.5048312512       -1.8599433571
 C         -2.5934227793        2.5150420191        0.6428966047
 C         -2.8973047383       -3.9096995182       -0.4559354586
 O          0.2145386643       -1.4817996222        2.4170027164
 H          4.7840603699       -2.5724324002       -2.0621614988
 H          3.9678466026       -2.9181601596       -0.5375941247
 H          3.0422134578       -2.8579902729       -2.0374210482
 H          3.5098534662       -0.4306263455       -2.2530959891
 H          2.6977255758       -0.7795149387       -0.7301899969
 H          5.6950661280       -0.4045148583       -1.1179727411
 H          4.9301849133       -0.7740535003        0.4234371848
 H          5.5620984591        1.7106695991       -0.1880098201
 H          4.0767690666        1.6784837736       -1.1384796973
 H          4.2975771665        1.0936573523        1.8496784658
 H          3.8018997859        2.6345044978        1.1418852834
 H          2.6208758606       -0.4776994215        2.3900206520
 H         -2.2575858479       -0.1075616807        1.4900933199
 H         -1.0792644463       -2.4642346703        0.8929309913
 H         -3.7075337673       -1.7709426320       -2.0973848617
 H         -4.8348945398       -2.0430267158       -0.7763576179
 H         -4.2836163079        0.0340493730        0.2796853437
 H         -4.3668931782        0.4140243634       -1.4436763752
 H         -1.8484467001       -0.0760619182       -1.5315186917
 H          1.7291670704        2.5878668956       -0.4506557155
 H         -2.4582082808        1.9381810708       -2.7580790364
 H         -3.7659761842        2.6055029669       -1.7630594230
 H         -2.2507637611        3.4945132327       -1.9566884567
 H         -2.4466201020        3.5885766600        0.5481102728
 H         -3.6506125609        2.3160938095        0.7931639037
 H         -2.0367274614        2.1736578982        1.5119277013
 H         -2.0729053828       -4.4143621506        0.0402764040
 H         -3.8334657835       -4.2677290361       -0.0272899704
 H         -2.8919739510       -4.1830252466       -1.5111207426
 H          0.9491499104       -1.7592072510        2.9772965266
  53
        -68.44698963
 C          4.2110614222        0.8670554409        2.8656937279
 C          3.8515501438        1.1730733484        1.4165608958
 C          4.9434278543        0.7028863912        0.4570509422
 C          4.6326532156        0.9867953159       -1.0152549225
 C          3.7973402216       -0.1045962239       -1.6994041563
 C          2.4138728021       -0.2375463045       -1.1325732431
 C          2.0599195070       -1.3339558919       -0.3595919176
 C          0.7839400880       -1.4508942326        0.1732089815
 C         -0.1905043666       -0.4801412170       -0.0723982827
 C         -1.6040854617       -0.5910793236        0.4472038558
 C         -2.2504924021       -1.9331203048        0.2263635042
 C         -3.5560535538       -2.0874637991        0.0596435859
 C         -4.5214594431       -0.9325820689        0.0282940813
 C         -3.8719483199        0.3945863936        0.4211966454
 C         -2.4893843137        0.4676403564       -0.2177914473
 C         -1.7991878025        1.8382278246       -0.2136962165
 O         -0.6128179692        1.7244407065       -1.0076916100
 C          0.1960862027        0.6540603871       -0.7908916069
 C          1.4740633252        0.7557920732       -1.3347903541
 C         -2.6387861450        2.9027276447       -0.9231216328
 C         -1.4223070269        2.3253297921        1.1890870785
 C         -4.1809794054       -3.4359061207       -0.1419400976
 O          0.4739422314       -2.5185411085        0.9697624980
 H          4.3321234159       -0.2045756511        3.0103716799
 H          5.1436433591        1.3554553981        3.1416718109
 H          3.4292565993        1.2161997689        3.5361834560
 H          2.9068478705        0.6897850191        1.1678515338
 H          3.7130591244        2.2502521075        1.2981233731
 H          5.1076479275       -0.3686113006        0.5926478669
 H          5.8741427404        1.2100759821        0.7255938207
 H          4.1136051898        1.9431854185       -1.0954861426
 H          5.5735904474        1.0730213061       -1.5644583542
 H          3.7204608006        0.1422447777       -2.7615065478
 H          4.3225867001       -1.0582682422       -1.6139524386
 H          2.7880793633       -2.1090471174       -0.1556026215
 H         -1.5790552556       -0.4222280149        1.5347321003
 H         -1.6026564554       -2.7934606834        0.2435696089
 H         -4.9264692459       -0.8538960223       -0.9869340344
 H         -5.3655357794       -1.1464248246        0.6899711110
 H         -3.7782063288        0.4507948634        1.5074095503
 H         -4.5047730590        1.2194703710        0.0921810092
 H         -2.5911076285        0.1908845318       -1.2756190643
 H          1.7132268698        1.6399681883       -1.9038033071
 H         -2.0067105476        3.7591429362       -1.1432216711
 H         -3.0294043873        2.5153829421       -1.8604838330
 H         -3.4622627800        3.2260202160       -0.2941409720
 H         -2.2986652473        2.3453233060        1.8304848519
 H         -0.6683180688        1.6789972759        1.6312454782
 H         -1.0097757215        3.3296359429        1.1241923713
 H         -4.8855174281       -3.6510597028        0.6616249416
 H         -4.7340121456       -3.4613755924       -1.0809476047
 H         -3.4255892509       -4.2167449532       -0.1597076497
 H          1.2559660550       -3.0754412492        1.0641081225
  53
        -68.44694638
 C          3.1905789769        2.4638940028        1.2620101321
 C          3.9354553430        1.1675416316        1.5568994157
 C          5.0913306568        0.8953536352        0.5925198917
 C          4.7082641834        0.7346504642       -0.8796135905
 C          3.9500857219       -0.5593516597       -1.2055818108
 C          2.5198479125       -0.5597384205       -0.7464129224
 C          2.0669893206       -1.4808265547        0.1877346213
 C          0.7470870868       -1.4772778906        0.6157386189
 C         -0.1728385830       -0.5574045387        0.1060660215
 C         -1.6241442485       -0.5367653823        0.5220436583
 C         -2.3012733998       -1.8816996258        0.5105739680
 C         -3.5970598970       -2.0349294442        0.2790911659
 C         -4.5150705231       -0.8853620082       -0.0415486597
 C         -3.8453458790        0.4778030881        0.1354385529
 C         -2.4200507561        0.3927583618       -0.3996063738
 C         -1.6798711187        1.7208324518       -0.6079616906
 O         -0.4480612792        1.4243017428       -1.2756516655
 C          0.3058557028        0.4047177140       -0.7857647499
 C          1.6263252526        0.3783238094       -1.2277199538
 C         -2.4280319740        2.6475499007       -1.5683781200
 C         -1.3780430611        2.4614678192        0.6987082043
 C         -4.2558648099       -3.3822820130        0.2890693595
 O          0.3382554631       -2.3676219003        1.5700838702
 H          2.4890533531        2.6826012392        2.0643127263
 H          3.8863548998        3.2966097611        1.1785507668
 H          2.6254110516        2.3840000046        0.3374869695
 H          4.3508961846        1.2210879483        2.5671311189
 H          3.2290768001        0.3383524674        1.5327487007
 H          5.6124977917       -0.0085717790        0.9197975080
 H          5.8009415746        1.7244887213        0.6673348620
 H          4.1202061844        1.5930400769       -1.2017838684
 H          5.6330405404        0.7342928933       -1.4631629557
 H          3.9605553007       -0.6916174408       -2.2914090535
 H          4.4797307840       -1.4054816099       -0.7625357929
 H          2.7521791295       -2.2101544694        0.6027318434
 H         -1.6729030917       -0.1620010679        1.5560121028
 H         -1.6876302012       -2.7373508398        0.7375787518
 H         -4.8492284556       -0.9953524534       -1.0794226641
 H         -5.4081960829       -0.9476678787        0.5865146703
 H         -3.8251941177        0.7433046123        1.1941643170
 H         -4.4227653508        1.2367592208       -0.3934832458
 H         -2.4585585312       -0.0822700680       -1.3889701684
 H          1.9305305765        1.1212705495       -1.9481310264
 H         -3.2791328687        3.1066922670       -1.0753764077
 H         -1.7503985114        3.4293995223       -1.9014626328
 H         -2.7690165615        2.0953420413       -2.4401896911
 H         -0.6801681773        1.8943208987        1.3094997669
 H         -0.9234809039        3.4233955240        0.4724059232
 H         -2.2933570799        2.6275580496        1.2594268294
 H         -4.7434065044       -3.5734973989       -0.6669239928
 H         -3.5302689719       -4.1693354157        0.4752286697
 H         -5.0214943041       -3.4240197136        1.0639120570
 H          1.0906452872       -2.9099472168        1.8354346556
  53
        -68.44678522
 C          5.4531392556       -2.6165775935       -0.4743990083
 C          5.4087570463       -1.1152752191       -0.2178393860
 C          4.3883293409       -0.4237339950       -1.1190395095
 C          4.3303271060        1.0907209351       -0.9224939330
 C          3.7152366971        1.5120378302        0.4196528695
 C          2.2894289846        1.0558449416        0.5307068222
 C          1.9531002571       -0.0637107945        1.2742325310
 C          0.6407236518       -0.5138678855        1.3244851150
 C         -0.3670903975        0.1301259093        0.6026090094
 C         -1.7872085809       -0.3857029123        0.5609815434
 C         -1.9083112155       -1.8370116987        0.1597190588
 C         -3.0060456458       -2.3279532184       -0.3996435041
 C         -4.2103161295       -1.4846511801       -0.7207083776
 C         -4.0745778208       -0.0220403870       -0.2852555724
 C         -2.6223004178        0.4141675660       -0.4466128179
 C         -2.3292650200        1.9167361187       -0.3338012688
 O         -0.9538888316        2.1086429015       -0.6796492023
 C         -0.0363149885        1.3127485775       -0.0631657438
 C          1.2821358624        1.7520700273       -0.1153759510
 C         -3.1087312722        2.7258712410       -1.3719480843
 C         -2.5880142379        2.4827409803        1.0662245831
 C         -3.1220353060       -3.7684057959       -0.7973994766
 O          0.3938388489       -1.5939841340        2.1236109075
 H          6.1848039955       -3.0962800642        0.1720460845
 H          4.4795045073       -3.0617373369       -0.2812899676
 H          5.7229651733       -2.8206526322       -1.5086460582
 H          5.1546399467       -0.9432087397        0.8288294041
 H          6.3980451768       -0.6858507822       -0.3953346696
 H          3.3980330558       -0.8454914255       -0.9355083794
 H          4.6486205557       -0.6299228000       -2.1605600852
 H          5.3394095047        1.5037608824       -0.9956805224
 H          3.7311073918        1.5251798294       -1.7256869595
 H          4.3028236397        1.1001270840        1.2401692811
 H          3.7544501734        2.6014922040        0.4891244203
 H          2.6951564265       -0.6059699953        1.8381005932
 H         -2.2390843320       -0.2663385420        1.5608921566
 H         -1.0542681281       -2.4827363424        0.3057595845
 H         -4.3591973416       -1.5274848100       -1.8050701989
 H         -5.0989743253       -1.9294449197       -0.2641665748
 H         -4.3747174283        0.0835609119        0.7593123370
 H         -4.7402798612        0.5951810433       -0.8887748435
 H         -2.2891360936        0.1244123506       -1.4517532998
 H          1.4938049220        2.6585256202       -0.6601835030
 H         -4.1519001911        2.8167490160       -1.0857399881
 H         -2.6741429311        3.7196269899       -1.4400140080
 H         -3.0404239822        2.2550100480       -2.3490934761
 H         -1.9049360871        2.0474960483        1.7914978278
 H         -2.4258501247        3.5579819813        1.0553719523
 H         -3.6114959665        2.2848826535        1.3718447306
 H         -3.9519519582       -4.2402753282       -0.2715196276
 H         -3.3195723450       -3.8513819067       -1.8658001578
 H         -2.2099756275       -4.3133145877       -0.5688229790
 H         -0.5539423742       -1.7667750033        2.1575365067
  53
        -68.44678244
 C          6.2766588346        0.3795706848       -2.0425565118
 C          4.7552061197        0.2909625353       -2.0073419378
 C          4.2319797486       -0.7730290561       -1.0412771713
 C          4.5356889348       -0.5081828585        0.4334721210
 C          3.7951614236        0.7090462482        1.0046212335
 C          2.3071095121        0.5162594277        0.9584247592
 C          1.6796015054       -0.2945515788        1.8946094578
 C          0.3142488854       -0.5276747137        1.8375732981
 C         -0.4694429173        0.0283479484        0.8220033698
 C         -1.9500112413       -0.2388808289        0.6925059761
 C         -2.3383052824       -1.6895672843        0.8040160034
 C         -3.3906451742       -2.2055096485        0.1855910153
 C         -4.2791851701       -1.4045215289       -0.7285434397
 C         -3.9707195762        0.0925731808       -0.6939681435
 C         -2.4574949586        0.2772987620       -0.6577201129
 C         -1.9293132230        1.6909844836       -0.9365040753
 O         -0.5023563203        1.6082954934       -1.0254541817
 C          0.1552370601        0.9073294886       -0.0644568523
 C          1.5307866706        1.1266087440       -0.0066155394
 C         -2.3727252919        2.2062259437       -2.3074760270
 C         -2.3093576779        2.7060888915        0.1460800770
 C         -3.7694240487       -3.6500654786        0.3246726749
 O         -0.2879586641       -1.2945354766        2.7969278207
 H          6.7100702468       -0.5944136550       -2.2609250548
 H          6.5961842402        1.0769200526       -2.8140057446
 H          6.6725622040        0.7267678145       -1.0915659798
 H          4.3411076420        1.2653733681       -1.7456202981
 H          4.3940670139        0.0445845380       -3.0087913990
 H          4.6707006831       -1.7359403158       -1.3160709641
 H          3.1494947763       -0.8549610340       -1.1625952621
 H          4.2425190316       -1.3915259285        1.0060067216
 H          5.6090629794       -0.3688210075        0.5717398697
 H          4.1116924607        0.8495169272        2.0413973698
 H          4.0702128969        1.6034856225        0.4460252342
 H          2.2596524194       -0.7480704338        2.6887559798
 H         -2.4623335331        0.2936179264        1.5084539001
 H         -1.7355707695       -2.3055125882        1.4501917505
 H         -4.1465538799       -1.7808516195       -1.7491931842
 H         -5.3254508057       -1.5771639957       -0.4611219145
 H         -4.4167840134        0.5392928876        0.1966652916
 H         -4.4079036590        0.5732056399       -1.5697792592
 H         -2.0203183532       -0.3612098804       -1.4369302617
 H          1.9640471105        1.7979254578       -0.7307776054
 H         -3.4139237412        2.5122626691       -2.2856947408
 H         -1.7596387101        3.0627608977       -2.5754730524
 H         -2.2368971631        1.4377089460       -3.0639121295
 H         -1.9691832526        3.6955371575       -0.1509929541
 H         -3.3869194586        2.7298139210        0.2804647488
 H         -1.8348863401        2.4558153886        1.0915472820
 H         -4.7618249192       -3.7406494537        0.7665665168
 H         -3.7987769324       -4.1306059428       -0.6533018911
 H         -3.0595761405       -4.1802067491        0.9537342668
 H          0.3784170268       -1.5770991135        3.4346379872
  53
        -68.44678111
 C          6.4309836138        1.8748491207       -1.0566414857
 C          4.9179170275        1.9456475818       -0.8852776520
 C          4.4305729984        1.3624895196        0.4419435831
 C          4.6545569670       -0.1411220306        0.6040583867
 C          3.7988204072       -0.9963398179       -0.3409595855
 C          2.3322389181       -0.8116917414       -0.0775712884
 C          1.7404200086       -1.4131856264        1.0248680163
 C          0.3916610487       -1.2409304525        1.2951625626
 C         -0.4190627078       -0.4728715403        0.4540817532
 C         -1.9024078752       -0.3017060667        0.6797117801
 C         -2.6452946623       -1.5801228227        0.9652190299
 C         -3.9144172050       -1.7679575099        0.6333305942
 C         -4.7307094482       -0.7395957906       -0.1034867616
 C         -4.0146320945        0.6051145275       -0.2322842168
 C         -2.5459778551        0.3461775572       -0.5504265326
 C         -1.7226578772        1.5492990031       -1.0295123957
 O         -0.4387818100        1.0599565975       -1.4331811924
 C          0.2006536477        0.1921758767       -0.6053554371
 C          1.5549039175        0.0029711916       -0.8767781136
 C         -2.3118735629        2.1771643433       -2.2945268378
 C         -1.5372169488        2.6255754100        0.0448339725
 C         -4.6397085124       -3.0439422205        0.9420571379
 O         -0.1591687769       -1.8123509014        2.4092566593
 H          6.7318823575        2.3879258823       -1.9675263588
 H          6.9322837011        2.3490465837       -0.2151952495
 H          6.7713740243        0.8446765415       -1.1235933992
 H          4.6079582341        2.9926301867       -0.9288414829
 H          4.4347235215        1.4307309110       -1.7164870310
 H          3.3622153818        1.5662219327        0.5438085307
 H          4.9459563274        1.8783399630        1.2565158281
 H          5.7073213995       -0.3783024103        0.4430075367
 H          4.4107298622       -0.4132582442        1.6338677556
 H          4.0230874925       -0.7387040532       -1.3758531789
 H          4.0642399752       -2.0459062736       -0.1907716133
 H          2.3369467405       -2.0277178176        1.6876675170
 H         -2.0387609084        0.3509767670        1.5556341357
 H         -2.1061227207       -2.3475834291        1.4947768171
 H         -4.9526313208       -1.1318623681       -1.1023941511
 H         -5.6899795102       -0.6054083877        0.4042075453
 H         -4.0955036138        1.1560853402        0.7067161304
 H         -4.4914583004        1.1964042835       -1.0146873822
 H         -2.5010951683       -0.3870697846       -1.3666497802
 H          1.9753853608        0.5211219216       -1.7238091762
 H         -1.5636004452        2.8225100048       -2.7473045534
 H         -2.5784151165        1.4057342764       -3.0122258371
 H         -3.1899613729        2.7695901551       -2.0575108227
 H         -0.9467490731        2.2438279324        0.8738556308
 H         -1.0098385386        3.4754345924       -0.3825224654
 H         -2.5018795578        2.9598529343        0.4155967824
 H         -5.0281972687       -3.4905635955        0.0267687128
 H         -3.9811124527       -3.7587409315        1.4277527219
 H         -5.4871950609       -2.8487407192        1.5993105049
 H          0.5304113410       -2.2837813480        2.8917672286
  53
        -68.44677982
 C          6.4469143645        1.8382173086       -1.0935925569
 C          4.9333453472        1.9226321316       -0.9328906684
 C          4.4351161445        1.3805617824        0.4077555910
 C          4.6510204763       -0.1187104632        0.6148208521
 C          3.7973381251       -0.9973960588       -0.3103383174
 C          2.3302317093       -0.8089588920       -0.0526425115
 C          1.7345905629       -1.4017170340        1.0525128926
 C          0.3846290928       -1.2281813071        1.3160652007
 C         -0.4228910427       -0.4666592222        0.4660628203
 C         -1.9077433211       -0.2974454631        0.6826801516
 C         -2.6491406642       -1.5763809609        0.9696247322
 C         -3.9155323993       -1.7692553342        0.6302972075
 C         -4.7298026337       -0.7464830329       -0.1164527756
 C         -4.0166463973        0.5997075760       -0.2464535093
 C         -2.5454070917        0.3430425491       -0.5543372031
 C         -1.7213899798        1.5454270212       -1.0340536149
 O         -0.4351720788        1.0555374831       -1.4296813875
 C          0.2010442605        0.1921490559       -0.5947891499
 C          1.5561039100        0.0005509479       -0.8602330461
 C         -2.3054208868        2.1679093817       -2.3041147349
 C         -1.5422388106        2.6258231398        0.0372115277
 C         -4.6393015999       -3.0458445830        0.9400829073
 O         -0.1708103764       -1.7917337296        2.4318871651
 H          6.7558903169        2.3232922747       -2.0170519010
 H          6.9463767642        2.3333430385       -0.2632139289
 H          6.7816322256        0.8046149044       -1.1292631179
 H          4.6298262041        2.9696831340       -1.0082777559
 H          4.4520203785        1.3869063860       -1.7519853202
 H          3.3672126523        1.5921898865        0.4971786909
 H          4.9481071807        1.9173845279        1.2101703044
 H          5.7036226585       -0.3650799863        0.4669552794
 H          4.3997219037       -0.3602359490        1.6504635802
 H          4.0223257538       -0.7640764046       -1.3508547881
 H          4.0640997252       -2.0426596492       -0.1348114879
 H          2.3288669668       -2.0109198043        1.7222223461
 H         -2.0506939983        0.3588635009        1.5547703143
 H         -2.1112938687       -2.3398693577        1.5062797551
 H         -4.9440108674       -1.1438568405       -1.1150356488
 H         -5.6928603401       -0.6129382763        0.3842393141
 H         -4.1049095359        1.1546057103        0.6895606823
 H         -4.4901063788        1.1862651090       -1.0344501557
 H         -2.4936792302       -0.3939869728       -1.3667821230
 H          1.9797808141        0.5124041780       -1.7095027861
 H         -2.5680202288        1.3935186105       -3.0201302386
 H         -3.1851406329        2.7604868236       -2.0733376800
 H         -1.5556070591        2.8121990105       -2.7559081128
 H         -2.5090669806        2.9586404547        0.4034980800
 H         -0.9536459723        2.2484944142        0.8695651898
 H         -1.0157649998        3.4757354561       -0.3911366625
 H         -5.4902808257       -2.8503289895        1.5927555498
 H         -5.0224926306       -3.4965388306        0.0245330397
 H         -3.9813260523       -3.7574274880        1.4312901931
 H          0.5168392016       -2.2593273348        2.9208554071
  53
        -68.44677905
 C          3.0758331840       -0.8623859033       -2.1341210509
 C          3.8271374947       -1.2718653327       -0.8733695755
 C          4.9941475030       -0.3440802989       -0.5319925882
 C          4.6227492527        1.1106805485       -0.2407840534
 C          3.8517621595        1.3206817716        1.0694610528
 C          2.4081242910        0.9120906068        0.9947712163
 C          1.8968375303       -0.0751835955        1.8253562768
 C          0.5710994657       -0.4738650808        1.7311142161
 C         -0.2845760711        0.0914517644        0.7823791981
 C         -1.7143837829       -0.3572788188        0.5999851913
 C         -1.8962156184       -1.8500810505        0.5220153094
 C         -2.8673233222       -2.4242261256       -0.1732475900
 C         -3.8604916220       -1.6444633092       -0.9932797382
 C         -3.7641871941       -0.1356573665       -0.7652960761
 C         -2.2915457333        0.2510841556       -0.6820229785
 C         -1.9658904007        1.7481635531       -0.7714541204
 O         -0.5414922378        1.8750509323       -0.8502041951
 C          0.2110720888        1.1512441729        0.0198607530
 C          1.5445275533        1.5411178130        0.1175811249
 C         -2.4813370810        2.3680828987       -2.0720818065
 C         -2.4791091093        2.5544585265        0.4257404213
 C         -3.0406873194       -3.9131747749       -0.2233571926
 O          0.0817225365       -1.4234264842        2.5852287992
 H          2.3554940794       -1.6310229103       -2.4053106699
 H          2.5302146539        0.0639314980       -1.9760712163
 H          3.7650156104       -0.7278056076       -2.9657493170
 H          3.1270079760       -1.3095282200       -0.0394071453
 H          4.2311503926       -2.2783480367       -1.0138599796
 H          5.6954405678       -0.3516670308       -1.3714670746
 H          5.5212728688       -0.7513811911        0.3353106536
 H          5.5526649376        1.6825010893       -0.1775788168
 H          4.0459638195        1.5162125670       -1.0711967019
 H          4.3505399032        0.7716547412        1.8709854720
 H          3.8935646383        2.3849628972        1.3190850446
 H          2.5375076831       -0.5484850875        2.5596108558
 H         -2.2932652301       -0.0084866306        1.4688782933
 H         -1.2121021674       -2.4533694421        1.0950803316
 H         -3.6782601555       -1.8658394270       -2.0509798188
 H         -4.8719791356       -1.9931174647       -0.7667553616
 H         -4.2665855145        0.1279992674        0.1673679049
 H         -4.2658956615        0.3869886860       -1.5803504205
 H         -1.7708338951       -0.2163020826       -1.5284427120
 H          1.8771820130        2.3588320044       -0.5023547743
 H         -2.2423390654        1.7288387344       -2.9179802802
 H         -3.5549327048        2.5214635034       -2.0266137036
 H         -1.9946523505        3.3286141412       -2.2201992534
 H         -3.5488803974        2.4109774570        0.5473157599
 H         -1.9705170413        2.2541132337        1.3383188714
 H         -2.2815805269        3.6112929427        0.2611495914
 H         -4.0098307511       -4.1958216458        0.1879602898
 H         -3.0047601353       -4.2649995713       -1.2544273373
 H         -2.2625838725       -4.4154411481        0.3448721120
 H          0.7835427773       -1.6925289344        3.1898907223
  53
        -68.44677404
 C          4.7094917727       -0.1179535285       -3.1445518555
 C          4.9517889310        0.3052558493       -1.7009828049
 C          4.3448526900       -0.6918807297       -0.7165606081
 C          4.5887951415       -0.3269750864        0.7473399103
 C          3.7988179565        0.9048658882        1.2118728485
 C          2.3194924323        0.6702223263        1.1131166358
 C          1.6688695518       -0.0838508598        2.0776455440
 C          0.3133416760       -0.3576684619        1.9690327427
 C         -0.4232407969        0.0903472038        0.8685376573
 C         -1.8785212878       -0.2667956673        0.6706922433
 C         -2.1684072062       -1.7477805700        0.7391212745
 C         -3.2133445790       -2.2935765162        0.1315333425
 C         -4.1791583731       -1.5022762016       -0.7085351392
 C         -3.8786627900       -0.0004155639       -0.7466847199
 C         -2.3686814486        0.2081197508       -0.7029289864
 C         -1.8508612553        1.6192449637       -1.0143758859
 O         -0.4231627902        1.5437389454       -1.0781228099
 C          0.2176542307        0.9288224342       -0.0451022578
 C          1.5794453716        1.1934152465        0.0678562948
 C         -2.2790836224        2.0859068714       -2.4068447971
 C         -2.2611697145        2.6612527385        0.0311875571
 C         -3.4971787318       -3.7636641944        0.2007795577
 O         -0.2556193880       -1.0595973500        2.9933599576
 H          5.1507443843       -1.0938625060       -3.3369348937
 H          3.6421618999       -0.1800443064       -3.3457225183
 H          5.1484838762        0.5990704124       -3.8349357275
 H          6.0267832120        0.3840244649       -1.5198138681
 H          4.5149905063        1.2923626479       -1.5441402839
 H          4.7794839988       -1.6766884946       -0.9070699394
 H          3.2695132597       -0.7647909903       -0.8916807780
 H          4.3005302383       -1.1751960717        1.3720856503
 H          5.6550084458       -0.1438190826        0.9017679626
 H          4.0650023511        1.1125362531        2.2507810648
 H          4.0792382702        1.7707131348        0.6119658073
 H          2.1968714784       -0.4636693376        2.9378327725
 H         -2.4780698357        0.2375762517        1.4481092571
 H         -1.4765456963       -2.3816767281        1.2749349808
 H         -4.1345169361       -1.9065884347       -1.7255789189
 H         -5.1980277871       -1.6703461019       -0.3484925642
 H         -4.3412778426        0.4924939222        0.1108401572
 H         -4.3091472153        0.4285876513       -1.6516836473
 H         -1.9124843897       -0.4456851511       -1.4577083289
 H          2.0333816571        1.8282946758       -0.6763200167
 H         -2.1146075403        1.2987978243       -3.1380279831
 H         -3.3261816459        2.3720947495       -2.4122004631
 H         -1.6773374238        2.9458623026       -2.6887262011
 H         -3.3417410156        2.6834732999        0.1403393656
 H         -1.8062770011        2.4425687057        0.9941699677
 H         -1.9195062200        3.6436102445       -0.2863141968
 H         -2.7463086681       -4.2807744043        0.7922085041
 H         -4.4756436523       -3.9392101885        0.6477011592
 H         -3.5104508689       -4.1942761530       -0.8001059012
 H         -1.2089360330       -1.1164998389        2.8617849357
  53
        -68.44676271
 C          6.7055684737       -1.1878351340       -0.5474913936
 C          5.2319606724       -1.4797287316       -0.2886834357
 C          4.2896936248       -0.6872067909       -1.1964918733
 C          4.3027565681        0.8252872690       -0.9734310538
 C          3.7232037455        1.2530228124        0.3819838288
 C          2.2776535458        0.8663941600        0.5040434090
 C          1.8878584415       -0.2316265540        1.2565598676
 C          0.5565703137       -0.6175448876        1.3212324296
 C         -0.4291562006        0.0749020051        0.6136845193
 C         -1.8809705508       -0.3403518490        0.6159304446
 C         -2.1142537218       -1.8078204053        0.3714012034
 C         -3.2042895743       -2.2775757441       -0.2178891644
 C         -4.2998375868       -1.3891507592       -0.7445106389
 C         -4.1243855267        0.0742207944       -0.3376942367
 C         -2.6485896913        0.4390771813       -0.4565033606
 C         -2.3010131682        1.9327898717       -0.4007720408
 O         -0.9072133211        2.0620771790       -0.7034660719
 C         -0.0394457018        1.2275591859       -0.0726475857
 C          1.3008733188        1.5997505689       -0.1425747889
 C         -3.0105639449        2.7259705233       -1.5003019257
 C         -2.5828823281        2.5717511769        0.9627222871
 C         -3.4246084196       -3.7450050389       -0.4359659398
 O          0.1924302466       -1.6801422945        2.1019403112
 H          6.9474785462       -1.3537967957       -1.5951761005
 H          6.9520259819       -0.1593847805       -0.2965611860
 H          7.3322319238       -1.8409994389        0.0562110483
 H          5.0498689228       -2.5442598137       -0.4567462395
 H          5.0021486174       -1.2727631842        0.7575562756
 H          3.2692964742       -1.0490601961       -1.0501182783
 H          4.5641881953       -0.8858478176       -2.2356272298
 H          5.3222878804        1.2041879594       -1.0606617747
 H          3.7082062368        1.2910964676       -1.7622497588
 H          4.3007278126        0.8031002921        1.1903166960
 H          3.8151047032        2.3381969978        0.4674770192
 H          2.6259925523       -0.7991499676        1.8091698408
 H         -2.2967666480       -0.1108567968        1.6090092940
 H         -1.3601078259       -2.4866548893        0.7330684614
 H         -4.3053683860       -1.4656852910       -1.8377141762
 H         -5.2677125843       -1.7607194732       -0.3963892423
 H         -4.4549604189        0.2112723840        0.6936857226
 H         -4.7414044382        0.7051468657       -0.9783257117
 H         -2.2914038247        0.0884557506       -1.4339768110
 H          1.5516659943        2.4864159193       -0.7031154577
 H         -2.9362885868        2.2057052625       -2.4516617015
 H         -4.0562460402        2.8778090009       -1.2518620587
 H         -2.5283745099        3.6948660973       -1.6010447009
 H         -3.6204344566        2.4179512462        1.2450221872
 H         -1.9361023135        2.1482795242        1.7269458670
 H         -2.3868012043        3.6402180355        0.9085799715
 H         -4.3170329884       -4.0770706646        0.0946559538
 H         -3.5742250194       -3.9529884558       -1.4953283368
 H         -2.5753604710       -4.3232612380       -0.0824143663
 H          0.9777979502       -2.0298707556        2.5395891110
  53
        -68.44672057
 C          6.9673499677       -0.0998735624        0.7109801150
 C          5.5176311005       -0.3769089942        1.0919218762
 C          4.5924401362        0.8185821147        0.8571956321
 C          4.4015002155        1.2052727206       -0.6096730216
 C          3.6225879449        0.1641865197       -1.4256111373
 C          2.2245689969       -0.0106773615       -0.9062599721
 C          1.8846471938       -1.0933534542       -0.1086748455
 C          0.5956733837       -1.2423504874        0.3830083988
 C         -0.4054118537       -0.3189260962        0.0714108146
 C         -1.8340564148       -0.4715452262        0.5366776990
 C         -2.4158203620       -1.8458216315        0.3349979371
 C         -3.7051706851       -2.0603929198        0.1168147365
 C         -4.7141228781       -0.9487722806        0.0032504256
 C         -4.1373286086        0.4159216794        0.3804419419
 C         -2.7317296124        0.5276190678       -0.2001549358
 C         -2.1002622550        1.9262020876       -0.2106168138
 O         -0.8739649630        1.8401821906       -0.9451098817
 C         -0.0343603103        0.8087763627       -0.6649388028
 C          1.2591332807        0.9442330038       -1.1632894498
 C         -2.9494918885        2.9303050781       -0.9931286941
 C         -1.8117140756        2.4732564107        1.1909993355
 C         -4.2651403923       -3.4398671734       -0.0648260343
 O          0.2977946036       -2.2966174403        1.2022417568
 H          7.0669202366        0.0677535691       -0.3582948872
 H          7.3360019470        0.7805805530        1.2331425507
 H          7.5969347525       -0.9457011474        0.9791324261
 H          5.1576596279       -1.2417714904        0.5326176670
 H          5.4768746816       -0.6356889933        2.1531267752
 H          5.0002009436        1.6800406217        1.3922142509
 H          3.6122752057        0.5981096210        1.2864152447
 H          3.8527419768        2.1487956145       -0.6451273272
 H          5.3728275248        1.3705619697       -1.0783643586
 H          3.5800215783        0.5033830518       -2.4631133960
 H          4.1497130943       -0.7903417266       -1.4066683343
 H          2.6304794251       -1.8374945646        0.1408925560
 H         -1.8622099016       -0.2668416432        1.6179291069
 H         -1.7352747560       -2.6772326571        0.4109000599
 H         -5.0746414632       -0.9192008906       -1.0311924013
 H         -5.5785208637       -1.1767009304        0.6332263535
 H         -4.0944207360        0.5091646421        1.4672958605
 H         -4.7879147844        1.2029929738       -0.0022015143
 H         -2.7745249718        0.2141854436       -1.2517602252
 H          1.4865514171        1.8205875909       -1.7494161449
 H         -3.8145263544        3.2373885188       -0.4137896940
 H         -2.3441110871        3.8058957801       -1.2127593357
 H         -3.2789377343        2.4969289255       -1.9338210206
 H         -2.7181939838        2.4769522402        1.7893886630
 H         -1.0546792525        1.8733640805        1.6896806877
 H         -1.4375173592        3.4914180168        1.1115027088
 H         -4.9964867586       -3.6576172295        0.7136615136
 H         -4.7730039973       -3.5196753243       -1.0260177099
 H         -3.4787463996       -4.1884119875       -0.0216280444
 H          1.0959140282       -2.8209963868        1.3390188455
  53
        -68.44661764
 C          3.3412785710       -1.8762947610       -1.1493807516
 C          3.6786668454       -0.4837079885       -1.6677123350
 C          4.9155515280        0.1274676878       -1.0075574440
 C          4.8260930264        0.3417862300        0.5041314272
 C          3.8357388240        1.4326652933        0.9353812018
 C          2.3970983098        1.0043424617        0.8780526410
 C          1.9391566430       -0.0224057537        1.6933484298
 C          0.6236453287       -0.4547741590        1.6271591750
 C         -0.2790085781        0.1206033990        0.7285095555
 C         -1.7019386877       -0.3606612630        0.5803602146
 C         -1.8458894250       -1.8537941397        0.4484813844
 C         -2.8289203375       -2.4266361295       -0.2307984814
 C         -3.8756977591       -1.6428971207       -0.9772394033
 C         -3.8079853036       -0.1413708205       -0.6959921168
 C         -2.3432493346        0.2803894169       -0.6543135549
 C         -2.0571874770        1.7875703868       -0.6985635274
 O         -0.6402469541        1.9530185759       -0.8270725694
 C          0.1616100540        1.2188583949       -0.0117622275
 C          1.4899552814        1.6372869988        0.0504446519
 C         -2.6380049674        2.4425320613       -1.9535763076
 C         -2.5419283685        2.5350459335        0.5476469474
 C         -2.9639254830       -3.9166485398       -0.3364228494
 O          0.1862892957       -1.4450042683        2.4633831169
 H          2.5429877872       -2.3139114130       -1.7443385955
 H          4.2102661853       -2.5295096676       -1.2048902700
 H          3.0005272560       -1.8324336475       -0.1185543795
 H          3.8703628677       -0.5448177727       -2.7423375431
 H          2.8191798029        0.1696339150       -1.5212482951
 H          5.1245978720        1.0887295225       -1.4842648632
 H          5.7701495126       -0.5267039102       -1.2045612165
 H          4.5723146950       -0.5983546096        0.9937105578
 H          5.8199076390        0.6335759696        0.8549194285
 H          4.0698679564        1.7134933816        1.9668169650
 H          3.9798298614        2.3149206902        0.3094907086
 H          2.6121656809       -0.4913758895        2.4006357465
 H         -2.2569622464       -0.0629164907        1.4830988742
 H         -1.1223276517       -2.4597937045        0.9677211759
 H         -3.7336140684       -1.8195932570       -2.0494030719
 H         -4.8675462364       -2.0266960301       -0.7222683678
 H         -4.2797969554        0.0744016476        0.2645496957
 H         -4.3540651746        0.3978259891       -1.4707953386
 H         -1.8449474695       -0.1414458790       -1.5373307206
 H          1.7847884017        2.4742927713       -0.5632477430
 H         -2.1806489359        3.4200260169       -2.0831350954
 H         -2.4174221664        1.8418305904       -2.8321071255
 H         -3.7123308520        2.5665867503       -1.8607317489
 H         -3.6024668018        2.3603302646        0.7043720793
 H         -1.9910783286        2.2132400893        1.4277741754
 H         -2.3758118497        3.6019039984        0.4166584464
 H         -3.9076567350       -4.2436614788        0.1004553838
 H         -2.9602055216       -4.2248217832       -1.3819453789
 H         -2.1500226911       -4.4192297805        0.1789509123
 H          0.9123547535       -1.7127362322        3.0393156343
  53
        -68.44657421
 C          6.0524980900        0.8602435062       -2.3703884472
 C          6.4486628893        0.5657180904       -0.9284791180
 C          5.8061507002       -0.7068644199       -0.3738319809
 C          4.2781982386       -0.6887775969       -0.3240574222
 C          3.7128593394        0.3987144862        0.5970060803
 C          2.2186764542        0.2829251572        0.6762400457
 C          1.6196083633       -0.5110602924        1.6434718072
 C          0.2422125698       -0.6685992963        1.6848985573
 C         -0.5818569604       -0.0528847460        0.7387353695
 C         -2.0805462320       -0.2370371184        0.7169710846
 C         -2.5390576778       -1.6663649698        0.8374042152
 C         -3.6613607896       -2.1134918301        0.2927762335
 C         -4.5698131489       -1.2494111127       -0.5408142855
 C         -4.1771580736        0.2278952219       -0.5091608533
 C         -2.6575119651        0.3295134979       -0.5842260232
 C         -2.0737333485        1.7169510436       -0.8829140182
 O         -0.6642428824        1.5577611187       -1.0808003762
 C          0.0233289568        0.8057705812       -0.1814212711
 C          1.4088066312        0.9491325935       -0.2226604292
 C         -2.5890299584        2.2799894341       -2.2092221291
 C         -2.3143649165        2.7318679089        0.2390797726
 C         -4.1080322518       -3.5377152429        0.4399953997
 O         -0.3287014603       -1.4194593992        2.6754246527
 H          6.6137938480        1.7117606934       -2.7490116695
 H          6.2620235392        0.0019311599       -3.0054488126
 H          4.9938611159        1.0937421544       -2.4456093725
 H          7.5340287606        0.4463430806       -0.8778232663
 H          6.1874077523        1.4170474597       -0.2976925115
 H          6.1892308323       -0.8769238105        0.6359917724
 H          6.1197763784       -1.5529088575       -0.9909274878
 H          3.8715385527       -0.5528913546       -1.3267665174
 H          3.9327587921       -1.6614719465        0.0354184443
 H          4.1508818077        0.2887059167        1.5915955754
 H          3.9792690866        1.3822518259        0.2096535500
 H          2.2307796625       -1.0112150756        2.3844162865
 H         -2.5008364863        0.3078880847        1.5761523329
 H         -1.9250159597       -2.3254516516        1.4279762349
 H         -4.5345976871       -1.6141641354       -1.5735957517
 H         -5.6012376504       -1.3697317331       -0.1977661843
 H         -4.5303657071        0.6823444729        0.4184600549
 H         -4.6508200013        0.7469974046       -1.3430486385
 H         -2.3154347466       -0.3181026895       -1.4024560462
 H          1.8272238644        1.6085383305       -0.9665683157
 H         -3.6068814116        2.6421947678       -2.1043804373
 H         -1.9507702443        3.1062729753       -2.5113084500
 H         -2.5536098449        1.5186725134       -2.9840777706
 H         -1.7844326903        2.4395524123        1.1420568206
 H         -1.9433651360        3.7065634334       -0.0696548336
 H         -3.3757591038        2.8114576398        0.4556142775
 H         -4.2364189641       -3.9983840267       -0.5395358360
 H         -3.3838077661       -4.1166180305        1.0065325266
 H         -5.0683523391       -3.5824720080        0.9539014210
 H          0.3665156694       -1.7492012443        3.2572809577
  53
        -68.44657215
 C          3.5600602234        1.1385992787        2.2444709727
 C          3.8321701492        1.9094185153        0.9585206512
 C          5.0338617132        1.3796406202        0.1745387884
 C          4.9348351396       -0.0703615962       -0.3022433338
 C          3.8929910720       -0.3126593999       -1.4039815363
 C          2.4771684043       -0.3630975096       -0.9043183807
 C          2.0781073119       -1.3646356401       -0.0293594649
 C          0.7757642430       -1.4258265114        0.4426034473
 C         -0.1834943694       -0.4952861214        0.0334861967
 C         -1.6215559856       -0.5490882404        0.4904837104
 C         -2.2616724225       -1.9086527257        0.3930190943
 C         -3.5587216391       -2.0822478608        0.1841221968
 C         -4.5170686515       -0.9394097091       -0.0220170819
 C         -3.8804400478        0.4253229367        0.2429138575
 C         -2.4693642103        0.4240627560       -0.3348466217
 C         -1.7727344493        1.7856804132       -0.4596066423
 O         -0.5526412508        1.5783456485       -1.1804472635
 C          0.2413713507        0.5447849574       -0.7951009722
 C          1.5483481856        0.5886066010       -1.2777487673
 C         -2.5734788764        2.7601943266       -1.3256901195
 C         -1.4553428430        2.4329605686        0.8921475304
 C         -4.1791697672       -3.4455141117        0.1058530179
 O          0.4200113191       -2.3965343860        1.3382312571
 H          4.4629073230        1.0645301794        2.8479493364
 H          2.7963837537        1.6453574649        2.8303692559
 H          3.2012348583        0.1365353764        2.0252365278
 H          2.9408711017        1.8847830255        0.3326317598
 H          4.0337058468        2.9542504080        1.2097802162
 H          5.9219891732        1.4648825507        0.8078510815
 H          5.1915243281        2.0227546736       -0.6951386816
 H          5.9137967595       -0.3521834980       -0.6997574836
 H          4.7299521692       -0.7225006446        0.5467015179
 H          3.9855056633        0.4670868866       -2.1617707121
 H          4.1218104838       -1.2704860813       -1.8808274555
 H          2.7893194729       -2.1153806267        0.2927751228
 H         -1.6498332365       -0.2563475314        1.5512841378
 H         -1.6186500308       -2.7607132435        0.5369835698
 H         -4.8774781635       -0.9790433196       -1.0561641814
 H         -5.3898649462       -1.0764932571        0.6225313344
 H         -3.8371168754        0.6087169498        1.3182132197
 H         -4.4935044594        1.2053638816       -0.2096884512
 H         -2.5232244988        0.0251160192       -1.3565718986
 H          1.8152125474        1.3998858864       -1.9372290600
 H         -1.9273221403        3.5846827090       -1.6156721887
 H         -2.9241617907        2.2660230557       -2.2279489900
 H         -3.4222821433        3.1551956395       -0.7763843544
 H         -2.3589783033        2.5278748774        1.4873371546
 H         -0.7251005162        1.8421005892        1.4393587636
 H         -1.0347701693        3.4227079714        0.7290867076
 H         -3.4274493535       -4.2225443781        0.2139088148
 H         -4.9234658473       -3.5690792730        0.8926231681
 H         -4.6852954472       -3.5777472965       -0.8504662330
 H          1.1917009497       -2.9415439627        1.5333645887
  53
        -68.44656611
 C          6.1675142459        1.9431851589       -1.6084770290
 C          6.4957883696        0.5924671537       -0.9834817839
 C          5.9433944931        0.4329132976        0.4339748299
 C          4.4206857222        0.5129973054        0.5452197317
 C          3.6954754626       -0.5988178394       -0.2220156829
 C          2.2167495387       -0.5214407402        0.0238255103
 C          1.6416171278       -1.1874915261        1.0963790337
 C          0.2792798287       -1.1018616949        1.3421007285
 C         -0.5576692456       -0.3571698287        0.5064197803
 C         -2.0530905584       -0.2826188856        0.7030975745
 C         -2.7225666073       -1.6121964953        0.9306498797
 C         -3.9703520570       -1.8653433594        0.5631766228
 C         -4.8318338635       -0.8644548509       -0.1598894724
 C         -4.1968268817        0.5246284109       -0.2288531454
 C         -2.7085744959        0.3655966023       -0.5205048575
 C         -1.9498804532        1.6313642053       -0.9412861443
 O         -0.6305726736        1.2333785308       -1.3313237506
 C          0.0429090448        0.3780334521       -0.5178244170
 C          1.4103745276        0.2754804825       -0.7651417941
 C         -2.5496377286        2.2653417108       -2.1982873034
 C         -1.8524295442        2.6796335655        0.1716250415
 C         -4.6229799035       -3.1921450721        0.8146584053
 O         -0.2591836924       -1.7375427154        2.4269252593
 H          6.4975762686        2.7526659859       -0.9606157071
 H          6.6692874351        2.0462351923       -2.5681903612
 H          5.0986870487        2.0485942646       -1.7739282865
 H          6.1138468737       -0.2064631856       -1.6211866013
 H          7.5820107087        0.4790973524       -0.9378413073
 H          6.3757539761        1.2128516944        1.0662722111
 H          6.2747942210       -0.5313074322        0.8286896727
 H          4.1475741377        0.4407796334        1.6011688275
 H          4.0688128604        1.4810671951        0.1869890836
 H          3.8890782189       -0.4940876112       -1.2896582550
 H          4.0785038831       -1.5679472662        0.1052426262
 H          2.2606374733       -1.7844411153        1.7545374441
 H         -2.2473367925        0.3313790590        1.5958561329
 H         -2.1491080878       -2.3626105914        1.4485464393
 H         -5.0074556884       -1.2361031696       -1.1757384169
 H         -5.8084639509       -0.8054602028        0.3287054569
 H         -4.3314398284        1.0381383560        0.7250654806
 H         -4.6919818593        1.1117208167       -1.0030069569
 H         -2.6014495015       -0.3360669743       -1.3584348661
 H          1.8202859349        0.8426156821       -1.5858939734
 H         -2.7544972832        1.5040763119       -2.9464555682
 H         -3.4664713085        2.7962096346       -1.9620395518
 H         -1.8323946875        2.9689156640       -2.6129279617
 H         -2.8429445383        2.9401972137        0.5332219877
 H         -1.2543834612        2.3070719475        0.9993804396
 H         -1.3718573450        3.5749393338       -0.2162949157
 H         -5.4932361500       -3.0702782907        1.4597362635
 H         -4.9660662763       -3.6300164115       -0.1227577526
 H         -3.9318549016       -3.8822767865        1.2907199804
 H          0.4471440474       -2.1824116178        2.9104621457
  53
        -68.44651089
 C          4.9077595367       -2.2341235308       -1.4933300350
 C          5.1940629853       -0.7921673360       -1.8964161480
 C          4.3034272731        0.2198785871       -1.1753912578
 C          4.6010061667        0.3273358184        0.3176860267
 C          3.7232632641        1.3838972641        1.0005296572
 C          2.2735084509        0.9959622994        0.9541858974
 C          1.7920452405        0.0065881523        1.7979340638
 C          0.4683564576       -0.4020293467        1.7288266231
 C         -0.4048421829        0.1502769835        0.7870816629
 C         -1.8266647060       -0.3351650347        0.6212998535
 C         -1.9529862361       -1.8271835276        0.4214264590
 C         -2.9834935512       -2.3724740110       -0.2107771635
 C         -4.0957378262       -1.5609467057       -0.8182080092
 C         -3.9598969744       -0.0531311170       -0.5832236113
 C         -2.4822397659        0.3232829755       -0.5990165417
 C         -2.1445123504        1.8192910897       -0.6642780403
 O         -0.7279331288        1.9279601844       -0.8365670093
 C          0.0623885577        1.2128142171        0.0115739578
 C          1.3945200980        1.6106707353        0.0809088979
 C         -2.7403781925        2.4814839872       -1.9078472738
 C         -2.5678141742        2.5927414199        0.5886929599
 C         -3.1046257869       -3.8533894798       -0.4078089973
 O          0.0679000105       -1.3432811298        2.6341722439
 H          5.4992671974       -2.9201401302       -2.0959855833
 H          5.1534066139       -2.4048852377       -0.4486294201
 H          3.8552188122       -2.4661517339       -1.6410672767
 H          6.2428941095       -0.5600929985       -1.6954889579
 H          5.0347434239       -0.6905362256       -2.9727717068
 H          3.2563199338       -0.0578016381       -1.3127840495
 H          4.4474904485        1.2022644659       -1.6325264056
 H          4.4253098336       -0.6351575882        0.7990104279
 H          5.6522619454        0.5907757692        0.4586759428
 H          4.0389260087        1.4836981604        2.0416367608
 H          3.8651289730        2.3464518799        0.5059931403
 H          2.4296643523       -0.4584028111        2.5329279445
 H         -2.4050411224       -0.0581298773        1.5196221247
 H         -1.1550963715       -2.4619911948        0.7792454501
 H         -4.0956121923       -1.7612128033       -1.8951306837
 H         -5.0566312489       -1.9139583329       -0.4334705603
 H         -4.3951987047        0.2127186649        0.3822658955
 H         -4.5105701722        0.4815766470       -1.3573057158
 H         -2.0274645923       -0.1199414468       -1.4945619623
 H          1.7154767188        2.4186659500       -0.5571611576
 H         -2.5593000966        1.8691292317       -2.7872820010
 H         -3.8080814156        2.6362990092       -1.7877972586
 H         -2.2591678545        3.4444751448       -2.0566122729
 H         -3.6306766958        2.4639201093        0.7725381492
 H         -2.0084345382        2.2561763031        1.4581018344
 H         -2.3613282987        3.6507558646        0.4455097227
 H         -3.1577841709       -4.0909521493       -1.4699436664
 H         -2.2560753232       -4.3773635493        0.0239734927
 H         -4.0176763597       -4.2234403122        0.0583925045
 H         -0.8824336592       -1.4866325656        2.5590918639
  53
        -68.44649251
 C          6.6671359573       -1.5316204200       -0.0013797221
 C          6.6427998458       -0.0454793558       -0.3387423615
 C          5.6316612281        0.3096035712       -1.4303210108
 C          4.1738513093        0.0067043075       -1.0835045141
 C          3.6573900812        0.8025943659        0.1209665999
 C          2.1916270505        0.5470867533        0.3176546423
 C          1.7583842145       -0.5028735561        1.1145788451
 C          0.4072919065       -0.7844055050        1.2521209905
 C         -0.5570760723       -0.0344399630        0.5732993213
 C         -2.0340619464       -0.3386746842        0.6530189892
 C         -2.3863932224       -1.7899060525        0.4590918052
 C         -3.5338049806       -2.1906681012       -0.0689615538
 C         -4.5840876463       -1.2355733446       -0.5704561342
 C         -4.2828487027        0.2196434756       -0.2109478172
 C         -2.7912213019        0.4700787877       -0.4050473813
 C         -2.3323332454        1.9344312363       -0.4058344267
 O         -0.9482161705        1.9517602973       -0.7733023859
 C         -0.1162741307        1.0686275173       -0.1610663886
 C          1.2438187859        1.3364391768       -0.3037372941
 C         -3.0314234158        2.7513255399       -1.4946707805
 C         -2.5033139388        2.6256277049        0.9505771282
 C         -3.8708450522       -3.6423955175       -0.2380767047
 O          0.0019660465       -1.7964104525        2.0782830598
 H          7.4692079612       -1.7462257302        0.7015833751
 H          5.7298920116       -1.8459609427        0.4501505542
 H          6.8313918442       -2.1230028750       -0.8997011998
 H          6.4298007460        0.5299564135        0.5636917847
 H          7.6351129343        0.2530175445       -0.6862385289
 H          5.8906802884       -0.2417935059       -2.3379204324
 H          5.7243802256        1.3751509784       -1.6553147558
 H          3.5539342756        0.2528812103       -1.9488787378
 H          4.0487115999       -1.0596692603       -0.8900457649
 H          4.2037166810        0.5088945802        1.0182847956
 H          3.8282400488        1.8663115006       -0.0548864895
 H          2.4804026156       -1.1103581532        1.6461038805
 H         -2.3847442699       -0.0546682401        1.6570659848
 H         -1.6688163933       -2.5145612296        0.8056747055
 H         -4.6453868864       -1.3370516296       -1.6599039783
 H         -5.5597077654       -1.5254814323       -0.1702934133
 H         -4.5542035529        0.4050027599        0.8301160852
 H         -4.8808172877        0.8798020789       -0.8400789713
 H         -2.5063317769        0.0700551218       -1.3873029840
 H          1.5328986297        2.1868434803       -0.9006727822
 H         -4.0504402421        2.9873635668       -1.2046187504
 H         -2.4840647088        3.6784706361       -1.6435373200
 H         -3.0397587960        2.2038430681       -2.4335299860
 H         -1.8552742809        2.1732307090        1.6969267751
 H         -2.2314417055        3.6747161355        0.8584698794
 H         -3.5353274743        2.5570552241        1.2823069357
 H         -4.0794798911       -3.8639707446       -1.2848389913
 H         -3.0524978018       -4.2739725736        0.0967880617
 H         -4.7624863251       -3.8939764152        0.3363808190
 H          0.7786397634       -2.1933400228        2.4903894625
  53
        -68.44649286
 C          6.6754425339       -1.5318015537       -0.0266218117
 C          6.6447796608       -0.0407428414       -0.3411649783
 C          5.6318816589        0.3265014347       -1.4271339052
 C          4.1749199694        0.0165759418       -1.0827047205
 C          3.6580177421        0.7979637863        0.1310284786
 C          2.1918828088        0.5417929727        0.3239449404
 C          1.7561611651       -0.5070035992        1.1209164973
 C          0.4044497620       -0.7871686053        1.2561689888
 C         -0.5579520347       -0.0371750331        0.5746178782
 C         -2.0356040343       -0.3386747302        0.6534200189
 C         -2.3909028049       -1.7896793721        0.4633208960
 C         -3.5390983853       -2.1894745782       -0.0638720981
 C         -4.5869588879       -1.2335884160       -0.5688665241
 C         -4.2827374315        0.2220109470       -0.2135313761
 C         -2.7904864741        0.4688678230       -0.4072338680
 C         -2.3290053479        1.9324261274       -0.4112070380
 O         -0.9443944051        1.9466506922       -0.7768779543
 C         -0.1145731050        1.0641031558       -0.1609562651
 C          1.2459576615        1.3307944765       -0.3007910174
 C         -3.0252776602        2.7477947988       -1.5029818926
 C         -2.5004672945        2.6273696999        0.9432295552
 C         -3.8795687612       -3.6408900890       -0.2283093265
 O         -0.0032443973       -1.7977715838        2.0829015231
 H          7.4774915562       -1.7534521722        0.6742110413
 H          5.7389409458       -1.8573863137        0.4185037919
 H          6.8437694384       -2.1085738644       -0.9337052676
 H          6.4296893656        0.5200092534        0.5700368731
 H          7.6357732298        0.2671826413       -0.6842126121
 H          5.8911243127       -0.2125933032       -2.3420475601
 H          5.7223380652        1.3951195527       -1.6383324825
 H          3.5538757627        0.2714646733       -1.9447391968
 H          4.0519498074       -1.0521438420       -0.9012365832
 H          4.2035702804        0.4932187572        1.0250945901
 H          3.8296623932        1.8636280591       -0.0318400674
 H          2.4765355080       -1.1145497198        1.6546238990
 H         -2.3866645666       -0.0513663244        1.6564232741
 H         -1.6750538849       -2.5148887984        0.8124245195
 H         -4.6478010503       -1.3381462739       -1.6580336229
 H         -5.5634601453       -1.5201698951       -0.1684852055
 H         -4.5543697392        0.4109661797        0.8267915982
 H         -4.8788222072        0.8816499566       -0.8449757907
 H         -2.5057985903        0.0659892662       -1.3883414749
 H          1.5370347210        2.1801161630       -0.8983526275
 H         -3.0328947313        2.1981745695       -2.4405865124
 H         -4.0443934335        2.9859208102       -1.2150549784
 H         -2.4764073247        3.6738249038       -1.6531672699
 H         -3.5330526414        2.5618528962        1.2737321861
 H         -1.8543472521        2.1756453633        1.6916405680
 H         -2.2263446923        3.6756433249        0.8487427919
 H         -4.0898457083       -3.8652495205       -1.2740953677
 H         -3.0623713328       -4.2732889308        0.1075973068
 H         -4.7711540349       -3.8885916629        0.3478985065
 H          0.7723401879       -2.1949229072        2.4968063974
  53
        -68.44648555
 C          4.6700364042       -1.1850931856       -2.6311569319
 C          5.3244841188       -1.3640532467       -1.2661176743
 C          4.5197322976       -0.7355145011       -0.1283862041
 C          4.4858054472        0.7892514909       -0.1858366906
 C          3.7207489328        1.3887242425        1.0008565777
 C          2.2732363955        0.9905603162        0.9694042101
 C          1.7773832625        0.0287519936        1.8340293416
 C          0.4499665531       -0.3721867883        1.7628867590
 C         -0.4088111207        0.1574910509        0.7966991904
 C         -1.8321321014       -0.3230823915        0.6298986891
 C         -1.9668497436       -1.8193588545        0.4716816989
 C         -2.9950121777       -2.3756442996       -0.1547195519
 C         -4.0958064604       -1.5744292343       -0.7958123231
 C         -3.9512971638       -0.0614006517       -0.6033686752
 C         -2.4708895699        0.3042497450       -0.6154812441
 C         -2.1219383624        1.7953796039       -0.7208713994
 O         -0.7030217187        1.8894638690       -0.8817158575
 C          0.0740805311        1.1945464973       -0.0048694760
 C          1.4061921993        1.5866144765        0.0693498885
 C         -2.7005443675        2.4246367532       -1.9894809532
 C         -2.5523500931        2.6081278913        0.5044681525
 C         -3.1244369448       -3.8607255786       -0.3108519308
 O          0.0350552459       -1.2855733358        2.6898696009
 H          3.6512611944       -1.5662534328       -2.6150908524
 H          4.6397217853       -0.1369499286       -2.9163921911
 H          5.2280138692       -1.7264339346       -3.3922613169
 H          5.4323921593       -2.4329843253       -1.0660716635
 H          6.3270911011       -0.9296193303       -1.2840748798
 H          4.9615896079       -1.0405294163        0.8236491470
 H          3.4971111863       -1.1174278669       -0.1552291869
 H          5.5086906607        1.1740838727       -0.1822946747
 H          4.0048251914        1.1128606763       -1.1093915240
 H          4.1770799701        1.0516188347        1.9332382075
 H          3.7988669896        2.4774781187        0.9555624353
 H          2.4041549410       -0.4239800554        2.5856142967
 H         -2.4176381592       -0.0165323828        1.5139015705
 H         -1.1769957249       -2.4489920267        0.8555176923
 H         -4.0873320815       -1.8058686579       -1.8664415241
 H         -5.0627060181       -1.9094060808       -0.4099970646
 H         -4.3939746802        0.2354177525        0.3496654921
 H         -4.4906900528        0.4543316470       -1.3979882926
 H         -2.0106653459       -0.1681275848       -1.4931754244
 H          1.7391226789        2.3780515882       -0.5833845774
 H         -3.7683461916        2.5897009829       -1.8853479755
 H         -2.2115445014        3.3798051385       -2.1613457983
 H         -2.5145212625        1.7856074470       -2.8486689990
 H         -2.0046003994        2.2929936378        1.3891883218
 H         -2.3364923946        3.6600050710        0.3327678653
 H         -3.6179756549        2.4925413466        0.6807742950
 H         -2.2844440604       -4.3778457958        0.1452133895
 H         -4.0452492027       -4.2111931144        0.1552157741
 H         -3.1673697430       -4.1280856177       -1.3663503650
 H         -0.9152811820       -1.4260008966        2.6091372919
  53
        -68.44648289
 C          6.8553328660       -0.7256151305        0.8841772755
 C          6.6953358809        0.0173988869       -0.4369782788
 C          5.7934022136        1.2485094955       -0.3321792833
 C          4.3501247831        0.9583874560        0.0803367212
 C          3.5972571763        0.0757851035       -0.9222417896
 C          2.1564047143       -0.0545603314       -0.5220473392
 C          1.7512793792       -1.0633975245        0.3399891155
 C          0.4257991945       -1.1775886432        0.7322999810
 C         -0.5446820316       -0.2917734265        0.2561074928
 C         -2.0075648448       -0.4135364344        0.6108606770
 C         -2.5715860898       -1.8034690278        0.4774351465
 C         -3.8385938433       -2.0431964382        0.1719346367
 C         -4.8336151103       -0.9509980965       -0.1174120338
 C         -4.2884735377        0.4441645063        0.1889059921
 C         -2.8392958615        0.5143352317       -0.2803588477
 C         -2.2068083103        1.9103545874       -0.3573114970
 O         -0.9240977248        1.7685235062       -0.9782132730
 C         -0.1122898720        0.7700233992       -0.5414679134
 C          1.2190717532        0.8696152381       -0.9402968867
 C         -2.9865822207        2.8401220793       -1.2895836650
 C         -2.0340802860        2.5756132795        1.0118403489
 C         -4.3829788827       -3.4362896835        0.0603626628
 O          0.0570123020       -2.1576701154        1.6123299261
 H          7.5830289231       -1.5276293528        0.7804849359
 H          7.2005487687       -0.0481390113        1.6624235036
 H          5.9134901421       -1.1641302919        1.2032490046
 H          7.6802963558        0.3472540141       -0.7770033859
 H          6.3037641892       -0.6643187352       -1.1938634674
 H          5.7858282058        1.7558693419       -1.3002787696
 H          6.2276178448        1.9376197434        0.3968758300
 H          4.3297347927        0.4848635206        1.0630112437
 H          3.8182274879        1.9087229455        0.1685830410
 H          3.6653294738        0.5257997025       -1.9144156417
 H          4.0561520502       -0.9130426548       -0.9595267248
 H          2.4756319449       -1.7757748328        0.7150967131
 H         -2.1264884716       -0.1189135440        1.6648027923
 H         -1.9002978966       -2.6215003777        0.6783900657
 H         -5.1079400650       -1.0109973658       -1.1766846068
 H         -5.7470488232       -1.1301044585        0.4566686321
 H         -4.3360940863        0.6296587965        1.2636727030
 H         -4.9039411887        1.1920912868       -0.3120521807
 H         -2.7947920948        0.1125733769       -1.3014010061
 H          1.4969734949        1.6936391027       -1.5782345331
 H         -2.3634908281        3.6970546070       -1.5320703300
 H         -3.2379434207        2.3268516282       -2.2140341658
 H         -3.8959618025        3.1906846044       -0.8117190110
 H         -1.6534269110        3.5855797899        0.8774069186
 H         -2.9867594039        2.6245545503        1.5312528085
 H         -1.3213424785        2.0243458908        1.6199013558
 H         -5.1760565894       -3.5930038841        0.7916331868
 H         -4.8101021198       -3.5986241616       -0.9292605206
 H         -3.6034525909       -4.1739314033        0.2300930865
 H          0.8391521371       -2.6644670215        1.8613192526
  53
        -68.44644489
 C          6.8473386265        1.7904650513        0.5801072449
 C          5.3635953864        1.8670068744        0.9220192714
 C          4.4657830565        1.2235373140       -0.1349637969
 C          4.6371411345       -0.2902150241       -0.2298869418
 C          3.6333050330       -0.9222119909       -1.2032796923
 C          2.2200961677       -0.7751458866       -0.7172466245
 C          1.7655047676       -1.5473774524        0.3407968153
 C          0.4665586017       -1.4149252361        0.8088457276
 C         -0.4263364815       -0.5246744290        0.2051379110
 C         -1.8755555423       -0.4258793093        0.6229079483
 C         -2.6075557219       -1.7472477402        0.6366775337
 C         -3.9226964199       -1.8298119763        0.4866244522
 C         -4.7984267283       -0.6287750568        0.2516929022
 C         -4.0386788255        0.7016218235        0.2620816703
 C         -2.6509709809        0.4889765893       -0.3333253496
 C         -1.8381264436        1.7460714910       -0.6726501794
 O         -0.6592755848        1.3172769219       -1.3615694631
 C          0.0679211220        0.3147034740       -0.7947259958
 C          1.3710842065        0.1711995054       -1.2624345441
 C         -2.5704793025        2.6415900721       -1.6735378707
 C         -1.4399541696        2.5634017962        0.5606201342
 C         -4.6451630022       -3.1429697627        0.4993132443
 O          0.1218756992       -2.1778117453        1.8882261860
 H          7.4339181456        2.3327635481        1.3185799441
 H          7.1924544496        0.7600387936        0.5657875762
 H          7.0353848903        2.2309533757       -0.3968367073
 H          5.1879674329        1.3824046894        1.8852442762
 H          5.0806724604        2.9174985651        1.0255440424
 H          4.6767414008        1.6732174753       -1.1082833589
 H          3.4237193736        1.4395801647        0.1113867846
 H          5.6468728647       -0.5282457640       -0.5685671207
 H          4.4991870898       -0.7297897271        0.7600746853
 H          3.7372609863       -0.4509030499       -2.1821507730
 H          3.8683550230       -1.9839266745       -1.3080865431
 H          2.4094934983       -2.2639614590        0.8252736156
 H         -1.9262514170        0.0064979336        1.6371457623
 H         -2.0282946102       -2.6538214902        0.7374337280
 H         -5.2813229360       -0.7624929153       -0.7223333970
 H         -5.5975582362       -0.6085250261        0.9980050711
 H         -3.9453192984        1.0676919832        1.2865991020
 H         -4.6022192596        1.4408585893       -0.3073936297
 H         -2.7662268444       -0.0512534600       -1.2820501127
 H          1.6997951456        0.8253320919       -2.0544048288
 H         -3.3757364359        3.1840514841       -1.1880694297
 H         -1.8636150625        3.3558717237       -2.0872941336
 H         -2.9736681469        2.0475412338       -2.4894424152
 H         -0.7622943797        1.9988035806        1.1963007040
 H         -0.9270983909        3.4680711554        0.2425927039
 H         -2.3211431302        2.8414334727        1.1317895714
 H         -5.3809670649       -3.1620571387        1.3031723902
 H         -5.1789684048       -3.2905002166       -0.4391094247
 H         -3.9538900956       -3.9696019070        0.6400970674
 H         -0.7674762503       -1.9482795003        2.1809940701
  53
        -68.44643837
 C          6.5394769873       -1.1654828700       -1.7646376618
 C          5.0512519403       -1.4555188133       -1.6050978226
 C          4.4441959279       -0.8270378778       -0.3505935333
 C          4.4036183856        0.6980028479       -0.3998071408
 C          3.6869834282        1.2924411096        0.8198719595
 C          2.2329450740        0.9188953567        0.8382321503
 C          1.7583768641       -0.0655000334        1.6894967246
 C          0.4220623864       -0.4415119401        1.6636330290
 C         -0.4692093684        0.1385880173        0.7576876996
 C         -1.9074799132       -0.3106700672        0.6391827603
 C         -2.0774964700       -1.7972241765        0.4312459827
 C         -3.1443332287       -2.3111114806       -0.1660387025
 C         -4.2587862701       -1.4669125049       -0.7228190183
 C         -4.0758477863        0.0351532014       -0.4826149149
 C         -2.5907148954        0.3745318836       -0.5508549291
 C         -2.2179462291        1.8621205100       -0.6172741882
 O         -0.8063424212        1.9369484838       -0.8408462125
 C         -0.0034742082        1.1962425660       -0.0270056990
 C          1.3379578223        1.5618726790        0.0000250445
 C         -2.8420920748        2.5491891602       -1.8331921758
 C         -2.5754657191        2.6354587095        0.6560931871
 C         -3.3090759920       -3.7865694080       -0.3720467385
 O          0.0322658191       -1.3819713265        2.5742437023
 H          7.0856999141       -1.4841320497       -0.8792258610
 H          6.9389037458       -1.7001204982       -2.6238019158
 H          6.7170708406       -0.1039451709       -1.9155808847
 H          4.5142638462       -1.0922341637       -2.4843773366
 H          4.9078294872       -2.5377141297       -1.5555879843
 H          5.0167227450       -1.1454873992        0.5239734564
 H          3.4234529751       -1.1971399828       -0.2315952769
 H          5.4196398235        1.0948856578       -0.4339914976
 H          3.8845319173        1.0149551310       -1.3068280342
 H          4.1722429020        0.9359953396        1.7301322744
 H          3.7804143578        2.3803155588        0.7854984659
 H          2.4093840617       -0.5550586661        2.3961308756
 H         -2.4459939493       -0.0280997158        1.5602623952
 H         -1.2820990157       -2.4544338005        0.7522959211
 H         -4.3063288962       -1.6583149213       -1.8002799792
 H         -5.2123490766       -1.7989510857       -0.3027525760
 H         -4.4680861822        0.3043078457        0.5002646178
 H         -4.6411629753        0.5896280501       -1.2318457529
 H         -2.1807948331       -0.0723355792       -1.4660130350
 H          1.6566404973        2.3702638057       -0.6389059852
 H         -2.7085851678        1.9398508751       -2.7231730987
 H         -3.9005072691        2.7292928621       -1.6729425914
 H         -2.3427865547        3.5012343698       -1.9923956046
 H         -2.3466427917        3.6889714204        0.5135647332
 H         -3.6340157539        2.5326570934        0.8773603138
 H         -1.9941190269        2.2770689561        1.5020510850
 H         -2.4577090022       -4.3351555736        0.0219223883
 H         -4.2124969140       -4.1393636392        0.1252723219
 H         -3.4083734261       -4.0118002498       -1.4335402323
 H         -0.9229410114       -1.5045965406        2.5302874469
  53
        -68.44642966
 C          5.2771598206        3.2240892521        1.1168483990
 C          5.4711172315        1.7187948593        0.9817645610
 C          4.5182580419        1.1142276664       -0.0463386775
 C          4.7056899210       -0.3937600916       -0.1832583880
 C          3.7422306459       -1.0081283554       -1.2068554674
 C          2.3127651656       -0.8740074458       -0.7663826391
 C          1.8157561868       -1.6936460433        0.2357280840
 C          0.5024400760       -1.5703287894        0.6648091592
 C         -0.3528001344       -0.6265385149        0.0887459273
 C         -1.8019062898       -0.5254713478        0.4918371501
 C         -2.5538420338       -1.8305754236        0.4414848663
 C         -3.8652482726       -1.7952723711        0.6483357922
 C         -4.4727545805       -0.4652007983        0.9928576011
 C         -3.9824022214        0.6571501418        0.0518173031
 C         -2.5632380784        0.4054013834       -0.4697678359
 C         -1.7335132451        1.6647008173       -0.7697607608
 O         -0.5397622540        1.2504906891       -1.4391642783
 C          0.1729519447        0.2366453773       -0.8727986744
 C          1.4888004911        0.0983077894       -1.3048181218
 C         -2.4539682690        2.5728325773       -1.7669906508
 C         -1.3490447140        2.4564615985        0.4849247307
 C         -4.7635828749       -2.9860805710        0.5734288051
 O          0.0972587020       -2.3950227984        1.6731985580
 H          5.4606652389        3.7188192789        0.1654108080
 H          4.2592491118        3.4494974129        1.4276471334
 H          5.9615121669        3.6357758321        1.8553275450
 H          6.5024912586        1.5109610873        0.6862430053
 H          5.3033564236        1.2433336317        1.9509657678
 H          4.6864699034        1.5890849375       -1.0160269877
 H          3.4877415094        1.3211449797        0.2497142358
 H          5.7330265131       -0.6040676829       -0.4907924061
 H          4.5435133183       -0.8664885447        0.7875893253
 H          3.8792341678       -0.5143911966       -2.1704375851
 H          3.9855127742       -2.0662585919       -1.3263837124
 H          2.4356519099       -2.4436741564        0.7005910648
 H         -1.8781053543       -0.1066196750        1.5084306467
 H         -2.0423339056       -2.7314722209        0.1376632422
 H         -5.5612855668       -0.5191095404        0.9645311241
 H         -4.1861141772       -0.2113265848        2.0189100535
 H         -4.0282812129        1.6031642642        0.5926705795
 H         -4.6627949956        0.7329089518       -0.7968495413
 H         -2.6339850081       -0.1317292693       -1.4242804602
 H          1.8470953270        0.7747029151       -2.0644822938
 H         -2.7675525889        1.9997219222       -2.6354989458
 H         -3.3233949319        3.0326363248       -1.3077889854
 H         -1.7721675848        3.3511967582       -2.0990144343
 H         -0.8353064178        3.3680554091        0.1889945293
 H         -2.2285797208        2.7244413766        1.0630679538
 H         -0.6738743244        1.8775361644        1.1104569882
 H         -5.5115531567       -2.8429726670       -0.2062603303
 H         -4.1975349169       -3.8876001711        0.3532543588
 H         -5.2913008551       -3.1230205270        1.5173416069
 H         -0.8361270979       -2.2400587664        1.8652224983
  53
        -68.44641072
 C          5.1460746059       -1.0991412163       -2.9676202293
 C          5.3272512214       -0.9846577017       -1.4590085630
 C          4.4283187794        0.0943570388       -0.8606357723
 C          4.6073623388        0.2169680657        0.6496577758
 C          3.6919204049        1.2878279975        1.2570070348
 C          2.2450064070        0.9130721620        1.1134577748
 C          1.6883790030       -0.0384200746        1.9548378676
 C          0.3675031988       -0.4331500719        1.8013399755
 C         -0.4280808641        0.1091752935        0.7879329779
 C         -1.8453364191       -0.3538139641        0.5650888014
 C         -1.9992936875       -1.8473550234        0.4354197590
 C         -3.1954970155       -2.3175568674        0.1010077722
 C         -4.3113094045       -1.3219736703       -0.0425296163
 C         -3.8904069081       -0.0972436761       -0.8841663746
 C         -2.3954523217        0.2160694817       -0.7553150378
 C         -2.0131336764        1.6982371436       -0.9022471433
 O         -0.5868687593        1.7754776094       -0.9699601393
 C          0.1193288004        1.1130694120       -0.0112111074
 C          1.4491175513        1.4944127659        0.1425033209
 C         -2.5056493192        2.2634762096       -2.2350010904
 C         -2.5028331594        2.5729571080        0.2569322443
 C         -3.5012692656       -3.7617211981       -0.1262338519
 O         -0.1146067520       -1.3513585258        2.6876561451
 H          4.1141353472       -1.3450087092       -3.2084000144
 H          5.3945147854       -0.1580546365       -3.4537807646
 H          5.7891542002       -1.8761461172       -3.3749214041
 H          5.0959613911       -1.9448569575       -0.9920365498
 H          6.3713510741       -0.7518346396       -1.2355740412
 H          3.3848699824       -0.1416498974       -1.0795194928
 H          4.6568413181        1.0541191257       -1.3304453557
 H          4.3892639552       -0.7451042480        1.1179441100
 H          5.6471778950        0.4696219973        0.8715203986
 H          3.9344767246        1.3976509906        2.3163517594
 H          3.8782454551        2.2424243070        0.7619692311
 H          2.2657439890       -0.4866990194        2.7477103442
 H         -2.4870984437        0.0028300264        1.3870697632
 H         -1.1300285617       -2.4833502098        0.5091937600
 H         -5.1904629407       -1.7888121053       -0.4872498492
 H         -4.5961987073       -0.9778333219        0.9573765494
 H         -4.4884389921        0.7582979578       -0.5681124326
 H         -4.1226780704       -0.2886102013       -1.9322084063
 H         -1.8608814950       -0.3045831283       -1.5601822106
 H          1.8357607343        2.2608663253       -0.5102090582
 H         -3.5873098861        2.3537454835       -2.2367282181
 H         -2.0654732152        3.2446215715       -2.3916834013
 H         -2.1980757014        1.6163239862       -3.0521289715
 H         -3.5763644875        2.4781508593        0.3918814184
 H         -2.0011889974        2.2982359271        1.1816937694
 H         -2.2687331342        3.6132312522        0.0437669598
 H         -3.8449285738       -3.9158212215       -1.1489751501
 H         -2.6215395936       -4.3772987448        0.0432596722
 H         -4.2960149506       -4.0909179378        0.5432206941
 H         -1.0308784937       -1.5639069476        2.4701095190
  53
        -68.44640511
 C          5.5302580683       -2.4312313947       -1.6060365337
 C          5.3836622526       -0.9152802279       -1.5585049278
 C          4.5997930224       -0.4597892964       -0.3303048231
 C          4.4567099550        1.0581218296       -0.2726287841
 C          3.6626700013        1.5202546732        0.9560360587
 C          2.2365393664        1.0544536355        0.8922707065
 C          1.8098854394       -0.0394254110        1.6279317597
 C          0.5018563569       -0.4937587885        1.5267148695
 C         -0.4093261052        0.1325378806        0.6728553864
 C         -1.8157090191       -0.3836825304        0.5047189678
 C         -1.9054512949       -1.8504218636        0.1704079290
 C         -3.1024328646       -2.3432821592       -0.1265040628
 C         -4.2756164049       -1.4103125548       -0.0263119720
 C         -3.9977786293       -0.0537826088       -0.7105598557
 C         -2.5149527200        0.3319207626       -0.6656364423
 C         -2.2228091076        1.8410570303       -0.6254244467
 O         -0.8148805028        2.0166838207       -0.8034481161
 C          0.0104196214        1.2724398470       -0.0148447493
 C          1.3257926625        1.7130668860        0.0834135647
 C         -2.8663735798        2.5575635438       -1.8131720588
 C         -2.6442487218        2.5097210988        0.6875767551
 C         -3.3549840973       -3.7568426449       -0.5373665724
 O          0.1525185543       -1.5585142950        2.3047209724
 H          6.0594465267       -2.7907407150       -0.7260598386
 H          4.5522125556       -2.9066844913       -1.6334424830
 H          6.0863410567       -2.7368340396       -2.4895470213
 H          6.3748967910       -0.4551938069       -1.5469254123
 H          4.8709246759       -0.5718918360       -2.4600154793
 H          5.1095149061       -0.8088449506        0.5710450211
 H          3.6064901859       -0.9129403913       -0.3462252681
 H          5.4496527445        1.5139145985       -0.2466351376
 H          3.9511385292        1.4076080682       -1.1753070467
 H          4.1389362911        1.1323274982        1.8581022240
 H          3.6855408098        2.6114442466        0.9984663152
 H          2.4784934485       -0.5588131471        2.2956452707
 H         -2.3953052998       -0.1891174216        1.4217524494
 H         -1.0021164813       -2.4339389930        0.0751051173
 H         -5.1677202316       -1.8640838637       -0.4585931615
 H         -4.4828998658       -1.2310100704        1.0340097416
 H         -4.6054819368        0.7083484425       -0.2213151481
 H         -4.3178191816       -0.1078779174       -1.7515193107
 H         -2.0328985393       -0.0344460766       -1.5810547032
 H          1.6120872592        2.5886002440       -0.4775967126
 H         -2.6053120769        2.0536610483       -2.7400080832
 H         -3.9465420460        2.5787465126       -1.7085274270
 H         -2.4925029678        3.5768195289       -1.8610831163
 H         -2.4833680338        3.5823783489        0.6104366478
 H         -3.6942888839        2.3294235314        0.8986692286
 H         -2.0449002960        2.1386367689        1.5154569512
 H         -2.4334901244       -4.3334203253       -0.5356930568
 H         -4.0663897689       -4.2275361652        0.1412572631
 H         -3.7842262165       -3.7853069896       -1.5387689946
 H         -0.7671377032       -1.7981531785        2.1348003197
  53
        -68.44638642
 C          5.4404918925       -2.3494446275       -1.7678355450
 C          5.3392074160       -0.8361189403       -1.6218528343
 C          4.5669716699       -0.4372989043       -0.3668430381
 C          4.4600079118        1.0775349613       -0.2190474124
 C          3.6699426683        1.4831361659        1.0314071865
 C          2.2414314398        1.0269260174        0.9488436241
 C          1.7923598800       -0.0509058460        1.6943692998
 C          0.4814731491       -0.4940521648        1.5798851678
 C         -0.4087104121        0.1245714818        0.6987499030
 C         -1.8166851434       -0.3817437934        0.5143034309
 C         -1.9154878764       -1.8547833668        0.2119276523
 C         -3.1120414801       -2.3424867529       -0.0950869861
 C         -4.2763171966       -1.3948490331       -0.0396457530
 C         -3.9703179976       -0.0602650722       -0.7540768982
 C         -2.4852392646        0.3139560609       -0.6856841823
 C         -2.1817451495        1.8213678724       -0.6715664996
 O         -0.7689978583        1.9834039176       -0.8212418563
 C          0.0338248545        1.2480555913       -0.0016983644
 C          1.3503336573        1.6804768724        0.1141926671
 C         -2.7923409566        2.5160928815       -1.8893572706
 C         -2.6273617061        2.5220550862        0.6164984094
 C         -3.3724290781       -3.7629937800       -0.4759813240
 O          0.1087421155       -1.5402806788        2.3718701353
 H          5.9896620792       -2.6133032850       -2.6689570401
 H          5.9560278576       -2.7813990331       -0.9127416487
 H          4.4486316845       -2.7922499451       -1.8272852432
 H          6.3436298194       -0.4074444938       -1.5809067296
 H          4.8383563656       -0.4201159962       -2.4991707004
 H          5.0674016507       -0.8521994970        0.5114145617
 H          3.5627040069       -0.8640807982       -0.4085055248
 H          5.4629245786        1.5079046599       -0.1622257351
 H          3.9676720257        1.4910087282       -1.1016055276
 H          4.1451532591        1.0505997415        1.9134783887
 H          3.6978068032        2.5710985693        1.1266277044
 H          2.4450727296       -0.5664166356        2.3806038218
 H         -2.4120852651       -0.1604735539        1.4150277713
 H         -1.0168637018       -2.4496344321        0.1471245833
 H         -5.1658110852       -1.8497471666       -0.4761184004
 H         -4.5002858957       -1.1853179688        1.0117106733
 H         -4.5821730616        0.7200681427       -0.3000469396
 H         -4.2670465569       -0.1404488980       -1.8002408997
 H         -1.9869627961       -0.0759630408       -1.5824970577
 H          1.6531996413        2.5450787983       -0.4549139275
 H         -3.8744172127        2.5476194107       -1.8103221441
 H         -2.4093379853        3.5311875410       -1.9512038319
 H         -2.5140474916        1.9897107139       -2.7985320261
 H         -2.4566110629        3.5915427965        0.5193492422
 H         -3.6831390674        2.3539820331        0.8081506247
 H         -2.0492575790        2.1651077997        1.4654389510
 H         -4.1010839331       -4.2093191437        0.2008253426
 H         -3.7838042301       -3.8117082870       -1.4840635298
 H         -2.4574687424       -4.3489562900       -0.4432106629
 H         -0.8107782718       -1.7734006180        2.1922417630
  53
        -68.44638171
 C          6.9092778979        1.5748604444        0.7672338135
 C          5.4626575102        1.4881780250        1.2405871162
 C          4.6954538184        0.3158045305        0.6287458881
 C          4.4715229398        0.4615705744       -0.8741013166
 C          3.5920936782       -0.6635209723       -1.4356584616
 C          2.1964625413       -0.6068873318       -0.8841508321
 C          1.7869438549       -1.4768566660        0.1130585567
 C          0.4979411883       -1.4124336027        0.6249883683
 C         -0.4266939353       -0.4910738772        0.1271799667
 C         -1.8654457033       -0.4593843720        0.5894458082
 C         -2.5728294945       -1.7914137742        0.5030017822
 C         -3.8897672557       -1.8870697806        0.3788666575
 C         -4.7931339167       -0.6880181948        0.2750450640
 C         -4.0577008426        0.6513038123        0.3866473680
 C         -2.6831008883        0.5211583250       -0.2605788419
 C         -1.9024253245        1.8197078846       -0.5062146015
 O         -0.7366085172        1.4778575877       -1.2625728096
 C          0.0246343190        0.4441291050       -0.8071266327
 C          1.3145840300        0.3671711452       -1.3207108084
 C         -2.6783247657        2.7870311092       -1.4019326875
 C         -1.4838754107        2.5304693982        0.7849825164
 C         -4.5877405755       -3.2105151886        0.2910554876
 O          0.1986307049       -2.2739588472        1.6417837085
 H          7.4290388752        0.6388739089        0.9608059732
 H          6.9602259634        1.7833401059       -0.2981420168
 H          7.4319827882        2.3713219374        1.2924841945
 H          5.4549485650        1.3786516990        2.3278492018
 H          4.9459308482        2.4202354798        1.0000461749
 H          3.7221590534        0.2399296875        1.1186729048
 H          5.2389950439       -0.6114556256        0.8254841048
 H          3.9925570510        1.4222064321       -1.0745494761
 H          5.4305136673        0.4459097457       -1.3947340881
 H          3.5525249184       -0.5669507259       -2.5231129902
 H          4.0449933111       -1.6267021281       -1.1943175836
 H          2.4571026416       -2.2183118917        0.5180391126
 H         -1.8960455405       -0.1203534656        1.6393567729
 H         -1.9746853787       -2.6912936294        0.5074470359
 H         -5.2992309504       -0.7436305672       -0.6947895851
 H         -5.5723522666       -0.7512135548        1.0397704069
 H         -3.9432920891        0.9255087022        1.4374100102
 H         -4.6497026766        1.4270853827       -0.0992073623
 H         -2.8145100007        0.0656468763       -1.2507686396
 H          1.6094044441        1.0927918260       -2.0622070303
 H         -1.9958873290        3.5493148830       -1.7683843419
 H         -3.0946091649        2.2609306520       -2.2569838135
 H         -3.4783811003        3.2678326561       -0.8477273404
 H         -0.9979935689        3.4711860527        0.5369059061
 H         -2.3530647308        2.7363263162        1.4032283111
 H         -0.7770472904        1.9254108554        1.3474281134
 H         -5.1431093011       -3.2841347489       -0.6435572782
 H         -3.8782222897       -4.0322084624        0.3397904274
 H         -5.3018225058       -3.3165560257        1.1076319513
 H         -0.6864266290       -2.0904160698        1.9770085583
  53
        -68.44636628
 C          5.8698359268        0.5689307032        2.6909027522
 C          5.6055278856        1.1745135485        1.3178827536
 C          4.7431019174        0.2600241043        0.4516440046
 C          4.4801723315        0.8580330926       -0.9271782031
 C          3.6067610201       -0.0532105730       -1.7993208356
 C          2.2242217921       -0.2000359770       -1.2314073334
 C          1.8646268103       -1.3299226821       -0.5145561090
 C          0.5890712599       -1.4529185910        0.0195373765
 C         -0.3636442258       -0.4477517245       -0.1638542584
 C         -1.7751613756       -0.5963185980        0.3443050372
 C         -2.4540845137       -1.8756705176       -0.0723983651
 C         -3.7423375493       -2.0138614133        0.2192993720
 C         -4.3914843974       -0.9138938178        1.0102137960
 C         -4.0491862687        0.4834298530        0.4481841984
 C         -2.6687596099        0.5250097811       -0.2168364171
 C         -1.9408283140        1.8777511966       -0.1502373041
 O         -0.7885418969        1.7945066104       -0.9928541131
 C          0.0270285061        0.7150785683       -0.8299207661
 C          1.3035057852        0.8248290512       -1.3708113233
 C         -2.7957136716        2.9922238279       -0.7547254830
 C         -1.4940137841        2.2618713016        1.2645617595
 C         -4.5753262699       -3.1891840636       -0.1749317422
 O          0.3223021502       -2.5827790180        0.7360280752
 H          4.9329234894        0.3913576292        3.2144895079
 H          6.3916009278       -0.3808087452        2.5944396588
 H          6.4806789028        1.2361433389        3.2949450682
 H          5.1025137896        2.1370918029        1.4365388248
 H          6.5573432360        1.3594297102        0.8137773644
 H          3.7895320915        0.0806781299        0.9524299286
 H          5.2443524658       -0.7041665115        0.3374104714
 H          3.9841601452        1.8241651148       -0.8128394282
 H          5.4329597544        1.0287172206       -1.4345037557
 H          3.5411518231        0.3778407538       -2.8007913501
 H          4.0793656428       -1.0336843098       -1.8788109853
 H          2.5626406171       -2.1362582120       -0.3555987927
 H         -1.7854445353       -0.5263574212        1.4441536960
 H         -1.9211658221       -2.5904400820       -0.6812240157
 H         -5.4735604729       -1.0443243225        1.0367725730
 H         -4.0310581518       -0.9735078033        2.0426469559
 H         -4.1013478148        1.2041547544        1.2651021504
 H         -4.8040875529        0.7667463087       -0.2858186670
 H         -2.7918620765        0.3121795442       -1.2864744649
 H          1.5560762400        1.7311474099       -1.8981164768
 H         -3.6461749718        3.2116324611       -0.1169642117
 H         -2.1904921882        3.8882514393       -0.8632789710
 H         -3.1512038003        2.6985348860       -1.7388103496
 H         -1.0624798105        3.2597923413        1.2448944016
 H         -2.3332542396        2.2590229979        1.9539921420
 H         -0.7335560732        1.5735620740        1.6254019158
 H         -3.9807311284       -3.9263108352       -0.7085283244
 H         -5.0101767474       -3.6589022098        0.7074095941
 H         -5.3952739794       -2.8688702915       -0.8175557729
 H         -0.5970869938       -2.5720745843        1.0304875210
  53
        -68.44630718
 C          7.9892626891       -0.4168593359       -0.6480784849
 C          6.5314850736       -0.5264060245       -0.2172536001
 C          5.5822161919       -0.0960042856       -1.3336238651
 C          4.1067580011       -0.2984381916       -0.9908194922
 C          3.6103970579        0.6289917948        0.1249989224
 C          2.1363667638        0.4396503509        0.3340727281
 C          1.6695806658       -0.5147878941        1.2236139242
 C          0.3081046461       -0.7376198991        1.3737934800
 C         -0.6232345275       -0.0306209325        0.6083458471
 C         -2.1065082043       -0.3130131546        0.6776621077
 C         -2.4713228348       -1.7640690670        0.4693008893
 C         -3.6589220681       -2.1370970751        0.0116727523
 C         -4.7329998214       -1.1572345270       -0.3766764550
 C         -4.3499325953        0.3066893576       -0.1370280070
 C         -2.8576683368        0.4815139261       -0.3979617382
 C         -2.3297290536        1.9199955543       -0.4883965000
 O         -0.9605002996        1.8452251724       -0.8981110634
 C         -0.1476999897        0.9930211750       -0.2138004128
 C          1.2191787191        1.2047519286       -0.3643846853
 C         -3.0257514984        2.7108091101       -1.5975563269
 C         -2.4261173555        2.6866640851        0.8345697795
 C         -4.0167061440       -3.5779130027       -0.1948104058
 O         -0.0636353026       -1.6571274610        2.3128886977
 H          8.2301073865        0.6088068828       -0.9197836940
 H          8.6521493538       -0.7224012141        0.1583192799
 H          8.1823916565       -1.0521112348       -1.5100989890
 H          6.3126356158       -1.5597744781        0.0617535154
 H          6.3736247316        0.0977504302        0.6636760154
 H          5.8131618472       -0.6774503524       -2.2300649540
 H          5.7576494973        0.9561954353       -1.5704696500
 H          3.5060714661       -0.1122802127       -1.8841872748
 H          3.9395671267       -1.3355587531       -0.6922151598
 H          4.1419097261        0.4063943902        1.0506176283
 H          3.8162276146        1.6642094278       -0.1537571115
 H          2.3494658324       -1.0963978040        1.8255831157
 H         -2.4830778809       -0.0020017178        1.6674310712
 H         -1.7210263366       -2.5154134790        0.6695674921
 H         -4.9422254759       -1.3072596595       -1.4413546204
 H         -5.6551965089       -1.3950101662        0.1609303290
 H         -4.5764662652        0.5855974716        0.8940989084
 H         -4.9417259190        0.9443663607       -0.7939234310
 H         -2.6250555529        0.0216761506       -1.3673073175
 H          1.5407046649        1.9909150119       -1.0290461732
 H         -4.0263686334        3.0019006717       -1.2935857103
 H         -2.4462598705        3.6062267062       -1.8060198612
 H         -3.0807851249        2.1193723559       -2.5076913118
 H         -1.7828122602        2.2392561471        1.5882209058
 H         -2.0998636639        3.7125141437        0.6806437630
 H         -3.4510261300        2.6941551045        1.1945002871
 H         -4.8791171418       -3.8446197831        0.4159757064
 H         -4.2831279098       -3.7564961722       -1.2361864359
 H         -3.1880943369       -4.2296137253        0.0691777427
 H         -1.0239327927       -1.6695846851        2.3969867902
  53
        -68.44630529
 C          8.0892602483       -0.0174970812       -0.3304636600
 C          6.6141084433       -0.2689405869       -0.0417789665
 C          5.7772431094        0.9905794522       -0.2559312188
 C          4.3090464749        0.8195695344        0.1322328471
 C          3.5455921761       -0.1386868575       -0.7898810145
 C          2.0964453522       -0.1905816662       -0.4019644105
 C          1.6629875564       -1.0749498069        0.5728638444
 C          0.3284177740       -1.1140142795        0.9508574248
 C         -0.6152499995       -0.2854956608        0.3374437153
 C         -2.0913981608       -0.3721538004        0.6508514273
 C         -2.6695934243       -1.7623841842        0.5282341688
 C         -3.9535961746       -1.9756501914        0.2737143807
 C         -4.9406652080       -0.8626379662        0.0467941948
 C         -4.3381420764        0.5378304769        0.1979852586
 C         -2.8978542398        0.5182787201       -0.3026724554
 C         -2.2101836477        1.8762122988       -0.5007174797
 O         -0.9468952089        1.6260234212       -1.1249833969
 C         -0.1516568224        0.6700867608       -0.5691407063
 C          1.1869895068        0.6981811929       -0.9473551229
 C         -2.9689936950        2.7563293861       -1.4955593422
 C         -1.9906622769        2.6424777920        0.8077596483
 C         -4.5228765166       -3.3567095631        0.1509219935
 O         -0.0006233378       -1.9804865283        1.9541393522
 H          8.6705247541       -0.9240665114       -0.1776082274
 H          8.2259044512        0.3079735533       -1.3596075343
 H          8.4814038445        0.7560922252        0.3265615275
 H          6.2555475577       -1.0666038423       -0.6942902200
 H          6.4991163582       -0.6050667480        0.9913424020
 H          5.8415421132        1.2925752114       -1.3041434238
 H          6.2034966728        1.7978051833        0.3455043605
 H          4.2428770906        0.4538145703        1.1591981353
 H          3.8168796613        1.7944222648        0.0976802128
 H          3.6406330552        0.2070117302       -1.8209734811
 H          3.9764227673       -1.1376366810       -0.7176063241
 H          2.3501293495       -1.7476451746        1.0609359567
 H         -2.2588978124       -0.0191897755        1.6831004821
 H         -2.0002924810       -2.6059595250        0.6174925976
 H         -5.3363883286       -0.9790787364       -0.9679240773
 H         -5.7869802155       -0.9810142712        0.7292428942
 H         -4.3568835905        0.8385821336        1.2475361921
 H         -4.9410122437        1.2503894997       -0.3652056860
 H         -2.8864697275        0.0365922371       -1.2891041784
 H          1.4949314966        1.4363093443       -1.6709363935
 H         -3.2471824767        2.1814105753       -2.3748991698
 H         -3.8607981969        3.1737818313       -1.0386202692
 H         -2.3202568258        3.5696398693       -1.8097662142
 H         -1.5646588206        3.6182257872        0.5864182736
 H         -2.9337961849        2.7808782148        1.3287038857
 H         -1.2963630484        2.1116872759        1.4544672583
 H         -4.9712225227       -3.4952651539       -0.8325257330
 H         -3.7542093461       -4.1117599945        0.2924682315
 H         -5.3050877136       -3.5108336542        0.8941390207
 H         -0.9274837615       -1.8671423464        2.1938991667
  53
        -68.44629789
 C          7.7717496516        0.3685934596       -1.5160749868
 C          6.2649717444        0.4907243224       -1.3231250900
 C          5.6886831697       -0.7327828609       -0.6135850881
 C          4.1648651486       -0.7101029429       -0.5004451356
 C          3.6423372488        0.3840021832        0.4384013507
 C          2.1508621940        0.2808102452        0.5696555919
 C          1.5834546667       -0.5196167438        1.5481967912
 C          0.2061174313       -0.6667864663        1.6323743438
 C         -0.6398699505       -0.0403613069        0.7131282582
 C         -2.1362994798       -0.2533711348        0.7174361171
 C         -2.5555201195       -1.7043401739        0.6866776594
 C         -3.7279909247       -2.0925958168        0.2034125714
 C         -4.7276529046       -1.1369409940       -0.3899564184
 C         -4.2913616061        0.3304595393       -0.3290011261
 C         -2.7789574621        0.4094768888       -0.5073557374
 C         -2.1782406424        1.7994053952       -0.7590409557
 O         -0.7910203118        1.6147396949       -1.0587671197
 C         -0.0647519848        0.8376659816       -0.2078747018
 C          1.3174800238        0.9737690675       -0.2904622011
 C         -2.7643638189        2.4520733999       -2.0122711673
 C         -2.3210461183        2.7481414208        0.4354743275
 C         -4.1396338698       -3.5334900385        0.1725630212
 O         -0.2680734624       -1.4292434966        2.6616373608
 H          8.1671782816        1.2483840892       -2.0186860194
 H          8.2719467314        0.2688923057       -0.5550199340
 H          8.0109268350       -0.5062453665       -2.1171623194
 H          6.0530309591        1.3894059106       -0.7416966142
 H          5.7825501251        0.6012280692       -2.2970732143
 H          6.1244965219       -0.8089114427        0.3855409027
 H          5.9820310874       -1.6273108955       -1.1692051603
 H          3.7265112914       -0.5680705343       -1.4906790565
 H          3.8226822169       -1.6772066899       -0.1245991043
 H          4.1105545824        0.2667827972        1.4176320119
 H          3.9070465623        1.3646467745        0.0422543087
 H          2.1950351082       -1.0357502504        2.2710201265
 H         -2.5598892410        0.2082592402        1.6261013600
 H         -1.8558114603       -2.4479649544        1.0402561979
 H         -4.8764151693       -1.4275916853       -1.4355296886
 H         -5.6920819087       -1.2609957854        0.1105123351
 H         -4.5693127509        0.7606468506        0.6353877506
 H         -4.8092172776        0.8911854525       -1.1073120287
 H         -2.5074846964       -0.1911756768       -1.3852678334
 H          1.7178593900        1.6452653145       -1.0334050558
 H         -2.7906831978        1.7405949926       -2.8334177608
 H         -3.7668843044        2.8219263274       -1.8211354179
 H         -2.1304407813        3.2858098679       -2.3022192806
 H         -1.9375175336        3.7288189921        0.1639810038
 H         -3.3650272650        2.8454615542        0.7195501466
 H         -1.7482461397        2.3873188625        1.2862179104
 H         -4.3435189141       -3.8471087629       -0.8508865166
 H         -3.3626864971       -4.1722825634        0.5840058857
 H         -5.0529525241       -3.6784162600        0.7494377125
 H         -1.2313002028       -1.3932920541        2.6792074596
  53
        -68.44616397
 C          6.1983549885       -0.8037472685       -2.6319287509
 C          6.5442438172       -0.8991701664       -1.1504788470
 C          5.8167073265        0.1383151040       -0.2946331832
 C          4.3099346290       -0.0936752422       -0.2160377261
 C          3.6319364115        0.9034621551        0.7306942968
 C          2.1526719773        0.6554874704        0.7788610940
 C          1.6166592119       -0.2274651848        1.7025698875
 C          0.2571245920       -0.5057856561        1.7105745143
 C         -0.5985912540        0.0694617552        0.7672000307
 C         -2.0669420541       -0.2807380836        0.6890620966
 C         -2.3469237352       -1.7623165239        0.5962148002
 C         -3.4537793237       -2.2405527281        0.0439604395
 C         -4.5087322212       -1.3618635428       -0.5722277063
 C         -4.2147942974        0.1366316188       -0.4481088198
 C         -2.7095766251        0.3601480074       -0.5474201444
 C         -2.2302871583        1.8070818909       -0.7288069797
 O         -0.8190507287        1.7611791494       -0.9624013368
 C         -0.0649295661        1.0274583866       -0.0973655000
 C          1.3004316749        1.2950214205       -0.1039630709
 C         -2.8138259652        2.4436214747       -1.9914886929
 C         -2.5189154641        2.6990030119        0.4829911893
 C         -3.7275814267       -3.7113637429       -0.0474613568
 O         -0.1921694562       -1.3432634915        2.6915385815
 H          6.7967511108       -1.5082978243       -3.2055205660
 H          5.1499615299       -1.0325209502       -2.8032875392
 H          6.3984240324        0.1985022516       -3.0051030177
 H          6.3021833983       -1.8998826499       -0.7853483016
 H          7.6210438004       -0.7557266820       -1.0306610434
 H          6.0089332542        1.1355534565       -0.6978905142
 H          6.2290880276        0.1074706225        0.7173283488
 H          3.8622810500        0.0071230475       -1.2056041293
 H          4.1143717706       -1.1085589285        0.1372338945
 H          4.0592788023        0.7975917866        1.7297978147
 H          3.8274666277        1.9185918335        0.3797590793
 H          2.2382958925       -0.7076163212        2.4414040640
 H         -2.5748406078        0.1098325731        1.5877786839
 H         -1.5985783176       -2.4497809362        0.9636362039
 H         -4.5793618346       -1.6305767545       -1.6317597731
 H         -5.4802689480       -1.5902985806       -0.1250933213
 H         -4.5774207047        0.5076101537        0.5127325198
 H         -4.7450847096        0.6725710464       -1.2354739556
 H         -2.3415651048       -0.1837891369       -1.4271418486
 H          1.6709070988        2.0259069965       -0.8051814577
 H         -2.7331258052        1.7602555649       -2.8327253892
 H         -3.8548327428        2.7124092855       -1.8417353951
 H         -2.2480262106        3.3416699520       -2.2247670696
 H         -3.5800125112        2.6908028341        0.7154795549
 H         -1.9571648178        2.3644274305        1.3516273940
 H         -2.2156849831        3.7191104793        0.2594715286
 H         -4.6496621687       -3.9577848544        0.4788410802
 H         -3.8529477541       -4.0091615756       -1.0881295737
 H         -2.9148823940       -4.2892724634        0.3844317762
 H         -1.1542098676       -1.3974997534        2.6608101460
  53
        -68.44615889
 C          6.9289056448        1.0329658567        1.4715467781
 C          6.7372906254        1.3751292013       -0.0014003763
 C          5.8560701318        0.3696156386       -0.7433175528
 C          4.3998119097        0.3905454659       -0.2858312109
 C          3.5276475179       -0.5473519991       -1.1284246628
 C          2.1034632098       -0.5097836376       -0.6559371439
 C          1.6684883347       -1.3706933022        0.3388349473
 C          0.3571245464       -1.3256557192        0.7908381600
 C         -0.5627125594       -0.4320665420        0.2355547849
 C         -2.0216456894       -0.4246598183        0.6307811752
 C         -2.6963952028       -1.7725737212        0.5316183345
 C         -4.0037606207       -1.8983372658        0.3475530657
 C         -4.9260344352       -0.7205499664        0.1835501136
 C         -4.2248540570        0.6357322508        0.3102747613
 C         -2.8190464664        0.5264144339       -0.2703720797
 C         -2.0546206514        1.8377464195       -0.4984096351
 O         -0.8482957837        1.5104298808       -1.1954455675
 C         -0.0884805697        0.4988306802       -0.6911185965
 C          1.2252497283        0.4412261217       -1.1451208204
 C         -2.8079160661        2.7765421563       -1.4424782895
 C         -1.7109069929        2.5742282880        0.8003982861
 C         -4.6691337229       -3.2376452138        0.2468087422
 O          0.0281580555       -2.1773490138        1.8066620681
 H          7.3323112894        0.0282361884        1.5788676759
 H          7.6225654475        1.7316401533        1.9343617921
 H          5.9865508999        1.0853673909        2.0101865577
 H          6.2970904218        2.3712592189       -0.0878873616
 H          7.7163150622        1.4039677431       -0.4863028988
 H          6.2640597470       -0.6348623571       -0.6075496589
 H          5.8906773786        0.5972047844       -1.8119851041
 H          4.3302655922        0.0854236364        0.7590416700
 H          4.0069076858        1.4067799216       -0.3638737133
 H          3.5779703063       -0.2403142568       -2.1749872268
 H          3.9172137730       -1.5641055361       -1.0501638988
 H          2.3359258470       -2.0906446791        0.7849577236
 H         -2.1078948734       -0.0720502961        1.6730700273
 H         -2.0803970755       -2.6590949058        0.5777114431
 H         -5.3842787300       -0.8002719586       -0.8081882276
 H         -5.7391841454       -0.7902050056        0.9115115128
 H         -4.1655204711        0.9262129073        1.3612043615
 H         -4.8094629950        1.3921901997       -0.2135183473
 H         -2.8944040448        0.0547603925       -1.2588302061
 H          1.5397697170        1.1619205026       -1.8832856509
 H         -3.1732848786        2.2304966784       -2.3082325579
 H         -3.6424663369        3.2477260353       -0.9326348772
 H         -2.1249950474        3.5480857260       -1.7880101679
 H         -1.2341608111        3.5219476064        0.5615324185
 H         -2.6117205786        2.7691873554        1.3753782704
 H         -1.0179526732        1.9920252439        1.4027814580
 H         -3.9458689641       -4.0432274678        0.3412914139
 H         -5.4189303622       -3.3476188488        1.0302165429
 H         -5.1777808082       -3.3361620391       -0.7118503578
 H         -0.8751824853       -2.0071131840        2.0971828068
  53
        -68.44613268
 C          7.9457516417       -0.6035512869       -1.5512063720
 C          6.4395203659       -0.8265161478       -1.4913193054
 C          5.7677755826        0.0992314559       -0.4799687675
 C          4.2593801584       -0.1221075326       -0.4130362589
 C          3.5886065110        0.8067492193        0.6053118131
 C          2.1095260548        0.5558840074        0.6504478963
 C          1.5891228658       -0.4172699049        1.4891580050
 C          0.2292704664       -0.6932265058        1.4941226551
 C         -0.6430011770       -0.0069371276        0.6449013369
 C         -2.1132754618       -0.3358288931        0.5924318182
 C         -2.4175193890       -1.7961514937        0.3779037459
 C         -3.6856679693       -2.1400050045        0.1843893928
 C         -4.7160706290       -1.0504693229        0.2743478615
 C         -4.3046088754        0.2037742524       -0.5275940039
 C         -2.7838070666        0.3849088786       -0.5914746558
 C         -2.2919684916        1.8388202387       -0.6843451136
 O         -0.8870527291        1.8071140703       -0.9493630251
 C         -0.1200597889        1.0132836182       -0.1505717112
 C          1.2466416118        1.2744248037       -0.1582654508
 C         -2.9079945451        2.5516839859       -1.8887510249
 C         -2.5377548107        2.6494383002        0.5928246573
 C         -4.1488380268       -3.5308833928       -0.1014721650
 O         -0.2094792758       -1.6423694292        2.3701190941
 H          8.1684368980        0.4214512417       -1.8401249922
 H          8.3977631087       -0.7898040924       -0.5792687588
 H          8.4044220506       -1.2717377904       -2.2765062507
 H          6.0072332679       -0.6543760401       -2.4796937813
 H          6.2367792911       -1.8648309049       -1.2189326997
 H          5.9693860929        1.1378303199       -0.7535199095
 H          6.2024222305       -0.0717521499        0.5079641234
 H          3.8190055448        0.0520598008       -1.3972843252
 H          4.0532976935       -1.1589157143       -0.1383895076
 H          4.0247934785        0.6306447162        1.5905397150
 H          3.7815326080        1.8439860088        0.3250259479
 H          2.2251040213       -0.9749726406        2.1579423216
 H         -2.6030915814       -0.0001736411        1.5209378216
 H         -1.6071489599       -2.5027146166        0.2797542571
 H         -5.6861085396       -1.4068026020       -0.0730255104
 H         -4.8299904584       -0.7705704990        1.3269838779
 H         -4.7738615220        1.0743620393       -0.0677983325
 H         -4.6940388225        0.1209642741       -1.5427021138
 H         -2.4130907130       -0.1073029630       -1.4996975699
 H          1.6104799864        2.0597880935       -0.8016196176
 H         -3.9671012226        2.7278241421       -1.7292769251
 H         -2.4059792621        3.5042252221       -2.0356988605
 H         -2.7747310167        1.9529577884       -2.7858775498
 H         -1.9418561113        2.2587272218        1.4141124781
 H         -2.2413042190        3.6819107331        0.4238915461
 H         -3.5870181096        2.6297224407        0.8726538726
 H         -4.6409927350       -3.5699309656       -1.0731072861
 H         -3.3134870594       -4.2264132115       -0.1047260512
 H         -4.8715400912       -3.8516486704        0.6488550843
 H         -1.1616531462       -1.7647265289        2.2674323149
  53
        -68.44612781
 C          8.1274024886        1.2351222306        0.1009624222
 C          6.6506379944        1.2506412857        0.4763716242
 C          5.8275655517        0.3239393842       -0.4152139365
 C          4.3473796119        0.3370084132       -0.0443360106
 C          3.5224108757       -0.5915637731       -0.9426455761
 C          2.0736400105       -0.5519680355       -0.5519221585
 C          1.5831491085       -1.4146922603        0.4154862959
 C          0.2499235272       -1.3643582065        0.7972938574
 C         -0.6285722328       -0.4504793508        0.2091618940
 C         -2.0946234100       -0.4284782973        0.5597793565
 C         -2.7797933339       -1.7666107298        0.4542838617
 C         -4.0979350083       -1.7989043881        0.6133879214
 C         -4.7812907173       -0.5074637806        0.9628888967
 C         -4.3133030715        0.6573790238        0.0631376401
 C         -2.8651709412        0.4866363485       -0.4095663639
 C         -2.0878006602        1.7912326398       -0.6503287105
 O         -0.8516346092        1.4510097936       -1.2835403726
 C         -0.1108411731        0.4600101304       -0.7129976274
 C          1.2242545792        0.3941937946       -1.0985017262
 C         -2.8148964158        2.6873429261       -1.6536365559
 C         -1.7887502083        2.5700865377        0.6352917470
 C         -4.9342094034       -3.0292398927        0.4804340613
 O         -0.1507030090       -2.2296419899        1.7727566846
 H          8.6949291555        1.9010252269        0.7470566290
 H          8.5354296255        0.2313886974        0.1993955377
 H          8.2625217269        1.5587439068       -0.9289527398
 H          6.5375059842        0.9419848609        1.5181626390
 H          6.2648406361        2.2690968748        0.3904081287
 H          6.2133044748       -0.6947866050       -0.3286487050
 H          5.9420418331        0.6322918827       -1.4573241869
 H          4.2274308760        0.0248974203        0.9954448698
 H          3.9572654814        1.3535930269       -0.1303544658
 H          3.6346161059       -0.2761697449       -1.9817448162
 H          3.9037368703       -1.6102084742       -0.8499898773
 H          2.2223680002       -2.1423841178        0.8894605346
 H         -2.2277592797       -0.0369058392        1.5813565353
 H         -2.2143083390       -2.6347865835        0.1508567682
 H         -5.8642534492       -0.6126973335        0.8941021567
 H         -4.5434685136       -0.2627509816        2.0035240709
 H         -4.4259832568        1.5881610363        0.6203518456
 H         -4.9651909368        0.7178886658       -0.8088061533
 H         -2.8742265233       -0.0307495359       -1.3774528338
 H          1.5780316759        1.1031163918       -1.8301726272
 H         -2.1601222003        3.5050345327       -1.9427590021
 H         -3.0685369973        2.1206739619       -2.5456172083
 H         -3.7216966156        3.0941018396       -1.2172767539
 H         -1.1056508934        2.0113604872        1.2704961138
 H         -1.3138497554        3.5142468492        0.3794122670
 H         -2.7005063923        2.7774532680        1.1878764750
 H         -5.6604858171       -2.9039598096       -0.3225034740
 H         -4.3176006077       -3.8972867084        0.2615699203
 H         -5.4873464008       -3.2131088807        1.4015481472
 H         -1.0967621957       -2.1234509885        1.9334874425
  53
        -68.44608678
 C          3.6400861360       -2.4759935219       -1.3436498803
 C          3.5429139330       -0.9567452725       -1.2776522845
 C          4.6887107710       -0.3561787543       -0.4649064341
 C          4.5859996334        1.1635643141       -0.3010229613
 C          3.8026015390        1.5947948281        0.9474131737
 C          2.3761884191        1.1307161464        0.9208389041
 C          1.9544731967        0.0804131836        1.7201701552
 C          0.6504332960       -0.3896151024        1.6426291740
 C         -0.2592203989        0.1661241120        0.7396501047
 C         -1.6530926973       -0.3875000851        0.5546089619
 C         -1.6954312588       -1.8698947916        0.2670469459
 C         -2.6996048299       -2.4349324906       -0.3896681781
 C         -3.8629756040       -1.6539893538       -0.9387312264
 C         -3.8095106059       -0.1566524643       -0.6181575045
 C         -2.3555191343        0.3029401373       -0.6209761702
 C         -2.1020447012        1.8167906375       -0.6001948642
 O         -0.6954619390        2.0144112966       -0.7757215286
 C          0.1426743829        1.2946885774        0.0208325867
 C          1.4526772367        1.7545727398        0.0983735146
 C         -2.7462933502        2.5160136261       -1.7985415856
 C         -2.5548008712        2.4909167664        0.6989940164
 C         -2.7375819903       -3.9057642971       -0.6754668525
 O          0.3098959074       -1.3983594801        2.4978680430
 H          2.8312690070       -2.8854581527       -1.9446439931
 H          4.5862144296       -2.7827481553       -1.7857195346
 H          3.5743915561       -2.9026800934       -0.3451309244
 H          3.5701596885       -0.5466687304       -2.2902551459
 H          2.5888054281       -0.6766317907       -0.8314146520
 H          5.6290411040       -0.6004874357       -0.9662507497
 H          4.7136155467       -0.8250052969        0.5207440109
 H          5.5907805827        1.5858563378       -0.2226995373
 H          4.1153611188        1.5911922237       -1.1880973706
 H          4.3005588636        1.1963745382        1.8333223846
 H          3.8259433600        2.6858216677        1.0071153330
 H          2.6236591639       -0.3958461838        2.4187383663
 H         -2.2380849744       -0.1971208835        1.4709758204
 H         -0.8581643632       -2.4771371693        0.5799484917
 H         -3.8648834634       -1.7918567009       -2.0253803572
 H         -4.7977604131       -2.0824649940       -0.5664474816
 H         -4.2501630666        0.0287449617        0.3635819544
 H         -4.3963881636        0.3894446663       -1.3568835967
 H         -1.8849474534       -0.0611398640       -1.5436455737
 H          1.7262868268        2.6126788337       -0.4946676024
 H         -2.5399411144        1.9672940080       -2.7136974730
 H         -3.8197491720        2.6029546022       -1.6625185118
 H         -2.3212920639        3.5117166357       -1.8934640700
 H         -2.4083123773        3.5653330851        0.6170031526
 H         -3.6071004980        2.2927632468        0.8819571198
 H         -1.9692677116        2.1357047021        1.5434071220
 H         -3.6243180996       -4.3551960606       -0.2286650683
 H         -2.7852716350       -4.0815553852       -1.7498008492
 H         -1.8570452708       -4.4050180713       -0.2800398390
 H         -0.6311095769       -1.5920333747        2.4183181766
  53
        -68.44604795
 C          3.3657169177       -1.3038709078       -2.6088245804
 C          3.5544202483       -1.0645618145       -1.1158086375
 C          4.5887562078        0.0278027415       -0.8499854546
 C          4.7721825227        0.3446371497        0.6373544351
 C          3.8213771705        1.4323986770        1.1573754405
 C          2.3781225371        1.0331739923        1.0650353013
 C          1.8563247355        0.0955817233        1.9440203772
 C          0.5401252672       -0.3264207149        1.8295997166
 C         -0.2840370533        0.1620073060        0.8111332401
 C         -1.6894128771       -0.3497038668        0.5943361131
 C         -1.7882725327       -1.8520828219        0.4717274594
 C         -2.7755114771       -2.4454864843       -0.1856294066
 C         -3.8601649430       -1.6839421963       -0.8985573181
 C         -3.7531504063       -0.1635918712       -0.7424308380
 C         -2.2808641256        0.2309539720       -0.6961487432
 C         -1.9554693593        1.7255044255       -0.8261047148
 O         -0.5326235848        1.8438203527       -0.9240255587
 C          0.2160232213        1.1845226920        0.0029863172
 C          1.5404764893        1.5967900733        0.1189214048
 C         -2.4861952651        2.3094594377       -2.1365852716
 C         -2.4573920292        2.5617535753        0.3554616260
 C         -2.8699644332       -3.9365308352       -0.3056071298
 O          0.0961954113       -1.2164521063        2.7656794901
 H          2.6440491454       -2.0992393139       -2.7806616288
 H          3.0011952006       -0.4006871062       -3.0934186181
 H          4.3072421772       -1.5872066668       -3.0757452992
 H          2.5990053794       -0.7827808037       -0.6734388733
 H          3.8827885674       -1.9910624507       -0.6382680331
 H          4.2954415463        0.9364850294       -1.3795565940
 H          5.5455917089       -0.2983592679       -1.2665844667
 H          4.6318797514       -0.5671356895        1.2206036362
 H          5.7944684488        0.6919332299        0.8060928164
 H          4.0715136466        1.6347752609        2.2019883645
 H          3.9848027694        2.3484531023        0.5867004875
 H          2.4581409722       -0.3223351434        2.7350635823
 H         -2.3205811855       -0.0307967529        1.4417797374
 H         -1.0051571166       -2.4548152034        0.9088950271
 H         -3.7977440346       -1.9442671416       -1.9607076523
 H         -4.8374989898       -2.0275015661       -0.5481463006
 H         -4.2454594336        0.1502653813        0.1803280707
 H         -4.2642101958        0.3194022017       -1.5754372148
 H         -1.7709960987       -0.2553092660       -1.5381171367
 H          1.8895245257        2.3696275347       -0.5473020563
 H         -2.2485932302        1.6517217428       -2.9685284184
 H         -3.5606091280        2.4558966515       -2.0860281024
 H         -2.0076585804        3.2693450909       -2.3118451248
 H         -3.5276821762        2.4293819869        0.4858949814
 H         -1.9453712204        2.2813505713        1.2726743449
 H         -2.2536616075        3.6128489493        0.1650206002
 H         -2.0404742894       -4.4240856421        0.1996024970
 H         -3.8029359374       -4.2927128136        0.1310752570
 H         -2.8629601917       -4.2331742465       -1.3540845412
 H         -0.8472286520       -1.3745570391        2.6461117864
  53
        -68.44604700
 C          3.4977672224       -1.3666175161       -2.6000379143
 C          3.5860154827       -1.0580050692       -1.1102854362
 C          4.6516652351       -0.0029480592       -0.8196557380
 C          4.7789281642        0.3482266497        0.6652627524
 C          3.8120403251        1.4468645623        1.1285973516
 C          2.3711354080        1.0379357614        1.0379410261
 C          1.8571371195        0.0963895238        1.9173214383
 C          0.5412917960       -0.3283710877        1.8102782834
 C         -0.2916164666        0.1631765134        0.8004929190
 C         -1.6984699592       -0.3486084644        0.5937793239
 C         -1.7975292898       -1.8503995984        0.4644974035
 C         -2.7909032620       -2.4409039865       -0.1862086934
 C         -3.8831537402       -1.6762760654       -0.8841408633
 C         -3.7749073885       -0.1566122629       -0.7219332148
 C         -2.3023845533        0.2382184906       -0.6881281125
 C         -1.9783327026        1.7333956185       -0.8140289625
 O         -0.5564484910        1.8521335236       -0.9251656462
 C          0.2007374921        1.1895720213       -0.0074002502
 C          1.5257196761        1.6028703731        0.0994774629
 C         -2.5218226227        2.3236981673       -2.1164030807
 C         -2.4688419277        2.5636575493        0.3765437871
 C         -2.8852928711       -3.9312987995       -0.3140393466
 O          0.1061323123       -1.2234198380        2.7456705486
 H          4.4541701460       -1.7248739730       -2.9765363502
 H          2.7466516328       -2.1302395627       -2.7886628328
 H          3.2242166366       -0.4728243340       -3.1565896326
 H          2.6157577254       -0.7097579209       -0.7566324272
 H          3.8306280567       -1.9726345922       -0.5645756205
 H          4.4262233502        0.9022476153       -1.3874851646
 H          5.6132082837       -0.3815351264       -1.1771552405
 H          4.6194549426       -0.5505935519        1.2634338897
 H          5.7950597450        0.7002104512        0.8602853786
 H          4.0472864206        1.6913461829        2.1678949952
 H          3.9766900514        2.3419855591        0.5259676161
 H          2.4645543827       -0.3220993403        2.7037272969
 H         -2.3220299795       -0.0345090270        1.4486361571
 H         -1.0095218497       -2.4547995333        0.8904178346
 H         -3.8318659366       -1.9315982631       -1.9481057611
 H         -4.8566357301       -2.0218311444       -0.5250682596
 H         -4.2583919535        0.1529075415        0.2069495768
 H         -4.2940734605        0.3300534073       -1.5477464113
 H         -1.8006753289       -0.2438169630       -1.5374022629
 H          1.8689758570        2.3780496021       -0.5670846634
 H         -3.5957730516        2.4693054675       -2.0547579558
 H         -2.0454369885        3.2847001796       -2.2913409053
 H         -2.2918821174        1.6703298284       -2.9539094830
 H         -2.2666209660        3.6156521035        0.1895021698
 H         -3.5379086918        2.4308912186        0.5163138525
 H         -1.9483404910        2.2785198256        1.2875009252
 H         -2.0525378571       -4.4211927170        0.1834514366
 H         -3.8155003730       -4.2904971318        0.1260121830
 H         -2.8842267161       -4.2219342739       -1.3642441579
 H         -0.8376203475       -1.3837311165        2.6317518903
  53
        -68.44599951
 C          4.0569277836        1.0032199428        2.8529161001
 C          3.8026335659        1.3022451518        1.3804671198
 C          4.8884521233        0.6997114766        0.4906020592
 C          4.6469181141        0.9280017156       -1.0047894345
 C          3.8156170487       -0.1772700129       -1.6720556394
 C          2.4292152634       -0.2905782890       -1.1087467559
 C          2.0861305107       -1.3389482962       -0.2704212304
 C          0.8076688462       -1.4314411167        0.2631742357
 C         -0.1734030892       -0.4902229314       -0.0580536219
 C         -1.5980086467       -0.6094595503        0.4326028540
 C         -2.2454003244       -1.9422991408        0.1388048824
 C         -3.5599044085       -2.0820687457        0.0315357778
 C         -4.5199793757       -0.9295946960        0.1532651045
 C         -3.8435327420        0.4082072087        0.4698330829
 C         -2.4854313632        0.4566077468       -0.2218761414
 C         -1.7717960425        1.8149113464       -0.2648283616
 O         -0.6175069641        1.6609428272       -1.0967034995
 C          0.2063428424        0.6087354952       -0.8326917442
 C          1.4853711535        0.6882509518       -1.3721388429
 C         -2.6187379229        2.8785934566       -0.9655535493
 C         -1.3421541506        2.3202370311        1.1163644461
 C         -4.1991731760       -3.4055181891       -0.2622047299
 O          0.5768052879       -2.4658570310        1.1243868015
 H          3.2903835446        1.4598936551        3.4750612333
 H          4.0455546644       -0.0702652959        3.0284495294
 H          5.0257322929        1.3906781529        3.1624389096
 H          2.8299176366        0.9026692168        1.0939744479
 H          3.7763523361        2.3842369063        1.2289641986
 H          4.9591493349       -0.3720257525        0.6862620619
 H          5.8463288730        1.1463582919        0.7704218285
 H          4.1513435406        1.8898886026       -1.1471389120
 H          5.6095141817        0.9724089974       -1.5201183380
 H          3.7493389706        0.0428680428       -2.7406507727
 H          4.3350777573       -1.1301462210       -1.5549352373
 H          2.8027598466       -2.0984378650       -0.0014601687
 H         -1.6130121617       -0.4526267580        1.5250472448
 H         -1.6067157049       -2.7987813526       -0.0229319660
 H         -5.0547533682       -0.8485214202       -0.7992270803
 H         -5.2698763875       -1.1587137202        0.9156097404
 H         -3.7089108217        0.5101667578        1.5486549481
 H         -4.4854314491        1.2228846727        0.1342376076
 H         -2.6270199264        0.1662373120       -1.2711150095
 H          1.7256996481        1.5422636679       -1.9851352315
 H         -3.4209682370        3.2198791222       -0.3187600572
 H         -1.9833671078        3.7241939035       -1.2151842649
 H         -3.0387795751        2.4827292244       -1.8864327360
 H         -0.5911776244        1.6654885344        1.5516569470
 H         -0.9062250004        3.3115715365        1.0174212494
 H         -2.1985854781        2.3777880107        1.7821631382
 H         -4.8821900952       -3.6822687038        0.5408221715
 H         -4.7791656443       -3.3496624739       -1.1830034050
 H         -3.4517366840       -4.1871854451       -0.3687199391
 H         -0.3073307323       -2.3882200683        1.5006943699
  53
        -68.44594378
 C          3.3248022224       -1.9538028342       -1.0189712076
 C          3.6469871275       -0.5881332869       -1.6133247259
 C          4.8901090310        0.0620503850       -1.0041933889
 C          4.8207329907        0.3541693373        0.4954420774
 C          3.8350538226        1.4652728725        0.8822596845
 C          2.3964243648        1.0351771367        0.8471243212
 C          1.9483553355        0.0293433455        1.6903671035
 C          0.6333922225       -0.4085378174        1.6365295322
 C         -0.2681666028        0.1386128531        0.7195767362
 C         -1.6771497559       -0.3836537944        0.5617129633
 C         -1.7602054584       -1.8735802739        0.3272828229
 C         -2.7815862758       -2.4346603512       -0.3058565364
 C         -3.9259247084       -1.6429966386       -0.8791029315
 C         -3.8324883464       -0.1375090622       -0.6102593667
 C         -2.3671170370        0.2836853461       -0.6343970504
 C         -2.0746132749        1.7903273882       -0.6670994706
 O         -0.6642516445        1.9454475554       -0.8548674751
 C          0.1585640974        1.2298276191       -0.0390397644
 C          1.4831326731        1.6543832750        0.0116842658
 C         -2.7065881476        2.4643772051       -1.8862306108
 C         -2.5032864566        2.5203442782        0.6099074170
 C         -2.8598863970       -3.9132342834       -0.5386653188
 O          0.2715759854       -1.3758706130        2.5306229849
 H          4.1972356061       -2.6038038902       -1.0530349296
 H          2.9979210686       -1.8594012356        0.0129696000
 H          2.5223521764       -2.4262458116       -1.5814904218
 H          3.8230672511       -0.7031493047       -2.6864852788
 H          2.7865600747        0.0685139697       -1.4878158547
 H          5.0873007421        0.9978853990       -1.5339930710
 H          5.7446521088       -0.5981742972       -1.1798578734
 H          4.5726188604       -0.5581394275        1.0369352426
 H          5.8187106101        0.6642801545        0.8173938950
 H          4.0718798156        1.7874208973        1.9005683222
 H          3.9789000780        2.3205416041        0.2194782958
 H          2.6051273197       -0.4285046482        2.4131748356
 H         -2.2517663669       -0.1454515264        1.4734853878
 H         -0.9383072337       -2.4913917134        0.6596311209
 H         -3.9346521648       -1.8179487322       -1.9603684763
 H         -4.8704364248       -2.0338420777       -0.4903336675
 H         -4.2635967980        0.0926534440        0.3662477064
 H         -4.4085580604        0.3980218359       -1.3650609839
 H         -1.9103023352       -0.1242265643       -1.5455507961
 H          1.7734287861        2.4816268872       -0.6171428423
 H         -2.5193772717        1.8791262121       -2.7826998411
 H         -3.7766937682        2.5842215777       -1.7487247799
 H         -2.2562332692        3.4447111538       -2.0174393985
 H         -1.9222669477        2.1799314067        1.4635072229
 H         -2.3304035988        3.5872658741        0.4900200558
 H         -3.5592279474        2.3552108799        0.8044147559
 H         -3.7558843635       -4.3226599022       -0.0722651199
 H         -2.9178014274       -4.1259024628       -1.6058152934
 H         -1.9907740351       -4.4212572583       -0.1293263534
 H         -0.6749656084       -1.5458461269        2.4640305382
  53
        -68.44591426
 C          7.9856409304        0.4103918201       -1.7973149991
 C          6.4767446613        0.6186506112       -1.8384631380
 C          5.7996656801        0.1280171348       -0.5609826936
 C          4.2862298645        0.3285547232       -0.6005495407
 C          3.6272479098       -0.1470361734        0.6912143975
 C          2.1211272693       -0.1232958206        0.6924009024
 C          1.4457913513       -0.8222890407        1.6869176472
 C          0.0615273452       -0.8427830802        1.7411353141
 C         -0.7053291934       -0.1782578081        0.7792661806
 C         -2.2147925634       -0.2154434527        0.7637707744
 C         -2.8110054503       -1.5875507852        0.9347377847
 C         -3.9719155366       -1.9426188057        0.4034360115
 C         -4.7918875851       -1.0250798142       -0.4640750976
 C         -4.2582336358        0.4075097797       -0.4823799505
 C         -2.7359530736        0.3592381343       -0.5572391146
 C         -2.0214656625        1.6730934561       -0.9015170953
 O         -0.6336177003        1.3738257720       -1.0892319723
 C         -0.0211346566        0.5861457990       -0.1659253627
 C          1.3731053897        0.5945031771       -0.2183527582
 C         -2.4806284543        2.2366034227       -2.2481967061
 C         -2.1639979049        2.7447356269        0.1839824519
 C         -4.5559386214       -3.3097735153        0.6020234917
 O         -0.5720396346       -1.5053744573        2.7561445140
 H          8.4477044143        0.7669924299       -2.7149644068
 H          8.4228070996        0.9511579070       -0.9604748792
 H          8.2219554918       -0.6453399381       -1.6819344217
 H          6.2609104839        1.6807889983       -1.9756576817
 H          6.0596656902        0.0838182589       -2.6948530870
 H          6.2141867190        0.6666698192        0.2950106881
 H          6.0220813058       -0.9329907627       -0.4221332063
 H          4.0744763884        1.3881164801       -0.7544334433
 H          3.8694052302       -0.2256786193       -1.4441639773
 H          3.9535581797       -1.1706045303        0.8980903862
 H          3.9831403261        0.4728255949        1.5212528140
 H          2.0095140248       -1.3596241672        2.4398300249
 H         -2.5772534426        0.3981705174        1.6027678659
 H         -2.2641301409       -2.2809947919        1.5514141587
 H         -4.7909981894       -1.4277052983       -1.4832978621
 H         -5.8304643286       -1.0330288310       -0.1215561634
 H         -4.5649904578        0.9255519880        0.4282680772
 H         -4.6803112972        0.9408900618       -1.3347468908
 H         -2.4586315754       -0.3458693973       -1.3520712263
 H          1.8316375245        1.1896790731       -0.9894129162
 H         -2.5178549240        1.4490151738       -2.9962532483
 H         -3.4593100140        2.6976244022       -2.1594755120
 H         -1.7663635554        2.9872660875       -2.5763749987
 H         -3.2129047008        2.9335279402        0.3936227161
 H         -1.6650109331        2.4342022901        1.0984180862
 H         -1.7007777731        3.6679289470       -0.1568128360
 H         -4.7320874391       -3.7907592440       -0.3601535746
 H         -3.8903185873       -3.9361586585        1.1895675109
 H         -5.5143662234       -3.2412143696        1.1168883414
 H          0.0922978686       -1.8848720297        3.3437171390
  53
        -68.44590985
 C          8.0539751710        0.9435815312       -1.4744102119
 C          6.5410585057        1.1163581775       -1.5289580625
 C          5.8281128828        0.2056971435       -0.5321928589
 C          4.3113510090        0.3769615891       -0.5821172208
 C          3.6143680174       -0.5474779036        0.4112736115
 C          2.1174327832       -0.4009673189        0.4951329858
 C          1.4468421563       -1.0456241414        1.5292622543
 C          0.0679984246       -0.9814134054        1.6454735755
 C         -0.7000611109       -0.2788800818        0.7117997707
 C         -2.2079099186       -0.2213871782        0.7664715792
 C         -2.8792093668       -1.5523763643        0.9791304213
 C         -4.0833309136       -1.8383986977        0.5054322640
 C         -4.8848459255       -0.8777748922       -0.3322086476
 C         -4.2645123151        0.5184167321       -0.3908146258
 C         -2.7534016065        0.3739543521       -0.5354220527
 C         -1.9747768974        1.6370084574       -0.9273520168
 O         -0.6189748890        1.2485812956       -1.1761880547
 C         -0.0144633733        0.4319093467       -0.2730126278
 C          1.3736658695        0.3505150539       -0.3912554465
 C         -2.4606976762        2.2173663297       -2.2573515825
 C         -1.9981585898        2.7243237320        0.1515938998
 C         -4.7403318366       -3.1655533306        0.7435065160
 O         -0.5579119609       -1.5928860882        2.6966490890
 H          8.5415191624        1.6001452010       -2.1913772177
 H          8.4295582969        1.1809776379       -0.4812547500
 H          8.3292841895       -0.0830297608       -1.7068630762
 H          6.2864968508        2.1563954257       -1.3121967548
 H          6.1866897559        0.8931961157       -2.5379364701
 H          6.1859134429        0.4281569487        0.4763089499
 H          6.0827157106       -0.8345650422       -0.7504015829
 H          4.0584728734        1.4140733502       -0.3520236801
 H          3.9628527918        0.1588759799       -1.5932492126
 H          3.8406948340       -1.5861298717        0.1476223646
 H          4.0329087184       -0.3761415786        1.4078217326
 H          2.0108751125       -1.6083950544        2.2631048179
 H         -2.4921332138        0.4202655924        1.6145531317
 H         -2.3477581996       -2.2741954318        1.5764695458
 H         -4.9576870829       -1.2874395224       -1.3460257754
 H         -5.9043816217       -0.8179582593        0.0589652881
 H         -4.4953809092        1.0620207165        0.5273134541
 H         -4.6920010661        1.0703960172       -1.2285294365
 H         -2.5582575064       -0.3539289307       -1.3341521003
 H          1.8305219482        0.9069363951       -1.1915902591
 H         -1.7167898597        2.9183422136       -2.6269379394
 H         -2.5829692953        1.4275777801       -2.9939099475
 H         -3.4030048693        2.7404029466       -2.1281396712
 H         -1.4946549141        3.6135821436       -0.2207781100
 H         -3.0220468114        2.9806119421        0.4079843470
 H         -1.4768551274        2.3903651141        1.0450622030
 H         -5.6690903542       -3.0345080152        1.2989980769
 H         -4.9878572034       -3.6420534561       -0.2051092710
 H         -4.0887623550       -3.8271878142        1.3076707181
 H          0.1079865843       -2.0075392870        3.2581189774
  53
        -68.44590936
 C          8.0186763767        0.6617420303       -1.6852144164
 C          6.5077368587        0.8546838069       -1.7253345020
 C          5.8144662687        0.1629676586       -0.5540105852
 C          4.2994470031        0.3519993154       -0.5916619620
 C          3.6232865519       -0.3398019024        0.5875208091
 C          2.1194912335       -0.2531009155        0.6177429185
 C          1.4413912105       -0.9194528594        1.6332719783
 C          0.0587301373       -0.8985849494        1.7117995543
 C         -0.7052034776       -0.2215833206        0.7559627966
 C         -2.2151005761       -0.2145986269        0.7670159403
 C         -2.8472287433       -1.5673866491        0.9613194681
 C         -4.0263672262       -1.8940979101        0.4524096760
 C         -4.8345205943       -0.9613702702       -0.4099981859
 C         -4.2607436242        0.4551901502       -0.4509730962
 C         -2.7419859395        0.3623031612       -0.5507353861
 C         -1.9953189694        1.6511670751       -0.9202057266
 O         -0.6206676387        1.3085088600       -1.1297125997
 C         -0.0156623806        0.5115022128       -0.2094378291
 C          1.3773194969        0.4759048647       -0.2882463542
 C         -2.4618335239        2.2160786360       -2.2637124578
 C         -2.0862929503        2.7361763553        0.1574950409
 C         -4.6450029491       -3.2425814224        0.6726523755
 O         -0.5763851759       -1.5301744048        2.7454260623
 H          8.4920859073        1.1618884913       -2.5269639676
 H          8.4314307942        1.0721055731       -0.7659811554
 H          8.2694696204       -0.3960256056       -1.7294287689
 H          6.2775865384        1.9223229250       -1.7005086025
 H          6.1155497221        0.4541674044       -2.6629624572
 H          6.2070480611        0.5647661995        0.3835741675
 H          6.0478178969       -0.9044824191       -0.5786853438
 H          4.0733571340        1.4197958352       -0.5685317133
 H          3.9100011487       -0.0577355589       -1.5257689287
 H          3.9028457210       -1.3981754239        0.5840794534
 H          4.0109205625        0.0861613334        1.5188397132
 H          2.0031000110       -1.4643514475        2.3822588259
 H         -2.5451548603        0.4170666409        1.6059431231
 H         -2.3098621707       -2.2705566531        1.5753562921
 H         -4.8624833047       -1.3730929797       -1.4251940834
 H         -5.8669003653       -0.9365378962       -0.0500193182
 H         -4.5371438056        0.9901652454        0.4596107705
 H         -4.6818004622        0.9926138532       -1.3013110406
 H         -2.4987418210       -0.3582183485       -1.3429246544
 H          1.8379889262        1.0480208931       -1.0751963125
 H         -2.5363620714        1.4232710927       -3.0034099668
 H         -3.4244415279        2.7072186297       -2.1617187854
 H         -1.7314297277        2.9418414494       -2.6117807977
 H         -3.1251683944        2.9568733757        0.3851006716
 H         -1.5790129224        2.4196257600        1.0652664798
 H         -1.6034832541        3.6425654324       -0.2007044701
 H         -4.8474270378       -3.7277346251       -0.2822537425
 H         -3.9887928496       -3.8814274706        1.2573324606
 H         -5.5940502343       -3.1427588364        1.1995915484
 H          0.0865669005       -1.9227841104        3.3259048610
  53
        -68.44590936
 C          8.0508845157        0.9089192017       -1.5038556047
 C          6.5385623570        1.0883590954       -1.5531631216
 C          5.8268459257        0.1992149104       -0.5363679789
 C          4.3104886879        0.3748887465       -0.5827511093
 C          3.6151096164       -0.5266837044        0.4324082530
 C          2.1174085477       -0.3843867760        0.5105604353
 C          1.4455374394       -1.0304119109        1.5430666194
 C          0.0662029935       -0.9703966292        1.6549516929
 C         -0.7011228830       -0.2711416180        0.7181803641
 C         -2.2094188305       -0.2195320408        0.7670362495
 C         -2.8760444723       -1.5530744886        0.9783968335
 C         -4.0765950236       -1.8451263557        0.4993650559
 C         -4.8781605811       -0.8893373683       -0.3437252430
 C         -4.2642766596        0.5097661260       -0.4002703973
 C         -2.7518496790        0.3723758693       -0.5376906965
 C         -1.9771555080        1.6387310719       -0.9267418986
 O         -0.6187468557        1.2559883815       -1.1700692426
 C         -0.0146037686        0.4415838714       -0.2645738693
 C          1.3742227535        0.3646987792       -0.3782676600
 C         -2.4602602678        2.2168551128       -2.2587055452
 C         -2.0094763110        2.7261110876        0.1519102860
 C         -4.7290675608       -3.1746365375        0.7366808485
 O         -0.5610832750       -1.5830776332        2.7046004197
 H          8.3197811053       -0.1229573240       -1.7198088387
 H          8.5376173658        1.5503146327       -2.2349188184
 H          8.4331713848        1.1617254817       -0.5170860625
 H          6.2902800766        2.1332560355       -1.3535133955
 H          6.1774317844        0.8489930714       -2.5559845100
 H          6.1898848572        0.4390785737        0.4662366211
 H          6.0767393707       -0.8458243992       -0.7363262049
 H          4.0625745508        1.4174144664       -0.3727722504
 H          3.9562054790        0.1373317334       -1.5874907471
 H          3.8457064547       -1.5707041684        0.1950765708
 H          4.0314465563       -0.3291166044        1.4250970645
 H          2.0091315270       -1.5909950144        2.2789280237
 H         -2.4996236435        0.4217622090        1.6133629188
 H         -2.3445953070       -2.2714381093        1.5798646035
 H         -4.9432802956       -1.3003533042       -1.3575049993
 H         -5.9001627905       -0.8341301705        0.0415979486
 H         -4.5020658268        1.0527519227        0.5164494251
 H         -4.6903881735        1.0592369732       -1.2403320931
 H         -2.5496094370       -0.3550737139       -1.3350538021
 H          1.8317302502        0.9219885815       -1.1776136622
 H         -3.4052004130        2.7360500534       -2.1331878198
 H         -1.7177758750        2.9208066731       -2.6255149231
 H         -2.5764325867        1.4264313906       -2.9955774235
 H         -3.0354522338        2.9771457429        0.4051343837
 H         -1.4892140758        2.3949802281        1.0470400465
 H         -1.5094411490        3.6179186899       -0.2190434066
 H         -4.9696702273       -3.6539605115       -0.2122917159
 H         -4.0775426901       -3.8323856262        1.3054443042
 H         -5.6612276333       -3.0465848334        1.2871592755
 H          0.1043953189       -1.9949231768        3.2686312038
  53
        -68.44590647
 C          4.8004388630        3.2883316425       -1.0265756598
 C          5.0523833747        1.7992085586       -0.8247053552
 C          4.4591556715        1.3052187553        0.4927517580
 C          4.7067712630       -0.1802528719        0.7528374974
 C          3.9051078722       -1.1076464543       -0.1717474755
 C          2.4267388496       -0.9245263492        0.0163009604
 C          1.7950449663       -1.4693098160        1.1241127766
 C          0.4339458898       -1.2902068431        1.3226162549
 C         -0.3336554598       -0.5659531864        0.4059674063
 C         -1.8251084071       -0.4185228304        0.5681088414
 C         -2.5607568548       -1.7188885648        0.7657416144
 C         -3.8882575648       -1.6811578818        0.7765593013
 C         -4.5400595691       -0.3318742023        0.6692476913
 C         -3.9238346153        0.5211983177       -0.4612820945
 C         -2.4450612857        0.1962410495       -0.7001880009
 C         -1.5832230006        1.3632946044       -1.2095661456
 O         -0.3068423349        0.8340030170       -1.5773345255
 C          0.3204945772        0.0330082488       -0.6706762788
 C          1.6840856056       -0.1629662161       -0.8687356581
 C         -2.1579666541        1.9488019666       -2.4999694741
 C         -1.3796435021        2.4713288201       -0.1704145656
 C         -4.7655438634       -2.8835333289        0.9004437023
 O         -0.1074933575       -1.8356489243        2.4496899071
 H          5.2299442183        3.6277358405       -1.9666292298
 H          3.7318280643        3.4918192294       -1.0434093306
 H          5.2451203459        3.8651559373       -0.2181070780
 H          4.6118827406        1.2499837045       -1.6578190775
 H          6.1283298842        1.6074524926       -0.8315304025
 H          3.3835720226        1.4936028604        0.4988887148
 H          4.9012621222        1.8806509960        1.3103553008
 H          5.7715531104       -0.3954628947        0.6344678131
 H          4.4326815321       -0.4045235220        1.7859360522
 H          4.1735506980       -0.9146875703       -1.2104565263
 H          4.1739889369       -2.1405776894        0.0605951241
 H          2.3450619966       -2.0438800886        1.8523026407
 H         -2.0438507120        0.2499361261        1.4166526776
 H         -2.0104001215       -2.6475030637        0.7846794032
 H         -5.6137285635       -0.4334514567        0.5094693483
 H         -4.4007927937        0.1941162889        1.6196849117
 H         -4.0466251398        1.5737127661       -0.2030138432
 H         -4.4782989089        0.3444297425       -1.3833727174
 H         -2.3801595739       -0.5755000457       -1.4778957639
 H          2.1417697499        0.3016242531       -1.7275255281
 H         -3.0835361275        2.4797107916       -2.3009255814
 H         -1.4373082172        2.6378222366       -2.9322828833
 H         -2.3464125958        1.1557477250       -3.2187404548
 H         -0.7962217736        2.1044508622        0.6706615029
 H         -0.8329391521        3.2934157071       -0.6263333457
 H         -2.3319575410        2.8460799002        0.1932794106
 H         -5.3958897953       -2.9803636697        0.0166034224
 H         -4.1729225205       -3.7884643779        1.0076974354
 H         -5.4212703184       -2.7870599173        1.7658460045
 H         -1.0588181804       -1.6719205881        2.4659080262
  53
        -68.44589511
 C          5.5575174349       -2.5330793260       -0.5164554703
 C          5.4756161395       -1.0483876617       -0.1838033133
 C          4.4691525740       -0.3290096839       -1.0789466693
 C          4.3767156491        1.1718954597       -0.8064010449
 C          3.7111858778        1.5124008127        0.5345722034
 C          2.2879186888        1.0361264081        0.5725598552
 C          1.9441080334       -0.1326453950        1.2328748027
 C          0.6353670102       -0.5956558835        1.2178234603
 C         -0.3614715732        0.0982933271        0.5278803643
 C         -1.7743374464       -0.4214562605        0.4492078060
 C         -1.8882068674       -1.8487209841       -0.0209364761
 C         -3.1060072829       -2.3289960099       -0.2449107330
 C         -4.2686100971       -1.4295712066        0.0651734838
 C         -4.0692671107       -0.0080934644       -0.5049660671
 C         -2.5919316364        0.3960335339       -0.5676319079
 C         -2.3075185936        1.8982084682       -0.4030783457
 O         -0.9257456722        2.1149309165       -0.7004118442
 C         -0.0204315499        1.3084246374       -0.0785651412
 C          1.2955570242        1.7578072603       -0.0691986922
 C         -3.0714021267        2.7193820141       -1.4425182838
 C         -2.6004515476        2.4243099044        1.0062537297
 C         -3.3901124503       -3.6985615431       -0.7685990443
 O          0.3738317936       -1.7393572843        1.9142261070
 H          4.5877256044       -3.0057617753       -0.3768417234
 H          5.8622546364       -2.6775087221       -1.5510805371
 H          6.2790166248       -3.0324668162        0.1264765064
 H          5.1870649888       -0.9361475744        0.8621361570
 H          6.4609555958       -0.5922064718       -0.3082325862
 H          3.4819831559       -0.7768741182       -0.9476314033
 H          4.7640388988       -0.4761892895       -2.1212794721
 H          5.3799887434        1.6048449896       -0.8247481840
 H          3.7959629539        1.6378353229       -1.6055087242
 H          4.2758906979        1.0625238151        1.3511928214
 H          3.7343145351        2.5967231908        0.6644187323
 H          2.6783170806       -0.7062954266        1.7755062614
 H         -2.2600151095       -0.3289185024        1.4342536873
 H         -0.9955639801       -2.4051598760       -0.2641963545
 H         -5.1972030407       -1.8525768484       -0.3187461334
 H         -4.3685597115       -1.3589442216        1.1534887195
 H         -4.6307690076        0.6920621571        0.1146862278
 H         -4.4905874511        0.0347534087       -1.5097507474
 H         -2.2011414638        0.1316394440       -1.5585912926
 H          1.5179664813        2.6898746319       -0.5641652687
 H         -2.9006884495        2.3156345433       -2.4369780869
 H         -4.1358536728        2.7116121469       -1.2302542105
 H         -2.7112312798        3.7445056362       -1.4232666388
 H         -2.4564491335        3.5019991076        1.0229389699
 H         -3.6225773677        2.2049656887        1.3008899243
 H         -1.9182098112        1.9828410156        1.7287234541
 H         -2.4696415641       -4.2573364615       -0.9174639025
 H         -4.0260765127       -4.2461064593       -0.0729481123
 H         -3.9184881774       -3.6341831067       -1.7196890451
 H         -0.5569286956       -1.9755102707        1.8147678926
  53
        -68.44588250
 C          3.0393131482       -0.9667618298       -2.0550643408
 C          3.8207504776       -1.3253858559       -0.7970114727
 C          4.9877301866       -0.3780767571       -0.5149941069
 C          4.6137838725        1.0858494880       -0.2782705529
 C          3.8510332630        1.3445143428        1.0282803989
 C          2.4061160445        0.9379285519        0.9734425935
 C          1.8999809422       -0.0237823025        1.8335155929
 C          0.5732189974       -0.4240338806        1.7497385761
 C         -0.2767277143        0.1096961904        0.7781001699
 C         -1.6929240545       -0.3804170881        0.5847612527
 C         -1.8096435253       -1.8760939781        0.4082710556
 C         -2.8196139013       -2.4358553285       -0.2440312410
 C         -3.9157879172       -1.6387076652       -0.8979277923
 C         -3.7917453652       -0.1266856226       -0.6846444226
 C         -2.3154732160        0.2548889896       -0.6646179772
 C         -1.9809109058        1.7509106242       -0.7453435832
 O         -0.5605382104        1.8620493281       -0.8809976106
 C          0.2097939667        1.1582246091       -0.0054799740
 C          1.5405053427        1.5517742812        0.0835081444
 C         -2.5447310326        2.3903316546       -2.0154925396
 C         -2.4403739109        2.5434419436        0.4827170653
 C         -2.9308134559       -3.9203783847       -0.4181184589
 O          0.1511516087       -1.3440054154        2.6667760313
 H          2.3187776278       -1.7493055410       -2.2830419219
 H          2.4908048833       -0.0385771507       -1.9190261183
 H          3.7092328383       -0.8581721325       -2.9061474178
 H          3.1408938386       -1.3383929874        0.0543064902
 H          4.2298918821       -2.3331233776       -0.9109109034
 H          5.6756103760       -0.4169751136       -1.3648992995
 H          5.5301113334       -0.7464042817        0.3599105091
 H          5.5427431498        1.6617796419       -0.2444236751
 H          4.0303130684        1.4573149097       -1.1201510789
 H          4.3494605930        0.8203870311        1.8457052408
 H          3.8979774917        2.4166468727        1.2405146427
 H          2.5210571891       -0.4835317178        2.5862797406
 H         -2.2958574831       -0.0888303859        1.4620782130
 H         -1.0207377661       -2.5015284600        0.8007373673
 H         -3.8830118601       -1.8570419067       -1.9708167451
 H         -4.8865802172       -1.9886318705       -0.5359172128
 H         -4.2553564762        0.1536118069        0.2634522572
 H         -4.3219847552        0.3927786004       -1.4830047302
 H         -1.8335363004       -0.2017432239       -1.5389865420
 H          1.8725346020        2.3575384793       -0.5522745539
 H         -2.3376840013        1.7641321288       -2.8793020727
 H         -3.6158042358        2.5430817316       -1.9271338632
 H         -2.0629307503        3.3526012083       -2.1671245411
 H         -3.5072659337        2.4130902422        0.6403832230
 H         -1.9031157652        2.2239105506        1.3722822282
 H         -2.2343475989        3.5998267775        0.3272409822
 H         -3.8557103540       -4.2853087098        0.0282968919
 H         -2.9528412595       -4.1767049913       -1.4769665734
 H         -2.0933977847       -4.4336475276        0.0469114923
 H         -0.7971563678       -1.4893834100        2.5723366726
  53
        -68.44571493
 C          8.4136694854       -0.2859652378       -0.3157271939
 C          7.0182956851       -0.6803670573        0.1521547422
 C          5.9335483674        0.1454553562       -0.5354018629
 C          4.5324063404       -0.2454080811       -0.0704005275
 C          3.4615226284        0.5782602165       -0.7800997123
 C          2.0422961041        0.3271258450       -0.3409869773
 C          1.6762841094       -0.7164388573        0.4944552512
 C          0.3468788221       -0.9220349762        0.8410977248
 C         -0.6681494279       -0.1039664506        0.3425737263
 C         -2.1296888184       -0.3278144434        0.6490712650
 C         -2.5921552983       -1.7522216154        0.4918906212
 C         -3.8281647718       -2.0767311186        0.1410807663
 C         -4.8850191574       -1.0536276806       -0.1799269789
 C         -4.4488643245        0.3734815572        0.1525289634
 C         -2.9926975342        0.5472859725       -0.2654742374
 C         -2.4562078203        1.9843832398       -0.3125996364
 O         -1.1463709246        1.9373539510       -0.8899806788
 C         -0.2827267241        0.9930433331       -0.4322241880
 C          1.0503450724        1.1869577193       -0.7810548941
 C         -3.2668504703        2.8653542370       -1.2658011313
 C         -2.3768473385        2.6487884392        1.0655206886
 C         -4.2713011456       -3.5033176886        0.0065897452
 O          0.0219669331       -1.9345640716        1.7018095897
 H          8.6067443123        0.7622022166       -0.0977158560
 H          9.1704115219       -0.8857308410        0.1847725291
 H          8.5120371864       -0.4349870531       -1.3889122664
 H          6.8521805943       -1.7398333029       -0.0572763030
 H          6.9458295240       -0.5419538976        1.2335379242
 H          6.0073196749        0.0061248870       -1.6167302507
 H          6.1022307702        1.2046888794       -0.3269147967
 H          4.3774043931       -1.3070556862       -0.2749413545
 H          4.4571732244       -0.0905335647        1.0084588173
 H          3.6797774076        1.6403811863       -0.6374778187
 H          3.5224140494        0.3851335334       -1.8559888679
 H          2.4202936855       -1.3890281167        0.8968288981
 H         -2.3027000940       -0.0483945287        1.6996586533
 H         -1.8735782586       -2.5230685286        0.7147707019
 H         -5.1157554842       -1.1248095996       -1.2488369457
 H         -5.8041407180       -1.2991919992        0.3593854601
 H         -4.5462620690        0.5469481088        1.2259238796
 H         -5.0971547594        1.0808414389       -0.3657168382
 H         -2.8853798061        0.1576295581       -1.2865173723
 H          1.2913608797        2.0364353309       -1.4007432454
 H         -4.2139897157        3.1483911097       -0.8173700515
 H         -2.6968005315        3.7650998024       -1.4820660157
 H         -3.4507222591        2.3432532055       -2.2011449455
 H         -2.0638343286        3.6840041637        0.9499729359
 H         -3.3475479880        2.6265805780        1.5523625082
 H         -1.6478530181        2.1438635754        1.6941684067
 H         -5.0762762284       -3.7180420809        0.7095924160
 H         -4.6520917311       -3.6892572373       -0.9976901991
 H         -3.4490964042       -4.1865280935        0.2009290830
 H          0.8303894171       -2.3858499117        1.9729525887
  53
        -68.44570101
 C          8.3810310396       -0.4813883262       -0.5245393112
 C          6.9852500074       -0.8628353502       -0.0471309678
 C          5.9245689269        0.1102124597       -0.5565890115
 C          4.5232541349       -0.2659591018       -0.0799266452
 C          3.4788256244        0.7210320636       -0.5927348337
 C          2.0511811098        0.4247604468       -0.2124014114
 C          1.6827212803       -0.6227147765        0.6166725570
 C          0.3476429419       -0.8578280887        0.9208372208
 C         -0.6691111162       -0.0640949483        0.3879437681
 C         -2.1341124174       -0.3176118079        0.6521418864
 C         -2.5628203549       -1.7517076369        0.4880011433
 C         -3.7819314710       -2.1025123201        0.1048552193
 C         -4.8499100577       -1.1023054050       -0.2498177941
 C         -4.4519931184        0.3347391553        0.0877803909
 C         -2.9884699427        0.5362748264       -0.2901752608
 C         -2.4800834892        1.9838061561       -0.3285033232
 O         -1.1537883446        1.9611471324       -0.8684808646
 C         -0.2840213582        1.0381349179       -0.3798177837
 C          1.0543185178        1.2592247607       -0.6892201500
 C         -3.2810464086        2.8444984400       -1.3079878980
 C         -2.4531239247        2.6550331748        1.0483331158
 C         -4.1927264269       -3.5382413337       -0.0349747464
 O          0.0183646780       -1.8751335919        1.7742181807
 H          8.6458527726        0.5132114696       -0.1720544898
 H          9.1205644215       -1.1859678775       -0.1511219661
 H          8.4253597445       -0.4811181117       -1.6115154920
 H          6.7462585243       -1.8709097168       -0.3942369614
 H          6.9673693796       -0.8766054273        1.0453072833
 H          5.9441541765        0.1231272456       -1.6490480461
 H          6.1658797615        1.1182077625       -0.2103039672
 H          4.2834342784       -1.2705520528       -0.4356803683
 H          4.5132341573       -0.2783238908        1.0123201551
 H          3.7286386696        1.7220978775       -0.2276980642
 H          3.5361841743        0.7604899813       -1.6846107823
 H          2.4284186025       -1.2760808613        1.0466581385
 H         -2.3431367620       -0.0381350837        1.6961546204
 H         -1.8352454616       -2.5069362880        0.7339565066
 H         -5.0496231662       -1.1826402885       -1.3243438536
 H         -5.7785098953       -1.3641534773        0.2651221898
 H         -4.5828714902        0.5107009309        1.1572150467
 H         -5.0996095235        1.0266788858       -0.4516650852
 H         -2.8447039956        0.1449595050       -1.3060948523
 H          1.2963520917        2.1110291515       -1.3053357808
 H         -3.4280399239        2.3151936930       -2.2457823045
 H         -4.2458284001        3.1102842297       -0.8875307720
 H         -2.7231866832        3.7546835968       -1.5122194292
 H         -1.7322680584        2.1673530933        1.6995763892
 H         -2.1576919303        3.6958539860        0.9370485837
 H         -3.4365547655        2.6152279144        1.5077658159
 H         -3.3625950769       -4.2041220674        0.1842163300
 H         -5.0116572825       -3.7662375399        0.6474462809
 H         -4.5430057972       -3.7358209453       -1.0480888810
 H          0.8276118686       -2.3080169608        2.0716788758
  53
        -68.44566978
 C          5.4369431634       -2.4142386577       -1.6918674646
 C          5.3408156440       -0.8968128075       -1.5920886272
 C          4.5586927860       -0.4580643518       -0.3568092117
 C          4.4548717433        1.0607809585       -0.2541016464
 C          3.6690147565        1.5073759821        0.9854713316
 C          2.2390052301        1.0534788432        0.9183515227
 C          1.8002502373       -0.0371168086        1.6562591920
 C          0.4921098472       -0.4855003926        1.5490322196
 C         -0.4111801670        0.1399910954        0.6875731595
 C         -1.8115068244       -0.3783393117        0.5132538988
 C         -1.8920208213       -1.8474868140        0.2062720722
 C         -3.0782141350       -2.3472316066       -0.1138579163
 C         -4.2600789429       -1.4189728232       -0.0658844775
 C         -3.9735069936       -0.0653811874       -0.7494122951
 C         -2.4933373462        0.3246274778       -0.6734710604
 C         -2.2101701842        1.8352886399       -0.6405862331
 O         -0.7981964549        2.0211342721       -0.7919620448
 C          0.0170581501        1.2762350848        0.0012303745
 C          1.3354733774        1.7128268075        0.1053529407
 C         -2.8323876775        2.5415905234       -1.8458659727
 C         -2.6591584206        2.5115253722        0.6588323214
 C         -3.3211984600       -3.7731419394       -0.4917357047
 O          0.0510454691       -1.5435677299        2.2924270329
 H          4.4438695977       -2.8547224615       -1.7487146870
 H          5.9937653677       -2.7066855914       -2.5791544860
 H          5.9427435140       -2.8230520896       -0.8195173069
 H          6.3465420113       -0.4711073699       -1.5544107228
 H          4.8494590285       -0.5052123659       -2.4855915753
 H          5.0510452403       -0.8485287309        0.5376116042
 H          3.5534282213       -0.8829810413       -0.3967271752
 H          5.4589056908        1.4902051468       -0.2127202130
 H          3.9604798683        1.4485077291       -1.1469768522
 H          4.1470838294        1.1015537974        1.8793278604
 H          3.7007098207        2.5973515782        1.0470933213
 H          2.4820660708       -0.5468600138        2.3251192773
 H         -2.3853913358       -0.1856537171        1.4305640259
 H         -0.9905860083       -2.4361969291        0.1997317195
 H         -5.1347444252       -1.8828106947       -0.5234994001
 H         -4.5011177031       -1.2340180351        0.9860879367
 H         -4.5942368264        0.6971676718       -0.2770305600
 H         -4.2704965866       -0.1237421308       -1.7973610076
 H         -1.9924476167       -0.0472145993       -1.5768061094
 H          1.6291648531        2.5850826027       -0.4568954286
 H         -2.5488106539        2.0337424370       -2.7639179180
 H         -3.9145864999        2.5556794439       -1.7642616010
 H         -2.4648203584        3.5633521046       -1.8922088308
 H         -2.0849028391        2.1359978808        1.5020898521
 H         -2.4892677901        3.5831498314        0.5832747819
 H         -3.7152502632        2.3378200707        0.8428606975
 H         -3.7256341616       -3.8328261761       -1.5024552386
 H         -2.3991486093       -4.3469385690       -0.4493811202
 H         -4.0474196462       -4.2258708221        0.1834350079
 H          0.7753726664       -1.8662845375        2.8414689484
  53
        -68.44563582
 C          5.2800368775        3.2464178773        1.0560626842
 C          5.4689003117        1.7379043846        0.9544199802
 C          4.5192871947        1.1158423943       -0.0662347649
 C          4.7039075252       -0.3947790653       -0.1741837715
 C          3.7409454631       -1.0269188571       -1.1878645125
 C          2.3103484617       -0.8843585253       -0.7532354703
 C          1.8037192771       -1.7000941780        0.2505753339
 C          0.4909494348       -1.5694675318        0.6750845038
 C         -0.3581377885       -0.6227813346        0.0968055900
 C         -1.8029088883       -0.5195902200        0.4993245590
 C         -2.5465235723       -1.8254552350        0.4687072336
 C         -3.8588593919       -1.7931953068        0.6584022461
 C         -4.4847663672       -0.4616005126        0.9683176599
 C         -3.9850405718        0.6564354921        0.0292205524
 C         -2.5593342060        0.4028141940       -0.4725426411
 C         -1.7327088631        1.6631333848       -0.7748343588
 O         -0.5278562295        1.2518757396       -1.4307484972
 C          0.1750837388        0.2357823547       -0.8632842129
 C          1.4927094024        0.0894480360       -1.2937733957
 C         -2.4448119651        2.5630133987       -1.7856677671
 C         -1.3618138060        2.4643152618        0.4774624633
 C         -4.7498305333       -2.9927335815        0.6108059204
 O         -0.0037967723       -2.3549958189        1.6774860605
 H          5.9605800861        3.6708653690        1.7907826742
 H          5.4725984607        3.7201090111        0.0958344588
 H          4.2607947096        3.4822684776        1.3542957622
 H          6.5011220558        1.5197023813        0.6694721108
 H          5.2937378119        1.2840911371        1.9327850913
 H          4.6936667278        1.5710153576       -1.0440530813
 H          3.4878143393        1.3312300791        0.2203690542
 H          5.7312430978       -0.6132694216       -0.4760223741
 H          4.5411992761       -0.8478007167        0.8064090341
 H          3.8793971995       -0.5493031196       -2.1590628231
 H          3.9853262627       -2.0869542916       -1.2910218308
 H          2.4373502603       -2.4503021604        0.7067116978
 H         -1.8672989777       -0.1095377795        1.5170223280
 H         -2.0126361038       -2.7322892219        0.2411299897
 H         -5.5724449106       -0.5245230656        0.9171199220
 H         -4.2209319217       -0.1962064903        1.9973688681
 H         -4.0384150855        1.6053460274        0.5646733690
 H         -4.6543857006        0.7286801761       -0.8290270056
 H         -2.6206022917       -0.1415595047       -1.4238773174
 H          1.8563884766        0.7616350244       -2.0545865903
 H         -2.7459492152        1.9834702910       -2.6543040281
 H         -3.3218453094        3.0206460140       -1.3391209290
 H         -1.7633803328        3.3433827672       -2.1141907180
 H         -2.2492477998        2.7444553798        1.0371658335
 H         -0.7049197669        1.8840044459        1.1205355618
 H         -0.8351716906        3.3689701585        0.1820100614
 H         -4.1740293384       -3.8945823103        0.4201238903
 H         -5.2806247165       -3.1086037203        1.5558412427
 H         -5.4951659702       -2.8790919621       -0.1767741998
 H          0.6896136008       -2.9529932503        1.9804726544
  53
        -68.44563096
 C          5.1731022880       -1.0453300320       -2.9925879051
 C          5.3434023851       -0.9586953607       -1.4809187681
 C          4.4365845067        0.1061100754       -0.8690848305
 C          4.6086006939        0.2041478850        0.6437125446
 C          3.6915071854        1.2661904141        1.2643662419
 C          2.2435598062        0.8969898510        1.1144538482
 C          1.6780161425       -0.0542736059        1.9541792383
 C          0.3563878816       -0.4411994794        1.7985945344
 C         -0.4356970500        0.1056583586        0.7860877397
 C         -1.8516686063       -0.3505628525        0.5697721298
 C         -2.0119050220       -1.8413042592        0.4643670685
 C         -3.2040901852       -2.3110471963        0.1216888587
 C         -4.3181746883       -1.3171358729       -0.0563669540
 C         -3.8886331221       -0.0965625672       -0.8972828008
 C         -2.3943547877        0.2131607404       -0.7550863079
 C         -2.0103362580        1.6937485442       -0.9092940649
 O         -0.5815360091        1.7739011863       -0.9663361307
 C          0.1182863224        1.1065314011       -0.0104948039
 C          1.4519425648        1.4812998605        0.1444649845
 C         -2.4906071931        2.2535106240       -2.2489571001
 C         -2.5068537439        2.5754324606        0.2411372161
 C         -3.5188144108       -3.7595722872       -0.0723882294
 O         -0.2110173904       -1.3554213084        2.6405380659
 H          5.8218460851       -1.8123627104       -3.4096477469
 H          4.1437240439       -1.2901767086       -3.2451647501
 H          5.4217389109       -0.0944910597       -3.4591620012
 H          5.1126285367       -1.9286230040       -1.0339438635
 H          6.3852002512       -0.7264217219       -1.2457151530
 H          3.3950960856       -0.1298438038       -1.0972941629
 H          4.6638428651        1.0746127243       -1.3209304372
 H          4.3899120722       -0.7664184785        1.0947907958
 H          5.6475283790        0.4529036595        0.8743946957
 H          3.9342066368        1.3638500674        2.3253917057
 H          3.8790135039        2.2268373576        0.7820589900
 H          2.2717220023       -0.4969129405        2.7441066366
 H         -2.4765495064        0.0053662269        1.4009497567
 H         -1.1555941262       -2.4767980822        0.6129527612
 H         -5.1883837854       -1.7895524519       -0.5137206065
 H         -4.6202277698       -0.9674380171        0.9363186691
 H         -4.4876658161        0.7615779918       -0.5895309813
 H         -4.1114846022       -0.2893943722       -1.9475126981
 H         -1.8559253432       -0.3133579266       -1.5538621270
 H          1.8438348857        2.2461343334       -0.5069525119
 H         -2.1749277347        1.6031056015       -3.0603965431
 H         -3.5722957013        2.3414895419       -2.2609837427
 H         -2.0511244213        3.2350368968       -2.4061120232
 H         -2.2562079650        3.6129868355        0.0323333430
 H         -3.5833941572        2.4933239475        0.3576573663
 H         -2.0257315755        2.2917532564        1.1737816005
 H         -2.6444624031       -4.3748036033        0.1229574124
 H         -4.3208098919       -4.0665038051        0.5990489252
 H         -3.8540236481       -3.9401201356       -1.0940555242
 H          0.4453902031       -1.6364942157        3.2888878592
  53
        -68.44561717
 C          5.8299610658        0.5909863443        2.7015292206
 C          5.5925375406        1.1801114210        1.3163956202
 C          4.7221048516        0.2696486382        0.4540596756
 C          4.4805297766        0.8546009865       -0.9343289805
 C          3.6075336125       -0.0566652943       -1.8068443430
 C          2.2234856354       -0.2005367189       -1.2413005418
 C          1.8566686627       -1.3358600888       -0.5320637737
 C          0.5828418956       -1.4566293082        0.0031575545
 C         -0.3651429431       -0.4460292614       -0.1684124328
 C         -1.7698963849       -0.5963393619        0.3456289062
 C         -2.4412270867       -1.8788597502       -0.0589153990
 C         -3.7297210661       -2.0168920564        0.2239241338
 C         -4.3943891839       -0.9114585078        0.9965478893
 C         -4.0477118744        0.4853223976        0.4396633100
 C         -2.6621412315        0.5252506385       -0.2142790177
 C         -1.9374201213        1.8789512783       -0.1408944550
 O         -0.7768262621        1.8026492658       -0.9764285271
 C          0.0304013944        0.7190205432       -0.8254731010
 C          1.3075964940        0.8273518749       -1.3701427539
 C         -2.7877684270        2.9955935210       -0.7480873217
 C         -1.4984387101        2.2594167460        1.2768779295
 C         -4.5551636602       -3.2057416084       -0.1503366434
 O          0.2278695537       -2.5621882249        0.7231894170
 H          6.4480919763        1.2551433479        3.3012207947
 H          4.8844090253        0.4418064215        3.2184594031
 H          6.3334095812       -0.3706582143        2.6261441248
 H          5.1064813517        2.1533827969        1.4148016379
 H          6.5530170883        1.3390956628        0.8201473364
 H          3.7610139921        0.1149445069        0.9492017528
 H          5.2083334473       -0.7044595984        0.3565691761
 H          3.9925153189        1.8261689835       -0.8351432874
 H          5.4405115070        1.0104257248       -1.4326334854
 H          3.5447202072        0.3731593856       -2.8088655741
 H          4.0805345113       -1.0375776722       -1.8859358807
 H          2.5685729499       -2.1394887545       -0.3925124770
 H         -1.7616517350       -0.5426001371        1.4433629918
 H         -1.8828068081       -2.6170497099       -0.6088147502
 H         -5.4769712780       -1.0436607770        1.0070566198
 H         -4.0480409741       -0.9689163678        2.0336963268
 H         -4.1056415692        1.2058311480        1.2566759767
 H         -4.7963624036        0.7711801040       -0.3003262443
 H         -2.7802754383        0.3145033806       -1.2851295372
 H          1.5635908481        1.7361978348       -1.8913634376
 H         -3.1351756450        2.7052121265       -1.7360810671
 H         -3.6438245227        3.2109658082       -0.1165808980
 H         -2.1832363889        3.8932915567       -0.8478787444
 H         -0.7513432591        1.5605524546        1.6447233359
 H         -1.0554792200        3.2526864556        1.2612956796
 H         -2.3445097672        2.2654473268        1.9576523990
 H         -5.3778357581       -2.9055899688       -0.7997841252
 H         -3.9526081092       -3.9470135962       -0.6686438117
 H         -4.9856390354       -3.6638915513        0.7401989411
 H          0.9780486239       -3.1671936778        0.7614285365
  53
        -68.44561542
 C          5.8444545992        0.5396931092        2.6992096654
 C          5.6017013911        1.1521988688        1.3252233886
 C          4.7270496317        0.2567348137        0.4515675629
 C          4.4806464711        0.8643041062       -0.9262195127
 C          3.6044965049       -0.0326183446       -1.8104724991
 C          2.2212921167       -0.1824703353       -1.2445675397
 C          1.8573722324       -1.3226922700       -0.5417382386
 C          0.5844953198       -1.4489204341       -0.0055207887
 C         -0.3657978259       -0.4393482961       -0.1704275922
 C         -1.7699054940       -0.5955824378        0.3435957261
 C         -2.4380043208       -1.8781391126       -0.0661182284
 C         -3.7259850092       -2.0209415647        0.2167287661
 C         -4.3934126612       -0.9203506627        0.9938915173
 C         -4.0509239126        0.4794104597        0.4419304207
 C         -2.6651655009        0.5261631322       -0.2112389224
 C         -1.9444838074        1.8816343151       -0.1311535038
 O         -0.7830456876        1.8127802219       -0.9661436465
 C          0.0267142981        0.7302122846       -0.8212367002
 C          1.3033578779        0.8444690921       -1.3661722935
 C         -2.7977139508        2.9984763874       -0.7339045544
 C         -1.5077218043        2.2569110432        1.2886890249
 C         -4.5482011037       -3.2106383406       -0.1619809610
 O          0.2327637696       -2.5592531921        0.7087537631
 H          6.4653906931        1.1934081448        3.3074367774
 H          4.9008661582        0.3822072236        3.2173679348
 H          6.3471111107       -0.4207837611        2.6055586173
 H          5.1167925775        2.1240651889        1.4419076231
 H          6.5602777834        1.3187758450        0.8277276920
 H          3.7678128922        0.0948304133        0.9480299984
 H          5.2120019457       -0.7161060216        0.3363542397
 H          3.9931267347        1.8342301058       -0.8097427498
 H          5.4388943959        1.0280368332       -1.4253856671
 H          3.5404133889        0.4120014077       -2.8059027125
 H          4.0757310496       -1.0130237185       -1.9048403375
 H          2.5707869259       -2.1259680317       -0.4081266578
 H         -1.7614277901       -0.5464749829        1.4415581469
 H         -1.8778227258       -2.6125652162       -0.6192045259
 H         -5.4756010850       -1.0556070297        1.0043618899
 H         -4.0464142352       -0.9806283931        2.0306539747
 H         -4.1116499538        1.1969327350        1.2613945636
 H         -4.8001426038        0.7654482367       -0.2974145679
 H         -2.7823411152        0.3201252512       -1.2831523849
 H          1.5570744199        1.7568910611       -1.8822063074
 H         -2.1960535875        3.8986415754       -0.8287662384
 H         -3.1430974328        2.7117223989       -1.7236874141
 H         -3.6552530855        3.2081004400       -0.1024511811
 H         -2.3542906529        2.2578913069        1.9689041709
 H         -0.7591786668        1.5584138596        1.6541773384
 H         -1.0671871993        3.2513616600        1.2779502149
 H         -5.3709429066       -2.9105006099       -0.8114050921
 H         -3.9433523331       -3.9488931955       -0.6819506397
 H         -4.9784691372       -3.6725982113        0.7267050585
 H          0.9842992588       -3.1628307761        0.7427090028
  53
        -68.44558728
 C          5.3513947776        0.8507178227        2.4356657935
 C          5.4901355994        1.7042602321        1.1802381229
 C          4.4719205946        1.3478756358        0.0968685606
 C          4.7026805544       -0.0312183493       -0.5147335777
 C          3.6966731829       -0.3374435052       -1.6311400059
 C          2.2907022506       -0.3925106606       -1.1054288613
 C          1.8890368998       -1.4535043348       -0.3076986102
 C          0.5987876733       -1.5106201074        0.1978812318
 C         -0.3312978338       -0.5103105734       -0.0997136367
 C         -1.7582019215       -0.5916870362        0.3797312432
 C         -2.4481796323       -1.8934908921        0.0628890725
 C         -3.7450811511       -1.9858286924        0.3337832054
 C         -4.3937506633       -0.8077783253        1.0031363556
 C         -4.0162721651        0.5250661899        0.3202425588
 C         -2.6171534365        0.4871613653       -0.3052663634
 C         -1.8692750076        1.8303049158       -0.3385697077
 O         -0.6935568195        1.6560458503       -1.1335184425
 C          0.0978607044        0.5833092025       -0.8518341632
 C          1.3932598006        0.6292613255       -1.3593884798
 C         -2.6877176455        2.8964803813       -1.0678689574
 C         -1.4585826347        2.3354811471        1.0488472753
 C         -4.5879161573       -3.1804545929        0.0288098169
 O          0.2918823937       -2.5701714459        1.0004607778
 H          4.3352354926        0.9054789756        2.8203384456
 H          5.5842284660       -0.1904037609        2.2290658237
 H          6.0313835698        1.2017070109        3.2089956614
 H          5.3550024532        2.7539403615        1.4527313528
 H          6.5002709729        1.5961101283        0.7776120375
 H          4.5268567178        2.0972992207       -0.6968703278
 H          3.4655858865        1.3876751617        0.5191019561
 H          5.7151660491       -0.0809188605       -0.9231103523
 H          4.6114614330       -0.7954252500        0.2573636215
 H          3.7703503836        0.4288225867       -2.4048789664
 H          3.9520476598       -1.3007459387       -2.0791423327
 H          2.5668193466       -2.2560326571       -0.0640079192
 H         -1.7961459315       -0.4217175329        1.4680302258
 H         -1.9131867807       -2.6682818325       -0.4652955005
 H         -5.4781452456       -0.9196965086        1.0163399208
 H         -4.0571320864       -0.7746003503        2.0447785101
 H         -4.0814805122        1.3214484598        1.0625493876
 H         -4.7463800480        0.7447684457       -0.4592479566
 H         -2.7137104919        0.1807307492       -1.3547172591
 H          1.6764604460        1.4864175043       -1.9493213135
 H         -2.0654394681        3.7710719325       -1.2376027208
 H         -3.0176867951        2.5193583102       -2.0322287648
 H         -3.5537125604        3.1838132224       -0.4799416969
 H         -1.0088097935        3.3207614838        0.9519201219
 H         -2.3180046446        2.4083695799        1.7089192017
 H         -0.7217887598        1.6716344153        1.4946197847
 H         -5.3879181352       -2.9092765982       -0.6598619056
 H         -3.9934050549       -3.9718770391       -0.4204526964
 H         -5.0500548319       -3.5608541515        0.9398492251
 H         -0.6344408281       -2.5186574895        1.2677236344
  53
        -68.44556891
 C          6.8015959590        1.7388825662        0.8884990517
 C          5.3077195186        1.7625174404        1.1918978787
 C          4.4483676277        1.2460450401        0.0377530584
 C          4.6407601608       -0.2431353677       -0.2365232609
 C          3.6689667708       -0.7603507967       -1.3053825654
 C          2.2428060986       -0.6854440516       -0.8408181367
 C          1.7741171188       -1.5839242887        0.1059368947
 C          0.4642759493       -1.5179666519        0.5572490370
 C         -0.4168767665       -0.5544760649        0.0578959173
 C         -1.8623125139       -0.5113869018        0.4836539741
 C         -2.5886037309       -1.8255927415        0.3547598614
 C         -3.8973148497       -1.8316648236        0.5809268669
 C         -4.5258601675       -0.5402597241        1.0212912723
 C         -4.0725008473        0.6510692642        0.1491209671
 C         -2.6548373237        0.4658974205       -0.4038491799
 C         -1.8553452240        1.7603430716       -0.6264692479
 O         -0.6609056759        1.4188455854       -1.3346076273
 C          0.0793701868        0.3841035968       -0.8468894316
 C          1.3928182864        0.3045134867       -1.3008816573
 C         -2.6065889775        2.7177085014       -1.5524395448
 C         -1.4730723068        2.4737631255        0.6749755126
 C         -4.7726914650       -3.0333216722        0.4384765583
 O          0.0886611389       -2.4188920581        1.5103645000
 H          7.3603326799        2.1913915354        1.7049333542
 H          7.1580493524        0.7203485453        0.7596207749
 H          7.0134747805        2.2963903008       -0.0215105083
 H          5.1091855431        1.1628777494        2.0832584558
 H          5.0104239880        2.7904838944        1.4137158445
 H          4.6812275879        1.8136450699       -0.8665015167
 H          3.3971441701        1.4211278199        0.2776241817
 H          5.6614330106       -0.4287024727       -0.5751897701
 H          4.4835943290       -0.8016339787        0.6884971970
 H          3.7913852795       -0.1724407603       -2.2166923002
 H          3.9190002850       -1.7993053889       -1.5324830290
 H          2.4139928083       -2.3522934396        0.5097418106
 H         -1.9333974239       -0.1633367185        1.5269622846
 H         -2.0637422376       -2.6930574893       -0.0160813124
 H         -5.6134282368       -0.6147749960        1.0049148541
 H         -4.2283014444       -0.3480848639        2.0576168015
 H         -4.1323551831        1.5590260594        0.7504250889
 H         -4.7653875092        0.7656033240       -0.6849806827
 H         -2.7261313573       -0.0066758617       -1.3918730469
 H          1.7280459787        1.0398086080       -2.0151133991
 H         -3.4801720227        3.1262252245       -1.0543126460
 H         -1.9454512304        3.5315148831       -1.8380338179
 H         -2.9180680917        2.1976884411       -2.4544660019
 H         -0.7772554222        1.8695574534        1.2521025417
 H         -0.9835407116        3.4150004249        0.4364179156
 H         -2.3510786601        2.6813606940        1.2796406837
 H         -5.5353170768       -2.8540967359       -0.3192364105
 H         -4.1921258550       -3.9059628788        0.1502792778
 H         -5.2829438976       -3.2442740242        1.3783659482
 H         -0.8447208261       -2.2961515884        1.7244156175
  53
        -68.44556547
 C          6.5976243191       -0.9121491861       -1.7976153855
 C          5.0858068573       -1.1082696661       -1.8078637341
 C          4.3240152577        0.0304004573       -1.1294245178
 C          4.5667447710        0.1047868823        0.3757531573
 C          3.6925048405        1.1734221233        1.0452300784
 C          2.2344394979        0.8257030334        0.9568625765
 C          1.7056536269       -0.1588889041        1.7780637654
 C          0.3723106281       -0.5265922835        1.6742182078
 C         -0.4653617282        0.0781086351        0.7325337481
 C         -1.8998599677       -0.3525843218        0.5616228750
 C         -2.0853386750       -1.8350433038        0.3640125106
 C         -3.3049913828       -2.2703348904        0.0694388836
 C         -4.4100502248       -1.2531808055        0.0362063935
 C         -4.0130984063        0.0081226397       -0.7619558146
 C         -2.5083242648        0.2927475545       -0.6969735678
 C         -2.1087885977        1.7748392525       -0.7882081773
 O         -0.6869022583        1.8346758278       -0.9278877688
 C          0.0568573087        1.1134941311       -0.0427777475
 C          1.3993534815        1.4668300300        0.0592364133
 C         -2.6608613510        2.4156518238       -2.0621138690
 C         -2.5217566936        2.5952453376        0.4386157202
 C         -3.6462264944       -3.6962496536       -0.2152739646
 O         -0.0788536446       -1.4819780067        2.5372393705
 H          6.9873755900       -0.9308902162       -0.7833007240
 H          7.0853564960       -1.7043590195       -2.3614942604
 H          6.8601465620        0.0416539622       -2.2504919930
 H          4.7482480931       -1.1827262605       -2.8445215080
 H          4.8388630870       -2.0503082387       -1.3128706109
 H          3.2546731521       -0.1114050710       -1.3014823143
 H          4.6108545895        0.9791931317       -1.5894052662
 H          4.3473796110       -0.8665931745        0.8238323289
 H          5.6144566023        0.3395218652        0.5711918736
 H          3.9812178206        1.2546962536        2.0957201483
 H          3.8729009175        2.1369201500        0.5653751230
 H          2.3151087387       -0.6545133035        2.5168906792
 H         -2.4918741364       -0.0301265190        1.4335598378
 H         -1.2241316491       -2.4860771397        0.3590213254
 H         -5.3186122661       -1.6838994974       -0.3852368163
 H         -4.6371508139       -0.9580671221        1.0661314844
 H         -4.5789947683        0.8542579190       -0.3703960295
 H         -4.3033402444       -0.1242858688       -1.8046301908
 H         -2.0255378542       -0.1931847036       -1.5545407549
 H          1.7645293185        2.2601933013       -0.5734473671
 H         -3.7393712807        2.5217845825       -2.0012889084
 H         -2.2125029944        3.3970222814       -2.1918393227
 H         -2.4081255969        1.8073102218       -2.9264836272
 H         -2.2816902085        3.6417509998        0.2665312629
 H         -3.5881067856        2.5088039812        0.6258790339
 H         -1.9767391046        2.2658817866        1.3199562156
 H         -4.0442525084       -3.7920240788       -1.2253480204
 H         -2.7694566022       -4.3322044584       -0.1235099476
 H         -4.4111290500       -4.0485778876        0.4767963600
 H         -1.0083619131       -1.6705780904        2.3569985266
  53
        -68.44555049
 C          6.6401216409       -0.9724573745       -1.7287542376
 C          5.1564118720       -1.3043757902       -1.6157889361
 C          4.5102159859       -0.7594692793       -0.3419225291
 C          4.4424316397        0.7649814057       -0.3056192279
 C          3.6787479843        1.2758421833        0.9232336432
 C          2.2308848879        0.8804776073        0.8754696383
 C          1.7468720681       -0.1536768509        1.6602887616
 C          0.4169013678       -0.5434570708        1.5762501286
 C         -0.4590777531        0.0874020637        0.6896535067
 C         -1.8900243355       -0.3627326220        0.5401289702
 C         -2.0555977571       -1.8375438925        0.2781454520
 C         -3.2763198186       -2.2815029205        0.0012726367
 C         -4.3990318255       -1.2845237588        0.0497419926
 C         -4.0489196567        0.0185859696       -0.7016899220
 C         -2.5482194481        0.3293900266       -0.6675739661
 C         -2.1789733203        1.8217654718       -0.6993306089
 O         -0.7633625426        1.9166292165       -0.8774654899
 C          0.0204440161        1.1698802521       -0.0498813849
 C          1.3563793390        1.5466116069        0.0333019210
 C         -2.7808180221        2.5106523763       -1.9247261401
 C         -2.5699664199        2.5749550150        0.5768323764
 C         -3.6020620521       -3.6987125581       -0.3394099961
 O          0.0116567682       -1.5498669155        2.4032167348
 H          7.0690763946       -1.4515240541       -2.6062765178
 H          6.7950210986        0.0993847482       -1.8201170529
 H          7.1762492192       -1.3249508111       -0.8500488455
 H          4.6281537124       -0.9056030495       -2.4849478321
 H          5.0376488985       -2.3906303648       -1.6281245865
 H          5.0689724555       -1.1175013059        0.5261992440
 H          3.4941333337       -1.1534092638       -0.2678709603
 H          5.4513925947        1.1804154800       -0.2859257432
 H          3.9447632160        1.1245306095       -1.2087142891
 H          4.1421051744        0.8746850348        1.8262444751
 H          3.7545254690        2.3651838803        0.9547178012
 H          2.3867287656       -0.6750857142        2.3542065675
 H         -2.4608253863       -0.0931023081        1.4435804907
 H         -1.1838241155       -2.4713253105        0.2156922414
 H         -5.3133702482       -1.7121124651       -0.3623139305
 H         -4.5977250361       -1.0404799245        1.0987233192
 H         -4.6182581303        0.8351566680       -0.2560897753
 H         -4.3677623902       -0.0728882787       -1.7404074588
 H         -2.0828187755       -0.1057848674       -1.5612345621
 H          1.6880093731        2.3792351899       -0.5666910622
 H         -2.5427176601        1.9490477012       -2.8241880968
 H         -3.8588145352        2.5921096504       -1.8277173440
 H         -2.3549974118        3.5058791930       -2.0203077727
 H         -2.3542134761        3.6329315548        0.4481057248
 H         -3.6285051552        2.4589593735        0.7905414672
 H         -1.9930120259        2.2150491641        1.4253022128
 H         -4.3380019891       -4.0970119318        0.3591172634
 H         -4.0309483382       -3.7548883460       -1.3397969875
 H         -2.7120128554       -4.3218083950       -0.3053622452
 H         -0.9189320995       -1.7495933419        2.2412632837
  53
        -68.44553279
 C          6.6492435653       -1.5310207557        0.0948947203
 C          6.6372683666       -0.0630277126       -0.3146077311
 C          5.6343897446        0.2450240584       -1.4278770881
 C          4.1735509728       -0.0371900850       -1.0761977949
 C          3.6534833517        0.8137848760        0.0882372902
 C          2.1892024342        0.5598928795        0.2962778658
 C          1.7655229038       -0.4621794608        1.1307159447
 C          0.4145194333       -0.7422912780        1.2788150319
 C         -0.5492366755       -0.0242601980        0.5655787617
 C         -2.0210119828       -0.3622307523        0.6316240902
 C         -2.3381592843       -1.8100875696        0.3396518406
 C         -3.5175177505       -2.1963393090       -0.1280767373
 C         -4.6290827124       -1.2331103587       -0.4462719190
 C         -4.2936768650        0.2263982169       -0.1227505824
 C         -2.8114447638        0.4685092330       -0.3870396219
 C         -2.3342319265        1.9273894167       -0.3956829046
 O         -0.9681140342        1.9252247307       -0.8221813238
 C         -0.1186169516        1.0629804301       -0.1976240736
 C          1.2383066721        1.3318119940       -0.3472665009
 C         -3.0699321510        2.7583401647       -1.4484438348
 C         -2.4415457775        2.6096755861        0.9719264293
 C         -3.8278988048       -3.6337506244       -0.4180398993
 O          0.0856831951       -1.7293620348        2.1638692076
 H          7.4472397716       -1.7162720810        0.8107281853
 H          5.7082578359       -1.8157084410        0.5578312067
 H          6.8127157902       -2.1668434887       -0.7728510410
 H          6.4231704433        0.5568014456        0.5575828549
 H          7.6334570622        0.2122327290       -0.6704855928
 H          5.8972557210       -0.3485028802       -2.3074538098
 H          5.7327372595        1.2988916803       -1.7012013614
 H          3.5596295146        0.1709349881       -1.9559367814
 H          4.0435434818       -1.0925569443       -0.8335547183
 H          4.1984631279        0.5629550495        0.9987006401
 H          3.8207578048        1.8687919523       -0.1373130082
 H          2.4711871018       -1.0539214449        1.6919382375
 H         -2.3965095402       -0.1244441274        1.6419344209
 H         -1.5601678083       -2.5453974208        0.4867553120
 H         -4.8457450798       -1.3264832409       -1.5159198465
 H         -5.5361322610       -1.5346881686        0.0850524049
 H         -4.5175464837        0.4350756882        0.9254223465
 H         -4.9146026477        0.8812230233       -0.7343267070
 H         -2.5745804849        0.0760437236       -1.3845899915
 H          1.5249398093        2.1672740498       -0.9661682125
 H         -3.1153364555        2.2208298385       -2.3919575842
 H         -4.0763151878        2.9956374983       -1.1178688428
 H         -2.5239250110        3.6843013702       -1.6082013175
 H         -3.4618893361        2.5598788847        1.3414332767
 H         -1.7745630235        2.1406736156        1.6911086508
 H         -2.1524010141        3.6536701629        0.8769524539
 H         -4.6769549042       -3.9653851337        0.1795626593
 H         -4.0946908101       -3.7591752497       -1.4670940413
 H         -2.9760296093       -4.2713287884       -0.1970356041
 H         -0.8725880433       -1.7810229658        2.2556706755
  53
        -68.44551023
 C          6.1734054770        1.9054389516       -1.6265343157
 C          6.4958030390        0.5613855658       -0.9840912656
 C          5.9428664718        0.4227210645        0.4354630710
 C          4.4206379646        0.5118213140        0.5461128994
 C          3.6899891548       -0.6071443268       -0.2053044383
 C          2.2122304490       -0.5193687994        0.0425301659
 C          1.6463186098       -1.1362268630        1.1468111824
 C          0.2838847693       -1.0395553448        1.3913634876
 C         -0.5545663511       -0.3443477244        0.5155449582
 C         -2.0548582227       -0.3035966008        0.6948961204
 C         -2.6982727736       -1.6628170219        0.8385053378
 C         -3.9654970505       -1.8842844889        0.5160313502
 C         -4.8644179887       -0.8210250821       -0.0549186798
 C         -4.1985676522        0.5538537424       -0.1713080578
 C         -2.7237744317        0.3672355592       -0.5113720615
 C         -1.9458123257        1.6164568848       -0.9476042524
 O         -0.6491058487        1.1836451276       -1.3711470371
 C          0.0392954052        0.3566144822       -0.5360244604
 C          1.4051367697        0.2487020810       -0.7779931400
 C         -2.5642273709        2.2652276012       -2.1872921783
 C         -1.7980392636        2.6594106777        0.1650277490
 C         -4.5995620092       -3.2348683526        0.6586413414
 O         -0.1795215052       -1.6362008854        2.5293018527
 H          6.6753431462        1.9942775625       -2.5876592711
 H          5.1049306103        2.0131747931       -1.7930081562
 H          6.5069663733        2.7217566188       -0.9890458708
 H          6.1099818307       -0.2440071900       -1.6112610563
 H          7.5815853476        0.4438976224       -0.9374532138
 H          6.3796098655        1.2083705378        1.0576642502
 H          6.2688631444       -0.5380613079        0.8423927103
 H          4.1470654964        0.4533978248        1.6024333253
 H          4.0736178690        1.4771133619        0.1752266898
 H          3.8832958259       -0.5192523762       -1.2746792268
 H          4.0669880387       -1.5726976214        0.1376755482
 H          2.2492815316       -1.6999233078        1.8408117878
 H         -2.2909371335        0.2863827090        1.5973267107
 H         -2.0881988552       -2.4853414135        1.1831859091
 H         -5.1771335064       -1.1573753668       -1.0493478803
 H         -5.7718018212       -0.7466745962        0.5509943531
 H         -4.2909918769        1.0921692509        0.7742318455
 H         -4.7089706462        1.1356777182       -0.9390032942
 H         -2.6543471470       -0.3317528038       -1.3550596463
 H          1.8151987663        0.7857336468       -1.6187304980
 H         -3.4673913990        2.8087171418       -1.9278769787
 H         -1.8457262536        2.9594782233       -2.6148884657
 H         -2.7968803788        1.5106339897       -2.9340461730
 H         -1.2996852386        3.5408660934       -0.2315673981
 H         -2.7736266909        2.9487260646        0.5452991755
 H         -1.1940341862        2.2706567437        0.9812043998
 H         -5.4495228112       -3.1836811403        1.3390157390
 H         -4.9699307573       -3.5829274517       -0.3052028453
 H         -3.8897267015       -3.9628834228        1.0421828628
 H         -1.1157083452       -1.4375491989        2.6453518345
  53
        -68.44543924
 C          3.0934519261        3.0809646878        1.4148449142
 C          3.5384592364        1.6266629971        1.3207574970
 C          4.5611093559        1.4226367690        0.2034958827
 C          4.9077003035       -0.0505645663       -0.0377990010
 C          4.0285118738       -0.7179151194       -1.1067687227
 C          2.5741255886       -0.7049974119       -0.7384905198
 C          2.0893043662       -1.5852864301        0.2176766522
 C          0.7567607856       -1.5487966535        0.6014392827
 C         -0.1284469585       -0.6315118639        0.0275007459
 C         -1.5882952446       -0.6059990226        0.4020094533
 C         -2.2844373008       -1.9379766879        0.2918551574
 C         -3.5997754424       -1.9627901591        0.4741104786
 C         -4.2678000970       -0.6718300378        0.8542665812
 C         -3.8055261099        0.5052910351       -0.0328512120
 C         -2.3706963053        0.3264518624       -0.5407283572
 C         -1.5853039586        1.6252950055       -0.7868931445
 O         -0.3697030758        1.2759796919       -1.4540703157
 C          0.3780736555        0.2825522715       -0.8967102231
 C          1.7111693190        0.2249835984       -1.2913502844
 C         -2.3270447807        2.5399156112       -1.7621473666
 C         -1.2435617263        2.3871658794        0.4983411378
 C         -4.4471650651       -3.1853742795        0.3399929639
 O          0.3640832353       -2.4252365593        1.5700811782
 H          3.9471676671        3.7351891969        1.5810419961
 H          2.6027001430        3.3847815465        0.4926968165
 H          2.3928985652        3.2158431562        2.2360866622
 H          3.9810904645        1.3184231883        2.2711819115
 H          2.6679115301        0.9963769125        1.1395408994
 H          5.4699749550        1.9705942807        0.4652207660
 H          4.1738648266        1.8574413348       -0.7197471823
 H          5.9463943741       -0.1290947446       -0.3673721229
 H          4.8158140368       -0.6010746449        0.9001168731
 H          4.1698975293       -0.1980236339       -2.0561225349
 H          4.3621987739       -1.7508088880       -1.2314637507
 H          2.7367179732       -2.3077540273        0.6884279130
 H         -1.7005365907       -0.2267211010        1.4308050289
 H         -1.7309797032       -2.8060809676       -0.0334078531
 H         -5.3524063581       -0.7686094685        0.8006910202
 H         -4.0123940164       -0.4464013389        1.8951075913
 H         -3.8935997799        1.4261925592        0.5449279804
 H         -4.4757138666        0.5912020491       -0.8886444545
 H         -2.4072802445       -0.1807177549       -1.5134144240
 H          2.0533382447        0.9398339159       -2.0225730263
 H         -1.6709338747        3.3537819288       -2.0590285974
 H         -2.6092933374        1.9857794928       -2.6534313605
 H         -3.2180264672        2.9516253223       -1.2986465378
 H         -0.5502832078        1.8149187271        1.1100639824
 H         -0.7643664375        3.3285026173        0.2399823766
 H         -2.1381493650        2.5991406354        1.0766621041
 H         -4.9858584815       -3.3771216279        1.2680368836
 H         -5.1861003004       -3.0446602797       -0.4486974982
 H         -3.8408206454       -4.0549363961        0.0994953689
 H         -0.5821691338       -2.3264471329        1.7344344017
  53
        -68.44542771
 C          8.0353866372       -0.3018432334       -0.5223183063
 C          6.5674235778       -0.4604364393       -0.1445603948
 C          5.6447773744        0.0267143120       -1.2598212420
 C          4.1630653103       -0.2151328602       -0.9743411931
 C          3.6214134519        0.6356190574        0.1808169592
 C          2.1443508846        0.4171451975        0.3341674639
 C          1.6664799640       -0.6021208362        1.1427272077
 C          0.3041214465       -0.8464955154        1.2417357468
 C         -0.6144281183       -0.0808893308        0.5185577285
 C         -2.0927397833       -0.3729468555        0.5637138860
 C         -2.4528818287       -1.8069744784        0.2720265825
 C         -3.7412052859       -2.1085989695        0.1578627137
 C         -4.7313838953       -1.0067761269        0.4077743356
 C         -4.3507430260        0.2936115737       -0.3335806517
 C         -2.8354901181        0.4462390369       -0.5077018419
 C         -2.3131823521        1.8921550465       -0.5370314390
 O         -0.9354238138        1.8497686296       -0.9175594549
 C         -0.1291183949        0.9827058892       -0.2433264385
 C          1.2391974865        1.2126620605       -0.3462965785
 C         -3.0037929100        2.7040235966       -1.6334897613
 C         -2.4338597781        2.6124091128        0.8103402732
 C         -4.2630388135       -3.4647922075       -0.1873972178
 O         -0.0888223971       -1.8467192300        2.0819606923
 H          8.2645164238       -0.8769808381       -1.4170934730
 H          8.2670375070        0.7427223447       -0.7199893339
 H          8.6789327855       -0.6493149095        0.2826750358
 H          6.3576483885       -1.5126711551        0.0610887791
 H          6.3728839128        0.1035368892        0.7690478751
 H          5.9098214176       -0.4947679796       -2.1832735694
 H          5.8116741880        1.0938242164       -1.4256786756
 H          3.5859970777        0.0182337193       -1.8722529036
 H          4.0023248717       -1.2707245804       -0.7447861481
 H          4.1284345220        0.3625802629        1.1066547728
 H          3.8215611180        1.6883640132       -0.0276044951
 H          2.3387001106       -1.2218486499        1.7144798847
 H         -2.4974393668       -0.0951061162        1.5504679207
 H         -1.6724170033       -2.5218336779        0.0590561299
 H         -5.7350839766       -1.3161357257        0.1153720161
 H         -4.7542475346       -0.8021412283        1.4833953043
 H         -4.7580356376        1.1380945638        0.2236114829
 H         -4.8216962313        0.2937627049       -1.3170116111
 H         -2.5516407797        0.0135676429       -1.4756032197
 H          1.5718127533        2.0343196670       -0.9606277828
 H         -4.0413036080        2.8917274507       -1.3755521577
 H         -2.4886525650        3.6533194599       -1.7535657647
 H         -2.9598739453        2.1692554753       -2.5786083608
 H         -1.7839266141        2.1509037212        1.5498474155
 H         -2.1252843125        3.6482622246        0.6912944808
 H         -3.4572464137        2.5934071494        1.1736422391
 H         -3.4496967379       -4.1759682167       -0.3069118881
 H         -4.9330417712       -3.8236087423        0.5939620914
 H         -4.8308674680       -3.4225687767       -1.1167205345
 H         -1.0492881206       -1.9396191871        2.0505000504
  53
        -68.44542258
 C          8.1017678459        0.0651833147       -0.1995620679
 C          6.6240766375       -0.2252072952        0.0344591668
 C          5.7745233443        1.0358618499       -0.1085710361
 C          4.2993940125        0.8179235134        0.2261037712
 C          3.5743635044       -0.0788680163       -0.7846332848
 C          2.1152670029       -0.1715803814       -0.4440729119
 C          1.6627768916       -1.1362227957        0.4423539548
 C          0.3189710267       -1.2115449828        0.7800394770
 C         -0.6083288252       -0.3244849118        0.2266643295
 C         -2.0816501007       -0.4360355110        0.5258879425
 C         -2.6593814401       -1.8099262405        0.3025743461
 C         -3.9754286087       -1.9510256454        0.4118502558
 C         -4.7656633524       -0.7424791855        0.8264209176
 C         -4.3605940980        0.5163232875        0.0283838422
 C         -2.8901889265        0.4874632182       -0.4037129323
 C         -2.2073680635        1.8597681957       -0.5252594301
 O         -0.9304279230        1.6583214107       -1.1364865210
 C         -0.1338559738        0.6859481476       -0.6106768847
 C          1.2134330673        0.7469209961       -0.9522642751
 C         -2.9701662447        2.7698576002       -1.4886807292
 C         -2.0072382469        2.5637872417        0.8212649880
 C         -4.7108641198       -3.2270227801        0.1634103700
 O         -0.0438420054       -2.1721350163        1.6781224474
 H          8.2576212144        0.4653307406       -1.1992664014
 H          8.4671695404        0.7946718688        0.5203411047
 H          8.6923793927       -0.8424679458       -0.0977334549
 H          6.2922299853       -0.9778764252       -0.6824282117
 H          6.4898027925       -0.6367558419        1.0375196062
 H          5.8614886803        1.4155009848       -1.1295446987
 H          6.1731642148        1.8016565534        0.5620029805
 H          4.2115630624        0.3762850833        1.2211340004
 H          3.7941718064        1.7864123059        0.2500299246
 H          3.6952215617        0.3411084040       -1.7850099605
 H          4.0146641837       -1.0762110103       -0.7714475033
 H          2.3410470204       -1.8475736427        0.8859482912
 H         -2.2749062630       -0.1304646246        1.5670204306
 H         -2.0203978451       -2.6096550473       -0.0404678856
 H         -5.8348244920       -0.9222056298        0.7114599834
 H         -4.5791791993       -0.5573862276        1.8896014925
 H         -4.5600519971        1.3930621178        0.6457021652
 H         -4.9888263594        0.5924559625       -0.8595622366
 H         -2.8309307638        0.0421636587       -1.4051006971
 H          1.5341536383        1.5315545548       -1.6191061802
 H         -3.9179314265        3.0760941171       -1.0572738373
 H         -2.3711113991        3.6523137173       -1.6968711949
 H         -3.1531675051        2.2518705702       -2.4263766524
 H         -1.5975923895        3.5561947345        0.6487545469
 H         -2.9483846684        2.6633638384        1.3541483193
 H         -1.3033842648        2.0123481572        1.4399419533
 H         -4.0234272054       -4.0287847016       -0.0938765599
 H         -5.2757609170       -3.5178111060        1.0491659278
 H         -5.4201452892       -3.0979238294       -0.6539596954
 H         -0.9995356714       -2.1473159723        1.8128440562
  53
        -68.44541807
 C          7.8336442013        0.5421032835       -1.3544857632
 C          6.3199725984        0.6306819178       -1.2010031369
 C          5.7423536731       -0.6429442060       -0.5871831128
 C          4.2157385421       -0.6476959191       -0.5168972852
 C          3.6508964111        0.3796206734        0.4716137249
 C          2.1583652280        0.2462273790        0.5581701750
 C          1.5819763813       -0.6217115073        1.4721911010
 C          0.2054557553       -0.7920066378        1.5147915926
 C         -0.6281894881       -0.1047498637        0.6284565213
 C         -2.1192858817       -0.3265490486        0.6161145761
 C         -2.5322371609       -1.7721420075        0.5121471188
 C         -3.8246793772       -2.0350044885        0.3563043430
 C         -4.7719620608       -0.8691461138        0.3759817966
 C         -4.2823667723        0.2904662515       -0.5190450524
 C         -2.7535814597        0.3543612028       -0.6105553374
 C         -2.1590597339        1.7577564085       -0.8139486420
 O         -0.7645383270        1.6039145840       -1.0905512748
 C         -0.0449332905        0.8136512119       -0.2454186365
 C          1.3369466270        0.9693802871       -0.2889167944
 C         -2.7404119258        2.4258495700       -2.0605433466
 C         -2.3254212503        2.6735653798        0.4035686728
 C         -4.3915732327       -3.4052103536        0.1773031838
 O         -0.2871660087       -1.6395612725        2.4633983831
 H          8.2300599020        1.4570924238       -1.7888992309
 H          8.3062751666        0.3893563524       -0.3864641840
 H          8.1046556372       -0.2899449910       -2.0011310933
 H          6.0764521317        1.4879056746       -0.5713606644
 H          5.8650965771        0.7954004880       -2.1805404346
 H          6.1510603999       -0.7767062367        0.4174099733
 H          6.0646162166       -1.4964347397       -1.1894192018
 H          3.8030516258       -0.4510526848       -1.5088324751
 H          3.8780161224       -1.6405989895       -0.2106461071
 H          4.0961983385        0.2110505026        1.4540171058
 H          3.9087572546        1.3862826497        0.1417040834
 H          2.1864051265       -1.1775946254        2.1711485819
 H         -2.5687202215        0.1105950785        1.5225496771
 H         -1.7769669424       -2.5416935994        0.4584546096
 H         -5.7701861693       -1.1775761172        0.0644454555
 H         -4.8500678186       -0.5065530085        1.4064219107
 H         -4.6803819603        1.2240025191       -0.1195244128
 H         -4.6917106677        0.1636557208       -1.5216972832
 H         -2.4331417898       -0.2278455041       -1.4840101285
 H          1.7470323186        1.6768904949       -0.9920308802
 H         -2.6654722825        1.7559767509       -2.9130464077
 H         -3.7811534847        2.6909509727       -1.9032175333
 H         -2.1724901784        3.3255883458       -2.2816985399
 H         -1.9589385248        3.6671247013        0.1567078532
 H         -3.3686846701        2.7498397996        0.6958488403
 H         -1.7455109517        2.3006639748        1.2443466205
 H         -5.1254546530       -3.6165766418        0.9550551205
 H         -4.8983172060       -3.4785564120       -0.7848016765
 H         -3.6090736718       -4.1585836124        0.2183574088
 H         -1.2475339163       -1.6960662786        2.3821820974
  53
        -68.44534955
 C          7.9172499740       -0.5518309732       -1.6321586220
 C          6.4135106928       -0.7844889534       -1.5511798398
 C          5.7566331355        0.1046238764       -0.4980559978
 C          4.2495523412       -0.1205149979       -0.4166882641
 C          3.5916166890        0.7749291396        0.6394032416
 C          2.1100230679        0.5374265299        0.6805290804
 C          1.5732369805       -0.4269905617        1.5226741445
 C          0.2120945430       -0.6909445162        1.5203030724
 C         -0.6490838402       -0.0050033330        0.6611085085
 C         -2.1159296930       -0.3290627659        0.6032229645
 C         -2.4184904964       -1.7898579714        0.4196413545
 C         -3.6804436478       -2.1365732716        0.2038287882
 C         -4.7168840810       -1.0478521487        0.2398392011
 C         -4.2897048431        0.1979012955       -0.5646222914
 C         -2.7679265055        0.3765319547       -0.5986675218
 C         -2.2768379498        1.8295002341       -0.7029907881
 O         -0.8650821636        1.8001772130       -0.9423901640
 C         -0.1125033753        1.0058824802       -0.1355279477
 C          1.2579853618        1.2567974030       -0.1359125082
 C         -2.8699788736        2.5278863721       -1.9274054386
 C         -2.5447560586        2.6557110233        0.5591597922
 C         -4.1421677762       -3.5363829338       -0.0459061420
 O         -0.3237843813       -1.6187423072        2.3679281224
 H          8.3887747861       -0.7661823455       -0.6753726218
 H          8.3649520388       -1.1943492406       -2.3868428332
 H          8.1294169405        0.4828877975       -1.8927191025
 H          5.9617800455       -0.5822311877       -2.5249737001
 H          6.2206592824       -1.8323359744       -1.3095111135
 H          5.9526205451        1.1522739591       -0.7388994519
 H          6.2069818646       -0.0990823190        0.4767396057
 H          3.7951513050        0.0851483971       -1.3882028505
 H          4.0482271114       -1.1666378476       -0.1744694152
 H          4.0324522128        0.5612810225        1.6155558183
 H          3.7921645861        1.8198500216        0.3957710533
 H          2.2200719500       -0.9784671219        2.1932874921
 H         -2.5982048708        0.0093119270        1.5310299544
 H         -1.6092839555       -2.4999975300        0.4117851524
 H         -5.6748353887       -1.4136066402       -0.1318527143
 H         -4.8621533139       -0.7549417678        1.2848247057
 H         -4.7673793516        1.0735097944       -0.1229445887
 H         -4.6581241150        0.1070882299       -1.5872816426
 H         -2.3818513781       -0.1275710897       -1.4941796406
 H          1.6331242776        2.0348368600       -0.7816359301
 H         -2.3681338074        3.4805046164       -2.0754473066
 H         -2.7178799843        1.9192119657       -2.8148100613
 H         -3.9324693037        2.7023929062       -1.7908726368
 H         -2.2322220885        3.6834098492        0.3886517754
 H         -3.6010156578        2.6495948265        0.8112505901
 H         -1.9765694594        2.2636784570        1.3989398395
 H         -3.3075894300       -4.2314564356       -0.0067741642
 H         -4.8797189636       -3.8313091499        0.7005979419
 H         -4.6142447118       -3.6095528044       -1.0259583486
 H          0.3819642637       -2.0022720764        2.9018426243
  53
        -68.44533637
 C          8.1268812262        1.2315682198        0.0967568389
 C          6.6518927282        1.2390228613        0.4791403610
 C          5.8262717830        0.3238922021       -0.4219959796
 C          4.3473027860        0.3320119443       -0.0463403592
 C          3.5193029785       -0.5869885112       -0.9518672856
 C          2.0702501841       -0.5464629281       -0.5614953864
 C          1.5751259544       -1.4171531440        0.3998573039
 C          0.2436354691       -1.3659600693        0.7829825743
 C         -0.6329133296       -0.4447444815        0.2055145823
 C         -2.0932196172       -0.4263864135        0.5622984921
 C         -2.7689921856       -1.7655886780        0.4671094663
 C         -4.0865114960       -1.8040046331        0.6151884042
 C         -4.7873254860       -0.5153055075        0.9452583979
 C         -4.3161486640        0.6547188607        0.0561675593
 C         -2.8640196557        0.4888431377       -0.4050060542
 C         -2.0930938027        1.7980171112       -0.6391169692
 O         -0.8484470295        1.4692245999       -1.2666892219
 C         -0.1129502790        0.4717245418       -0.7078350077
 C          1.2231643517        0.4052207705       -1.0970134928
 C         -2.8170059051        2.6945139236       -1.6445898067
 C         -1.8040687942        2.5742458130        0.6498780353
 C         -4.9146112647       -3.0435357318        0.5020301750
 O         -0.2424750587       -2.2070280992        1.7435617201
 H          8.2566860612        1.5714642282       -0.9285063562
 H          8.6962828843        1.8881956137        0.7505352997
 H          8.5370908840        0.2271389679        0.1775832367
 H          6.5443039460        0.9155696944        1.5171363757
 H          6.2638480906        2.2578017087        0.4095445571
 H          6.2129821306       -0.6958189884       -0.3505629737
 H          5.9368643771        0.6462121507       -1.4601712528
 H          4.2317727367        0.0104413587        0.9913923089
 H          3.9559915002        1.3488763684       -0.1206328323
 H          3.6316005448       -0.2625473212       -1.9879300397
 H          3.8996601979       -1.6074858312       -0.8704934452
 H          2.2315289009       -2.1477002639        0.8555751466
 H         -2.2101879969       -0.0531288935        1.5894022635
 H         -2.1833540150       -2.6370793710        0.2290544588
 H         -5.8684637203       -0.6298484736        0.8579860297
 H         -4.5679935031       -0.2697286685        1.9895362930
 H         -4.4353187760        1.5828660115        0.6167900856
 H         -4.9607246994        0.7192674861       -0.8214012317
 H         -2.8670416376       -0.0260434625       -1.3745260745
 H          1.5786289641        1.1189804721       -1.8231320041
 H         -2.1655948184        3.5179704335       -1.9253561369
 H         -3.0606687902        2.1298738441       -2.5406362121
 H         -3.7297764468        3.0933433908       -1.2135669780
 H         -1.3179394361        3.5149039962        0.4013024424
 H         -2.7218628314        2.7879168087        1.1895642836
 H         -1.1365561035        2.0076452527        1.2941931607
 H         -4.2890667849       -3.9094131527        0.3017224278
 H         -5.4671867761       -3.2160279210        1.4256937596
 H         -5.6406429292       -2.9408103662       -0.3048276210
 H          0.4707078363       -2.7782381470        2.0522827251
  53
        -68.44529049
 C          6.5775702121       -1.8541660705       -1.3099490781
 C          6.5448400386       -0.3497372025       -1.5529803109
 C          5.8228211825        0.4226802858       -0.4483133990
 C          4.3231104750        0.1423792367       -0.3982904221
 C          3.6188017135        1.0073062748        0.6534678200
 C          2.1503739938        0.6985367222        0.6838112036
 C          1.6657932199       -0.3260839538        1.4817300290
 C          0.3183692663       -0.6571456043        1.4668549653
 C         -0.5765477593        0.0242991185        0.6375091371
 C         -2.0307397105       -0.3652074068        0.5584305312
 C         -2.2685001740       -1.8280285095        0.2848424636
 C         -3.5181823598       -2.2193073335        0.0635756121
 C         -4.5967140517       -1.1804333740        0.1834514380
 C         -4.2335483588        0.1215720341       -0.5638494827
 C         -2.7216855835        0.3709969884       -0.6040232333
 C         -2.2933793062        1.8474504516       -0.6359882181
 O         -0.8862941139        1.8871349307       -0.8878231460
 C         -0.0918868169        1.0954114159       -0.1141406563
 C          1.2629105583        1.4123533551       -0.1021727247
 C         -2.9297338206        2.5792460907       -1.8182980710
 C         -2.5852295732        2.5961773735        0.6689739355
 C         -3.9161900280       -3.6170279499       -0.2810394071
 O         -0.0858491684       -1.6563100638        2.3030468043
 H          5.5756288252       -2.2743874500       -1.3291642598
 H          7.1665628390       -2.3482496059       -2.0796242461
 H          7.0252641159       -2.0732873457       -0.3428338746
 H          7.5717453434        0.0181309077       -1.6206350303
 H          6.0583316562       -0.1475063471       -2.5099752379
 H          5.9740378990        1.4925993804       -0.6139297859
 H          6.2703495047        0.1726409366        0.5166976601
 H          3.8807786332        0.3426961212       -1.3767613074
 H          4.1455041531       -0.9071874472       -0.1605418858
 H          4.0603716247        0.8095672169        1.6322171564
 H          3.7727599570        2.0612621967        0.4141696563
 H          2.3205614690       -0.8827549916        2.1330732108
 H         -2.5426879567       -0.0872550162        1.4939990407
 H         -1.4268972698       -2.4942150765        0.1690255443
 H         -5.5463254278       -1.5651095965       -0.1892056671
 H         -4.7338118741       -0.9477650168        1.2447895831
 H         -4.7446400098        0.9519381199       -0.0751787657
 H         -4.6097004709        0.0624846811       -1.5856044352
 H         -2.3214379716       -0.0690152965       -1.5264002815
 H          1.5977366864        2.2360255061       -0.7125416410
 H         -2.7628171647        2.0222356317       -2.7364303033
 H         -3.9968336727        2.7030005995       -1.6629512659
 H         -2.4685987270        3.5576473108       -1.9233381966
 H         -1.9793478014        2.2005082257        1.4805409727
 H         -2.3335436081        3.6464957129        0.5427907192
 H         -3.6348565169        2.5194131414        0.9373942872
 H         -4.6319068244       -3.9981175391        0.4474491966
 H         -4.3957547455       -3.6399076296       -1.2594787197
 H         -3.0508518764       -4.2745996833       -0.3006731083
 H         -1.0316690845       -1.8131210851        2.1893749967
  53
        -68.44528249
 C          6.3369408665       -0.6524996183       -2.5510080382
 C          6.6338448616       -0.7841198221       -1.0618109646
 C          5.8592200093        0.2161140261       -0.2029903415
 C          4.3550728371       -0.0437702675       -0.1820835787
 C          3.6286497763        0.9110754686        0.7723178335
 C          2.1538627852        0.6324391026        0.7705864462
 C          1.6186829222       -0.3150689942        1.6291215470
 C          0.2649959101       -0.6178177794        1.5931765738
 C         -0.5855401201        0.0147074968        0.6823558739
 C         -2.0464956352       -0.3449871630        0.5875461677
 C         -2.3160035459       -1.8187228578        0.4242244755
 C         -3.5693304335       -2.1950563267        0.1974058670
 C         -4.6216475141       -1.1229436692        0.2012685740
 C         -4.2015310017        0.1037353219       -0.6379129019
 C         -2.6829509880        0.3121148447       -0.6509793055
 C         -2.2142156003        1.7702882933       -0.7867614705
 O         -0.7996903222        1.7551529335       -0.9961807388
 C         -0.0503579252        1.0109218611       -0.1351665748
 C          1.3105473753        1.2986957734       -0.1011645636
 C         -2.7954309553        2.4198726538       -2.0431365264
 C         -2.5244089436        2.6285256201        0.4444659355
 C         -3.9962328123       -3.6054369615       -0.0459084262
 O         -0.1904942276       -1.5380905327        2.4911883161
 H          5.2990549910       -0.8930741033       -2.7645887797
 H          6.5325270393        0.3628876578       -2.8891845042
 H          6.9663346384       -1.3308654727       -3.1228852260
 H          6.3973756280       -1.7986904471       -0.7331310411
 H          7.7031999364       -0.6260269156       -0.9008587076
 H          6.0468939911        1.2276179426       -0.5713421008
 H          6.2376967367        0.1635011762        0.8212323571
 H          3.9382682018        0.0805840515       -1.1824080302
 H          4.1666088572       -1.0725274530        0.1328448122
 H          4.0288491969        0.7838295723        1.7801979575
 H          3.8130083125        1.9399942833        0.4575370103
 H          2.2378370305       -0.8312328913        2.3453664270
 H         -2.5782294534        0.0197794214        1.4813603921
 H         -1.4899820187       -2.5129240175        0.3877258881
 H         -5.5710829674       -1.5123681875       -0.1668652561
 H         -4.7810819014       -0.8008328876        1.2357629658
 H         -4.7042147548        0.9836865229       -0.2348083001
 H         -4.5491790845       -0.0300098855       -1.6626957063
 H         -2.2681210666       -0.2103161539       -1.5225118641
 H          1.6849568966        2.0636775207       -0.7627167713
 H         -2.3053516191        3.3751585956       -2.2110765814
 H         -2.6163699030        1.7869241777       -2.9082244828
 H         -3.8629521258        2.5815999047       -1.9319996482
 H         -3.5832093851        2.5992650411        0.6847466007
 H         -1.9537488240        2.2846662994        1.3037612288
 H         -2.2409112441        3.6588376749        0.2431232643
 H         -3.1490755682       -4.2840523868        0.0121319756
 H         -4.7413950616       -3.9083304348        0.6897291648
 H         -4.4498809956       -3.6948865394       -1.0328366584
 H         -1.1355521105       -1.6834472214        2.3572849215
  53
        -68.44526949
 C          6.8658100779        0.9925344165        1.6425257005
 C          6.7126500606        1.4217622033        0.1880319348
 C          5.8675818477        0.4529640503       -0.6398518102
 C          4.3989487070        0.4259556458       -0.2240425203
 C          3.5636122972       -0.4632773458       -1.1523272756
 C          2.1262605089       -0.4734414791       -0.7197004404
 C          1.6678177745       -1.4239369801        0.1785952020
 C          0.3442034205       -1.4218419788        0.5959966138
 C         -0.5560471072       -0.4674701360        0.1150277302
 C         -2.0133740318       -0.4935400598        0.5001434573
 C         -2.6891498974       -1.8233753672        0.2853670936
 C         -4.0031119315       -1.8846302966        0.4684653739
 C         -4.6903416780       -0.6393640769        0.9522947912
 C         -4.2519960326        0.6107131670        0.1581065503
 C         -2.8144646411        0.4993741966       -0.3619115509
 C         -2.0534994481        1.8284069034       -0.4989110329
 O         -0.8312154831        1.5604547032       -1.1909966081
 C         -0.0688795707        0.5283213912       -0.7327424615
 C          1.2558966356        0.5101162362       -1.1566120601
 C         -2.8123082933        2.8068142231       -1.3962227619
 C         -1.7282898259        2.4872388800        0.8460957865
 C         -4.8311624533       -3.1061437708        0.2381000174
 O         -0.0249550485       -2.3761046804        1.4982378040
 H          7.5359360874        1.6698739018        2.1675014690
 H          5.9073754772        1.0006652617        2.1546017105
 H          7.2797370353       -0.0119290977        1.7007312031
 H          6.2613116020        2.4158761597        0.1490294303
 H          7.7049356330        1.4920969551       -0.2646138216
 H          6.2865245553       -0.5526430655       -0.5552464368
 H          5.9285258874        0.7474882664       -1.6908562909
 H          4.3042531545        0.0505915396        0.7957341528
 H          3.9946482936        1.4404477280       -0.2454386215
 H          3.6394434292       -0.0858332062       -2.1740712049
 H          3.9644783136       -1.4783970851       -1.1311462761
 H          2.3244844357       -2.1849877828        0.5690386392
 H         -2.1257130886       -0.2002559600        1.5565525032
 H         -2.1228942585       -2.6534295457       -0.1095531484
 H         -5.7735187890       -0.7495433333        0.8957371625
 H         -4.4328160324       -0.4918983747        2.0064794975
 H         -4.3576677266        1.4827340707        0.8046179774
 H         -4.9247841574        0.7486843032       -0.6887900485
 H         -2.8428196994        0.0737002881       -1.3731444683
 H          1.5852700138        1.2851074265       -1.8304210947
 H         -3.7107257008        3.1624941831       -0.9017476503
 H         -2.1710271703        3.6541129037       -1.6238339002
 H         -3.0842405581        2.3231283057       -2.3306504980
 H         -1.2668751867        3.4556373427        0.6679322374
 H         -2.6275852927        2.6334987435        1.4373022426
 H         -1.0255823859        1.8785300822        1.4099423787
 H         -5.3634565120       -3.3809341401        1.1487791710
 H         -5.5750025008       -2.9143305318       -0.5350587379
 H         -4.2116884838       -3.9433558322       -0.0731761458
 H         -0.9677612338       -2.2953812308        1.6898194839
  53
        -68.44519207
 C          3.7738332103       -2.3713017363       -1.4003401054
 C          3.6526981564       -0.8568706559       -1.2829363399
 C          4.7542352926       -0.2728555910       -0.3999234385
 C          4.6173039863        1.2367244492       -0.1773583061
 C          3.7826765507        1.6013818882        1.0591135939
 C          2.3670390959        1.1132363924        0.9640301515
 C          1.9444723917        0.0134970939        1.6939358360
 C          0.6519462401       -0.4736408440        1.5547308388
 C         -0.2481249408        0.1293444938        0.6728294920
 C         -1.6308242234       -0.4294230039        0.4544580526
 C         -1.6601175270       -1.8961282497        0.1092341743
 C         -2.8289155272       -2.4257370211       -0.2331336918
 C         -4.0352098005       -1.5324718389       -0.1695465716
 C         -3.7784622831       -0.1621548182       -0.8344575945
 C         -2.3112942804        0.2703743211       -0.7361529750
 C         -2.0686533031        1.7877101502       -0.6781461649
 O         -0.6617348916        2.0085435904       -0.8074698480
 C          0.1602121513        1.2836377725        0.0020238715
 C          1.4606468655        1.7570080001        0.1375419826
 C         -2.6939966130        2.4910200807       -1.8833611414
 C         -2.5552123314        2.4347921990        0.6231001642
 C         -3.0200387369       -3.8441724123       -0.6600294281
 O          0.3067982808       -1.5477611271        2.3212567908
 H          2.9996948162       -2.7681304984       -2.0533254865
 H          4.7434965686       -2.6495730007       -1.8089001167
 H          3.6683186875       -2.8359000364       -0.4223337323
 H          3.7172919648       -0.4090130578       -2.2777105147
 H          2.6768307571       -0.6048239817       -0.8679455029
 H          5.7181114347       -0.4807145228       -0.8720267917
 H          4.7479151107       -0.7823875440        0.5656005921
 H          5.6105072066        1.6728897019       -0.0458597981
 H          4.1699946165        1.6928706013       -1.0623060201
 H          4.2575476561        1.1755699121        1.9449596516
 H          3.7825934117        2.6892009759        1.1642457341
 H          2.6060738240       -0.4912721166        2.3795532096
 H         -2.2479135806       -0.2593641602        1.3516769130
 H         -0.7350163884       -2.4488680372        0.0436298613
 H         -4.8956464763       -2.0120922190       -0.6367161675
 H         -4.2864046216       -1.3682986064        0.8837251386
 H         -4.4266331473        0.5760918095       -0.3607366359
 H         -4.0611767535       -0.2179144323       -1.8860768604
 H         -1.7862730313       -0.0751218959       -1.6359713743
 H          1.7415856622        2.6394394982       -0.4149767531
 H         -2.3858500211        2.0013534485       -2.8033523439
 H         -3.7772138112        2.4774422735       -1.8153474140
 H         -2.3512616673        3.5218410631       -1.9133067624
 H         -2.4258377122        3.5124386591        0.5569335764
 H         -3.6055670096        2.2202249223        0.7973596154
 H         -1.9729029651        2.0776602560        1.4690721055
 H         -2.0804825439       -4.3899781375       -0.6293526105
 H         -3.7384976031       -4.3425489289       -0.0091333781
 H         -3.4131654655       -3.8803187075       -1.6759053185
 H         -0.5986190887       -1.8147664874        2.1189407835
  53
        -68.44516658
 C          3.0997358745        2.3768405255        1.4287890083
 C          3.8840281812        1.0915355758        1.6646073663
 C          5.0648109444        0.9140664749        0.7085929783
 C          4.7144943402        0.8353290272       -0.7782091679
 C          3.9886723360       -0.4507021556       -1.1966171364
 C          2.5466736449       -0.4990982931       -0.7784071227
 C          2.0903767200       -1.4737367952        0.0954625174
 C          0.7585369564       -1.5100394358        0.4855724596
 C         -0.1553813531       -0.5723336595       -0.0009986268
 C         -1.6137892526       -0.6231728498        0.3760893947
 C         -2.2698724006       -1.9614375409        0.1534789569
 C         -3.5831243883       -2.0417402033        0.3347237067
 C         -4.2882093160       -0.8086321609        0.8241404328
 C         -3.8654669436        0.4527553802        0.0390369666
 C         -2.4273865158        0.3619918082       -0.4830096611
 C         -1.6830593677        1.7007186208       -0.6174993987
 O         -0.4590116413        1.4479242308       -1.3123566862
 C          0.3206391532        0.4332196231       -0.8433032406
 C          1.6515251799        0.4486147227       -1.2458388527
 C         -2.4552394426        2.6721087749       -1.5107730077
 C         -1.3613002299        2.3597745432        0.7282316904
 C         -4.3936705261       -3.2737288159        0.0981494735
 O          0.3988475203       -2.4802990711        1.3743089650
 H          3.7674491249        3.2361369813        1.4059523493
 H          2.5544752579        2.3310446003        0.4899497783
 H          2.3772137023        2.5263051640        2.2285428210
 H          4.2806160544        1.1024486946        2.6836181213
 H          3.2094683228        0.2400293163        1.5814902480
 H          5.6048263385        0.0060128078        0.9895867418
 H          5.7488334152        1.7563599234        0.8488072583
 H          4.1166992024        1.7010264358       -1.0612593321
 H          5.6509894544        0.8874369339       -1.3404649441
 H          4.0314218292       -0.5221084910       -2.2873810618
 H          4.5184369770       -1.3115281105       -0.7845540810
 H          2.7579127650       -2.2186838715        0.4994507185
 H         -1.7336546941       -0.3365688399        1.4335568060
 H         -1.6918751725       -2.7814022704       -0.2455823902
 H         -5.3696293953       -0.9334235729        0.7644607509
 H         -4.0352060084       -0.6643373035        1.8798696051
 H         -3.9801497711        1.3185457941        0.6923822006
 H         -4.5407864339        0.5894711847       -0.8060460344
 H         -2.4515353721       -0.0610860960       -1.4954775821
 H          1.9646527845        1.2256509794       -1.9253740429
 H         -1.8256382096        3.5287452031       -1.7361073444
 H         -2.7218485333        2.1880423997       -2.4465701500
 H         -3.3577325346        3.0141171251       -1.0140845233
 H         -0.9092591559        3.3328816190        0.5512290969
 H         -2.2607589556        2.4962716213        1.3215307848
 H         -0.6512737154        1.7569759964        1.2893417012
 H         -4.9219500949       -3.5605488866        1.0074804274
 H         -5.1402176776       -3.0888780289       -0.6740788448
 H         -3.7623447610       -4.1005691286       -0.2170986290
 H         -0.5481223498       -2.4228430627        1.5533788673
  53
        -68.44515319
 C          3.6523965450       -1.2001712299       -2.6281636026
 C          3.6878077445       -0.9562680532       -1.1242429816
 C          4.7191381635        0.1081019975       -0.7545939334
 C          4.7948011088        0.3940746510        0.7477608606
 C          3.7900783270        1.4494334855        1.2309445414
 C          2.3615788239        1.0153641195        1.0789328644
 C          1.8451298846        0.0224619132        1.8987692709
 C          0.5416247063       -0.4219661143        1.7356238983
 C         -0.2788183761        0.1165646416        0.7398418087
 C         -1.6741921910       -0.4017749066        0.5025217947
 C         -1.7602217329       -1.8956260365        0.3232972229
 C         -2.9344480668       -2.4081161807       -0.0265472601
 C         -4.0943651000       -1.4597579347       -0.1369625421
 C         -3.7305751553       -0.1900681647       -0.9376017536
 C         -2.2512129168        0.1863452423       -0.7981781584
 C         -1.9367227064        1.6884327111       -0.8951083887
 O         -0.5155789969        1.8323249630       -0.9607739794
 C          0.2219730087        1.1685043691       -0.0273609225
 C          1.5360770885        1.5984759209        0.1335516802
 C         -2.4569091714        2.2755346011       -2.2077334568
 C         -2.4631807629        2.5004666018        0.2932322161
 C         -3.1751025695       -3.8562124910       -0.3018574529
 O          0.1003457708       -1.3856141271        2.5943375007
 H          2.9260368402       -1.9715085158       -2.8739996622
 H          3.3745443119       -0.2888993437       -3.1533782452
 H          4.6281141268       -1.5196010629       -2.9896843666
 H          2.6995468312       -0.6450030513       -0.7863821656
 H          3.9371372419       -1.8885098684       -0.6113861463
 H          4.4889627710        1.0329020770       -1.2877836984
 H          5.6994452700       -0.2322989945       -1.0994888002
 H          4.6387173339       -0.5342448467        1.3000252879
 H          5.7965270823        0.7585502739        0.9889117619
 H          3.9894426173        1.6509002706        2.2868294725
 H          3.9522387621        2.3745421697        0.6746922312
 H          2.4430687289       -0.4248988419        2.6764750784
 H         -2.3301175025       -0.1020706967        1.3359863462
 H         -0.8627072301       -2.4933624403        0.3760439652
 H         -4.9522885847       -1.9508880871       -0.5967466571
 H         -4.3929275722       -1.1620739929        0.8738132584
 H         -4.3664560048        0.6265234354       -0.5935871163
 H         -3.9552681300       -0.3571199496       -1.9914245315
 H         -1.6944996010       -0.2822619472       -1.6198531112
 H          1.8882267114        2.3983476019       -0.4982512662
 H         -3.5415752342        2.3162154011       -2.2061543722
 H         -2.0624355797        3.2805982275       -2.3311079781
 H         -2.1215483252        1.6711870602       -3.0464285335
 H         -1.9478420942        2.2178244751        1.2080160398
 H         -2.2771648743        3.5569615490        0.1152556045
 H         -3.5310113866        2.3523689021        0.4254438370
 H         -3.5122469100       -3.9915391929       -1.3294270590
 H         -2.2684129679       -4.4368205908       -0.1522580917
 H         -3.9537617496       -4.2428786534        0.3557027001
 H         -0.8057554980       -1.6316631348        2.3697032428
  53
        -68.44513474
 C          4.7984466539        3.2797220062       -1.0550275335
 C          5.0543147282        1.7932434261       -0.8394306503
 C          4.4587128433        1.3095444301        0.4806416623
 C          4.7060481876       -0.1739223952        0.7520933339
 C          3.9033841230       -1.1083410010       -0.1649958649
 C          2.4246458238       -0.9229723989        0.0190353102
 C          1.7861121275       -1.4720784764        1.1237972140
 C          0.4260860417       -1.2911646130        1.3193874025
 C         -0.3381567984       -0.5604875836        0.4063566377
 C         -1.8252244928       -0.4147134786        0.5714587230
 C         -2.5527272075       -1.7127919953        0.7831914364
 C         -3.8787975146       -1.6846419044        0.7812707329
 C         -4.5461522071       -0.3439093210        0.6471978384
 C         -3.9249085703        0.5128314374       -0.4760028295
 C         -2.4422430080        0.1956714562       -0.6990938933
 C         -1.5863502933        1.3677727199       -1.2057552805
 O         -0.3004434891        0.8499860641       -1.5651599547
 C          0.3201777196        0.0425514837       -0.6640727217
 C          1.6854248176       -0.1565275552       -0.8616924471
 C         -2.1541567222        1.9484366568       -2.5015531821
 C         -1.3964665124        2.4779952191       -0.1669478605
 C         -4.7504480269       -2.8901027307        0.9295827890
 O         -0.2005052566       -1.8121221813        2.4160291696
 H          3.7292924255        3.4797168962       -1.0769579563
 H          5.2390890727        3.8650649893       -0.2504546512
 H          5.2297402617        3.6118863163       -1.9967682675
 H          4.6175498207        1.2354440399       -1.6688022720
 H          6.1308154408        1.6043115315       -0.8415765909
 H          3.3831414116        1.4982297236        0.4831906912
 H          4.8995850322        1.8910379548        1.2946507128
 H          5.7705619734       -0.3907539537        0.6342353961
 H          4.4346797583       -0.3893003582        1.7882556744
 H          4.1723174225       -0.9226784577       -1.2046639273
 H          4.1732861118       -2.1401080094        0.0733408034
 H          2.3532840065       -2.0518101179        1.8411525569
 H         -2.0320245813        0.2406929841        1.4291619482
 H         -1.9891799959       -2.6257654156        0.8730909514
 H         -5.6160241359       -0.4606348108        0.4701820353
 H         -4.4282906636        0.1880616393        1.5969743953
 H         -4.0561480082        1.5649113611       -0.2192972439
 H         -4.4684120686        0.3339524479       -1.4046539102
 H         -2.3682475116       -0.5771294696       -1.4752758672
 H          2.1462195412        0.3103291699       -1.7175564464
 H         -1.4365951119        2.6445401274       -2.9279864976
 H         -2.3295039284        1.1535401625       -3.2216181387
 H         -3.0863942697        2.4703702766       -2.3104704040
 H         -0.8392623222        3.2976903034       -0.6149568499
 H         -2.3542448391        2.8554750163        0.1786094981
 H         -0.8314959734        2.1097142444        0.6857166148
 H         -5.3799279419       -3.0122893970        0.0477982867
 H         -4.1507330672       -3.7872909074        1.0584344043
 H         -5.4065985896       -2.7796609977        1.7930202651
 H          0.4466688984       -2.2821487892        2.9549486318
  53
        -68.44513168
 C          3.9605733707        0.6526780078        2.9730407842
 C          3.7427237122        1.1364669434        1.5445394084
 C          4.8595011117        0.6625464716        0.6160371890
 C          4.6545905314        1.0764996683       -0.8445274497
 C          3.8536133105        0.0579618887       -1.6685257168
 C          2.4540452769       -0.1342536124       -1.1619084087
 C          2.1000813458       -1.2830437730       -0.4723489089
 C          0.8102368738       -1.4476659791        0.0142633650
 C         -0.1628859905       -0.4670641543       -0.1928591412
 C         -1.5834195390       -0.6552525835        0.2752424250
 C         -2.2193541496       -1.9475007964       -0.1684040782
 C         -3.5107187582       -2.1196641076        0.0897845973
 C         -4.2063766073       -1.0425409891        0.8726210498
 C         -3.8847877144        0.3676100568        0.3306069740
 C         -2.4901353012        0.4481146610       -0.3001152275
 C         -1.7967970081        1.8173286765       -0.2062347183
 O         -0.6240608478        1.7674725276       -1.0228345539
 C          0.2161138895        0.7102842080       -0.8405502069
 C          1.5060871897        0.8605619451       -1.3370872448
 C         -2.6639528542        2.9160550606       -0.8217963862
 C         -1.3912896230        2.2004712638        1.2212711272
 C         -4.3042612222       -3.3118612799       -0.3339292102
 O          0.5512303584       -2.5911547885        0.7111272689
 H          3.9570659175       -0.4345238113        3.0087389931
 H          4.9159404328        1.0051103864        3.3571956157
 H          3.1720560664        1.0190176155        3.6266453958
 H          2.7830347518        0.7685670531        1.1818348671
 H          3.7074277796        2.2287029689        1.5323339584
 H          4.9389563828       -0.4246261583        0.6761577475
 H          5.8037620462        1.0791880013        0.9767672328
 H          4.1517595776        2.0445964630       -0.8777698154
 H          5.6297793731        1.1934790577       -1.3235539298
 H          3.8138538244        0.4102914809       -2.7024477919
 H          4.3798236257       -0.8983174628       -1.6573233617
 H          2.8151787642       -2.0693101879       -0.2904947630
 H         -1.6239350574       -0.5945974283        1.3749844524
 H         -1.6538605438       -2.6437979490       -0.7692180421
 H         -5.2852267049       -1.1996913429        0.8709488162
 H         -3.8704482272       -1.1020126876        1.9133053281
 H         -3.9739868709        1.0797428599        1.1518781323
 H         -4.6284042088        0.6390968181       -0.4192270275
 H         -2.5820013662        0.2406159079       -1.3739595112
 H          1.7506781641        1.7778219067       -1.8485916891
 H         -2.0779206941        3.8269819328       -0.9098125049
 H         -2.9900428203        2.6219239396       -1.8159004150
 H         -3.5335947303        3.1102263914       -0.2019621878
 H         -0.9848422766        3.2090475856        1.2192957618
 H         -2.2452624746        2.1703935656        1.8917093448
 H         -0.6214944732        1.5289405514        1.5938660241
 H         -4.7482709114       -3.7997656987        0.5338672257
 H         -5.1163238371       -3.0065834347       -0.9936558707
 H         -3.6787192417       -4.0294415972       -0.8587431029
 H         -0.3767041756       -2.6074985915        0.9770624813
  53
        -68.44512952
 C          4.8323046741        0.1212364292       -3.1032097568
 C          5.0314227851        0.4695161632       -1.6333216320
 C          4.4183154876       -0.5896131276       -0.7202579278
 C          4.6171999626       -0.2989496252        0.7668258780
 C          3.7881182687        0.8891533111        1.2758603631
 C          2.3163377657        0.6315283382        1.1283391576
 C          1.6562652137       -0.1795354029        2.0428475259
 C          0.3103274454       -0.4719078976        1.8893718795
 C         -0.4124493136        0.0293078210        0.8039964488
 C         -1.8555817203       -0.3340122406        0.5913678111
 C         -2.1332363345       -1.8106206246        0.6317737716
 C         -3.3509101877       -2.2189889093        0.3003493489
 C         -4.3768727424       -1.1651944811       -0.0122208030
 C         -3.8306520785       -0.0743897459       -0.9573019549
 C         -2.3200274088        0.1308427341       -0.7999565350
 C         -1.8141904352        1.5532200325       -1.0905704572
 O         -0.3827156607        1.5152389368       -1.1111081364
 C          0.2388196287        0.8958479441       -0.0722693424
 C          1.5952478648        1.1763529694        0.0830265255
 C         -2.2168428381        2.0080392901       -2.4940409969
 C         -2.2640660467        2.5846190158       -0.0507412946
 C         -3.7764152264       -3.6509914701        0.2430225590
 O         -0.3483466663       -1.2458943156        2.8024408870
 H          3.7716064866        0.0519792178       -3.3346097988
 H          5.2748305389        0.8821637863       -3.7423377669
 H          5.2961490210       -0.8350516206       -3.3365925012
 H          6.0999938182        0.5563703072       -1.4204414572
 H          4.5731131795        1.4392184646       -1.4348568180
 H          4.8769523871       -1.5548119145       -0.9506898961
 H          3.3495553498       -0.6722459241       -0.9282537795
 H          4.3348703000       -1.1869056338        1.3373614844
 H          5.6746913370       -0.1011674209        0.9587204953
 H          4.0267735115        1.0495445088        2.3302224111
 H          4.0633507304        1.7903963134        0.7283578712
 H          2.1949813783       -0.5864713358        2.8893630621
 H         -2.4684932160        0.1533891628        1.3625743592
 H         -1.3347154901       -2.4921688459        0.8707213025
 H         -5.2710033644       -1.6131627726       -0.4474832131
 H         -4.6735406574       -0.6930777917        0.9301411414
 H         -4.3654750415        0.8548224431       -0.7561903290
 H         -4.0436750383       -0.3558234191       -1.9893986660
 H         -1.8074361094       -0.5156433917       -1.5241984717
 H          2.0601551950        1.8382068639       -0.6301676690
 H         -3.2872920677        2.1789492664       -2.5481836881
 H         -1.6956202240        2.9306739737       -2.7357353630
 H         -1.9368416062        1.2546940418       -3.2256706863
 H         -1.8284911724        2.3620104880        0.9200917278
 H         -1.9263584602        3.5726200208       -0.3553574885
 H         -3.3460728287        2.5986314339        0.0404848490
 H         -2.9595624062       -4.3087954050        0.5281838863
 H         -4.6170302822       -3.8238446594        0.9151097481
 H         -4.0995356663       -3.9093713581       -0.7657314857
 H          0.2691680940       -1.5116057269        3.4940045974
  53
        -68.44511890
 C          4.9036337411        0.2145128897       -3.1030507418
 C          5.0773167866        0.5153816129       -1.6195516998
 C          4.4379555898       -0.5654311883       -0.7508484905
 C          4.6154185440       -0.3232708004        0.7475603043
 C          3.7865782530        0.8541235281        1.2813606881
 C          2.3145382980        0.6010695394        1.1291248404
 C          1.6482441872       -0.2038094122        2.0444292698
 C          0.3004032564       -0.4874655325        1.8906368925
 C         -0.4178977948        0.0151419009        0.8029531820
 C         -1.8649851822       -0.3340165291        0.5933424633
 C         -2.1608330011       -1.8066762006        0.6455311349
 C         -3.3847220763       -2.2018267362        0.3210646929
 C         -4.3970307979       -1.1369168706        0.0019873557
 C         -3.8384164225       -0.0640230655       -0.9561344980
 C         -2.3254284219        0.1263648484       -0.8008031792
 C         -1.8055189622        1.5416664711       -1.1011010575
 O         -0.3744624338        1.4903238887       -1.1202540513
 C          0.2409361311        0.8724136135       -0.0768048348
 C          1.5987395501        1.1456279239        0.0799626216
 C         -2.2028697244        1.9901496784       -2.5081488152
 C         -2.2460391277        2.5846998132       -0.0688751954
 C         -3.8296261335       -3.6283548915        0.2772491083
 O         -0.3643006164       -1.2531026043        2.8063367694
 H          5.3644028533        0.9911217263       -3.7095902836
 H          5.3644296286       -0.7378890860       -3.3572300701
 H          3.8470982427        0.1613219845       -3.3567791419
 H          6.1423572558        0.5857229620       -1.3841540043
 H          4.6241557898        1.4830546734       -1.3999241762
 H          4.8908004958       -1.5276494686       -1.0041523424
 H          3.3720659591       -0.6305776682       -0.9787734014
 H          4.3188334220       -1.2263670245        1.2862016422
 H          5.6711869456       -0.1386796941        0.9611075855
 H          4.0249437807        0.9920273429        2.3389012289
 H          4.0626006934        1.7665410567        0.7530924449
 H          2.1831746075       -0.6114672039        2.8930316978
 H         -2.4714777265        0.1664578061        1.3613455390
 H         -1.3704377691       -2.4964414854        0.8877419975
 H         -5.2991557934       -1.5762948308       -0.4255889534
 H         -4.6834057146       -0.6509318265        0.9404683734
 H         -4.3630534435        0.8733703004       -0.7665907945
 H         -4.0543965414       -0.3557902974       -1.9847358694
 H         -1.8198779684       -0.5300633894       -1.5209985443
 H          2.0686640421        1.8027968604       -0.6342734070
 H         -1.9294961813        1.2289416179       -3.2341069953
 H         -3.2716085205        2.1707552040       -2.5644841021
 H         -1.6728058117        2.9059888510       -2.7561563847
 H         -1.8987207340        3.5671933778       -0.3804264880
 H         -3.3278907006        2.6098006190        0.0218016358
 H         -1.8129227585        2.3648993220        0.9036923693
 H         -4.6697630817       -3.7842236919        0.9540480364
 H         -4.1602748001       -3.8907428378       -0.7280891016
 H         -3.0206325052       -4.2947074427        0.5646812592
 H          0.2508792139       -1.5203742320        3.4993787394
  53
        -68.44507261
 C          6.4338789602        0.3015044557       -2.7594559129
 C          6.6649421134        0.9631712682       -1.4058654473
 C          5.9022073054        0.2860848701       -0.2666347050
 C          4.3865704564        0.4428286275       -0.3782690085
 C          3.6822766043       -0.1458614638        0.8401678242
 C          2.1766426096       -0.1151869330        0.7968043625
 C          1.4738269337       -0.7571465157        1.8110970725
 C          0.0890074954       -0.7793363222        1.8268996258
 C         -0.6511855169       -0.1734802744        0.8068258577
 C         -2.1595164512       -0.2161211562        0.7508412408
 C         -2.7580143173       -1.5783181643        0.9823560637
 C         -3.9024476260       -1.9668855426        0.4388704329
 C         -4.6987222488       -1.1027225549       -0.5023893846
 C         -4.1673955877        0.3284071000       -0.5865388419
 C         -2.6435438738        0.2810018154       -0.6149959771
 C         -1.9211447890        1.5752304537       -1.0129291436
 O         -0.5283370783        1.2692004654       -1.1446673499
 C          0.0585675031        0.5370899517       -0.1608066767
 C          1.4540431901        0.5457562263       -0.1750219126
 C         -2.3430625578        2.0608314850       -2.4014508146
 C         -2.0949875587        2.7058639951        0.0060657976
 C         -4.4892052892       -3.3227974717        0.6972397745
 O         -0.5726569641       -1.3838776296        2.8601284220
 H          6.6848540409       -0.7561834134       -2.7133369441
 H          5.3965275568        0.3963396244       -3.0688250808
 H          7.0572776323        0.7684090971       -3.5188532522
 H          7.7329966821        0.9316716462       -1.1764060445
 H          6.3708102274        2.0138550972       -1.4609361305
 H          6.2318446358        0.7219667339        0.6804244696
 H          6.1570570002       -0.7764486950       -0.2463034324
 H          4.1456467669        1.5041872786       -0.4638402177
 H          4.0287662366       -0.0642461956       -1.2748670830
 H          3.9984699610       -1.1866261152        0.9621208592
 H          4.0111201386        0.3911600715        1.7363001947
 H          2.0172625609       -1.2478115470        2.6094189199
 H         -2.5467139916        0.4429514128        1.5429980075
 H         -2.2278058049       -2.2338693121        1.6526585879
 H         -4.6678119910       -1.5623712627       -1.4967270463
 H         -5.7466861246       -1.0948341738       -0.1897673931
 H         -4.5010870026        0.8961330498        0.2841543192
 H         -4.5657244427        0.8112404540       -1.4795033762
 H         -2.3425070690       -0.4672920449       -1.3601791568
 H          1.9320499954        1.0972171005       -0.9663841048
 H         -1.6208126481        2.7938329708       -2.7513468923
 H         -2.3585473964        1.2323219598       -3.1047229210
 H         -3.3243938489        2.5233782931       -2.3660325285
 H         -3.1495253980        2.9026895683        0.1762097213
 H         -1.6206498053        2.4490035634        0.9497804887
 H         -1.6242682962        3.6098981873       -0.3735379781
 H         -5.4638154176       -3.2290504746        1.1764282485
 H         -4.6331921616       -3.8590891033       -0.2407474117
 H         -3.8412170375       -3.9115274839        1.3407113178
 H          0.0750341785       -1.7264732744        3.4876042612
  53
        -68.44506884
 C          6.5882072819        2.3142209757       -1.3868085158
 C          6.6707202625        0.8011662557       -1.5520839627
 C          5.9079098791        0.0348040660       -0.4709466530
 C          4.3941596962        0.2254228688       -0.5504259523
 C          3.6756232734       -0.6516213717        0.4704540647
 C          2.1801913086       -0.4812903399        0.5335640048
 C          1.4904673780       -1.0744997175        1.5857201894
 C          0.1115361333       -0.9874690281        1.6846102989
 C         -0.6374850890       -0.3129744094        0.7154454093
 C         -2.1449229794       -0.2339099323        0.7512996736
 C         -2.8359344681       -1.5466078831        1.0095620073
 C         -4.0384834820       -1.8362267649        0.5340767888
 C         -4.8181575094       -0.9000900042       -0.3505741942
 C         -4.1792122947        0.4847602392       -0.4576745234
 C         -2.6686422994        0.3157078669       -0.5793255528
 C         -1.8694201186        1.5521980284       -1.0123361815
 O         -0.5164377659        1.1367469704       -1.2309327812
 C          0.0676205593        0.3485728138       -0.2896580665
 C          1.4555566581        0.2437107805       -0.3900024126
 C         -2.3338540699        2.0856489750       -2.3693621546
 C         -1.8895194208        2.6816307485        0.0225435365
 C         -4.7154834020       -3.1441707785        0.8179193135
 O         -0.5332449279       -1.5480340368        2.7526561973
 H          7.2103919650        2.8092498408       -2.1291879184
 H          5.5677626214        2.6659227634       -1.5126296790
 H          6.9351565048        2.6082442179       -0.3983744913
 H          6.2808376853        0.5218761600       -2.5336286010
 H          7.7206806270        0.4999867141       -1.5167676162
 H          6.2631772494        0.3529805066        0.5124079386
 H          6.1337376316       -1.0300184873       -0.5739830261
 H          4.1437907640        1.2696770878       -0.3604666651
 H          4.0573391181       -0.0316761886       -1.5564261586
 H          3.8893117443       -1.7029551903        0.2495006092
 H          4.0873196468       -0.4477852406        1.4637795969
 H          2.0393582403       -1.6148203729        2.3474028749
 H         -2.4295302413        0.4448218738        1.5698791433
 H         -2.3207346865       -2.2502339567        1.6418082842
 H         -4.8848462478       -1.3491325726       -1.3479850754
 H         -5.8411759942       -0.8119654208        0.0258371601
 H         -4.4129875191        1.0674316042        0.4354132499
 H         -4.5904311365        1.0081096604       -1.3214999663
 H         -2.4744165019       -0.4459209468       -1.3461961046
 H          1.9276009599        0.7609547390       -1.2076243166
 H         -3.2705127640        2.6252988903       -2.2710714822
 H         -1.5770765864        2.7620113230       -2.7581929267
 H         -2.4588435485        1.2689899580       -3.0755451768
 H         -1.3812466285        2.3769203282        0.9338053369
 H         -1.3712308275        3.5492808385       -0.3793862094
 H         -2.9125272942        2.9603988947        0.2581534388
 H         -4.9582616822       -3.6557582565       -0.1134933639
 H         -4.0791702293       -3.7904235984        1.4162946103
 H         -5.6487982532       -2.9789246594        1.3563868816
 H          0.1212548305       -1.9486303453        3.3372517337
  53
        -68.44505801
 C          6.5929559008        2.0988713169       -1.7259889947
 C          6.6481309111        0.5771798460       -1.6562222247
 C          5.8994842578        0.0013500628       -0.4536909371
 C          4.3869069741        0.2012436309       -0.5324660884
 C          3.6805621809       -0.4830731182        0.6333868187
 C          2.1790211653       -0.3601649547        0.6468267480
 C          1.4781724440       -0.9627218318        1.6865366237
 C          0.0956375662       -0.9100234583        1.7504663686
 C         -0.6456684263       -0.2636516291        0.7563357993
 C         -2.1550925544       -0.2240563692        0.7532278734
 C         -2.8181179002       -1.5522656138        1.0055433472
 C         -4.0002989614       -1.8770680360        0.5025264450
 C         -4.7812814366       -0.9688574773       -0.4096238941
 C         -4.1758363254        0.4312582898       -0.5130490682
 C         -2.6587912802        0.3006779894       -0.5950615896
 C         -1.8810072169        1.5539465133       -1.0187827983
 O         -0.5126193609        1.1720677041       -1.1994818451
 C          0.0674485631        0.4075563638       -0.2364503815
 C          1.4599583909        0.3389109686       -0.3004439889
 C         -2.3244619481        2.0640007371       -2.3917254478
 C         -1.9566019516        2.6909092421        0.0052238798
 C         -4.6500879517       -3.1999567202        0.7805953406
 O         -0.5615619781       -1.4782640204        2.8068194161
 H          7.2056127479        2.4611453691       -2.5486025992
 H          5.5756073525        2.4463438937       -1.8843881143
 H          6.9670266085        2.5357260477       -0.8023817367
 H          6.2309158557        0.1568111667       -2.5741570927
 H          7.6939311817        0.2655524870       -1.5966029824
 H          6.2797200734        0.4636879178        0.4607196988
 H          6.1101413856       -1.0698170052       -0.3931574835
 H          4.1579777678        1.2670400511       -0.5134969138
 H          4.0205699913       -0.2131974723       -1.4738463847
 H          3.9339941949       -1.5482710273        0.6265563036
 H          4.0672880563       -0.0728947517        1.5720586315
 H          2.0218494291       -1.4824004473        2.4661384716
 H         -2.4781305772        0.4536282465        1.5583056657
 H         -2.3008864630       -2.2371235851        1.6564901278
 H         -4.8111447256       -1.4276645648       -1.4043756769
 H         -5.8153913323       -0.9043769881       -0.0597156084
 H         -4.4472550394        1.0150386706        0.3685986944
 H         -4.5783513491        0.9365253006       -1.3916341999
 H         -2.4254708122       -0.4618853799       -1.3500097125
 H          1.9386502963        0.8620436541       -1.1103795072
 H         -3.2769094841        2.5799128216       -2.3218196738
 H         -1.5757315849        2.7565632311       -2.7673970124
 H         -2.4104162142        1.2385861795       -3.0935342605
 H         -1.4638221176        2.4070616514        0.9316072950
 H         -1.4509412167        3.5684668753       -0.3912324823
 H         -2.9921224011        2.9448149407        0.2126051983
 H         -5.6009013185       -3.0548537410        1.2936589164
 H         -4.8555057803       -3.7253380934       -0.1521379463
 H         -4.0127390535       -3.8243821635        1.4006625311
 H          0.0879081240       -1.8565715111        3.4115264545
  53
        -68.44505694
 C          6.5048282001        0.7465295179       -2.6772472695
 C          6.6864871601        1.1706040116       -1.2244413579
 C          5.9149420893        0.2922594917       -0.2388533660
 C          4.3989630102        0.4373560197       -0.3603305628
 C          3.6809945946       -0.3790207845        0.7096892164
 C          2.1779846133       -0.2760459076        0.7065997219
 C          1.4735847804       -0.8766441991        1.7448961001
 C          0.0895445077       -0.8470466181        1.7898911030
 C         -0.6493774288       -0.2268272152        0.7775408885
 C         -2.1591347490       -0.2123350828        0.7541161827
 C         -2.8037002451       -1.5470982497        1.0192855428
 C         -3.9728107152       -1.9004138357        0.5050771240
 C         -4.7552953263       -1.0212658084       -0.4338339856
 C         -4.1731607932        0.3876217499       -0.5502314181
 C         -2.6530111455        0.2828356339       -0.6089147637
 C         -1.8917877985        1.5434254197       -1.0409978926
 O         -0.5142888633        1.1839376331       -1.1964342020
 C          0.0655236626        0.4429884087       -0.2150189763
 C          1.4596788598        0.3974608552       -0.2596978067
 C         -2.3244681244        2.0242839233       -2.4278768001
 C         -2.0025242687        2.6943866847       -0.0360137475
 C         -4.6046065549       -3.2289802631        0.7971442347
 O         -0.5715089891       -1.4118399438        2.8457484638
 H          5.4735290284        0.8727825762       -2.9955365337
 H          7.1352824419        1.3488562643       -3.3276188951
 H          6.7800200821       -0.2982975939       -2.8055483293
 H          7.7493428994        1.1227378264       -0.9744902642
 H          6.3669516535        2.2086809149       -1.1070051355
 H          6.2143959982        0.5636101118        0.7770750620
 H          6.1929713906       -0.7529139059       -0.3959042614
 H          4.1304965850        1.4906619530       -0.2549346056
 H          4.0784720250        0.0977417312       -1.3453323944
 H          3.9499988595       -1.4338850215        0.5897018935
 H          4.0439308590       -0.0711036685        1.6954350835
 H          2.0152369153       -1.3764120981        2.5388084514
 H         -2.5038925432        0.4725977310        1.5438974300
 H         -2.2847352418       -2.2120367876        1.6891942357
 H         -4.7612012288       -1.4962588599       -1.4214120896
 H         -5.7958325122       -0.9697721889       -0.1011906921
 H         -4.4674160317        0.9797059455        0.3184533445
 H         -4.5718579178        0.8722665834       -1.4420466395
 H         -2.3955288644       -0.4868120497       -1.3486637923
 H          1.9402938814        0.9192365695       -1.0693852723
 H         -1.5829168902        2.7244857907       -2.8036382900
 H         -2.3854951540        1.1868177625       -3.1179203652
 H         -3.2868865852        2.5238827246       -2.3794708866
 H         -1.5180116036        2.4338345032        0.9015061338
 H         -1.5071263143        3.5748144739       -0.4389732866
 H         -3.0453076559        2.9324787213        0.1528273142
 H         -4.7903166969       -3.7728152606       -0.1291482542
 H         -3.9648966301       -3.8328138809        1.4349199255
 H         -5.5637369313       -3.0909145920        1.2965120783
 H          0.0764535352       -1.7705131697        3.4638755499
  53
        -68.44505584
 C          6.5693438750        1.1316614986       -2.5244739641
 C          6.7005024021        1.3245173348       -1.0180965617
 C          5.9200578369        0.2891581264       -0.2073362298
 C          4.4053236851        0.4372691540       -0.3382933403
 C          3.6743838178       -0.5737838255        0.5414518233
 C          2.1774682816       -0.4166647944        0.5937253074
 C          1.4824431248       -0.9890759253        1.6532408506
 C          0.1010490111       -0.9162750909        1.7332663175
 C         -0.6439971098       -0.2767816426        0.7381283858
 C         -2.1525459510       -0.2151587555        0.7544213961
 C         -2.8305401034       -1.5295007077        1.0377168410
 C         -4.0235629746       -1.8460067500        0.5554181316
 C         -4.8038846556       -0.9421146151       -0.3616499069
 C         -4.1806854073        0.4475424763       -0.4961961466
 C         -2.6668484351        0.2940867534       -0.5957882242
 C         -1.8769322135        1.5286339464       -1.0508548065
 O         -0.5169905291        1.1232916903       -1.2440633820
 C          0.0652981726        0.3667108626       -0.2761495758
 C          1.4549318100        0.2746736456       -0.3576898312
 C         -2.3320393918        2.0227910563       -2.4258068760
 C         -1.9214605061        2.6830453283       -0.0447166834
 C         -4.6877523305       -3.1549509907        0.8638332193
 O         -0.5498529021       -1.4557030897        2.8084268694
 H          7.2048196136        1.8395115491       -3.0521113627
 H          6.8707108691        0.1249580373       -2.8065012844
 H          5.5451625881        1.2891616611       -2.8516958792
 H          7.7566477527        1.2550679420       -0.7459641117
 H          6.3559391020        2.3256320748       -0.7490026449
 H          6.1945015304        0.3927766770        0.8459441340
 H          6.2148709424       -0.7135275892       -0.5270224079
 H          4.1143968605        1.4482962762       -0.0448485365
 H          4.1164472572        0.2865940797       -1.3781128845
 H          3.9004366220       -1.5840263795        0.1832524815
 H          4.0643055729       -0.5047189626        1.5612632803
 H          2.0273934247       -1.5020596252        2.4363007183
 H         -2.4550617219        0.4803754459        1.5521944803
 H         -2.3141749989       -2.2108045541        1.6930845479
 H         -4.8531611093       -1.4168307445       -1.3481437155
 H         -5.8323122306       -0.8573992981        0.0005308436
 H         -4.4322251162        1.0495397109        0.3790766910
 H         -4.5877698271        0.9438698743       -1.3777551397
 H         -2.4544293512       -0.4843365828       -1.3406894012
 H          1.9316387730        0.7749950420       -1.1831759929
 H         -1.5785115310        2.6978274507       -2.8231836623
 H         -2.4401447240        1.1874584401       -3.1126901828
 H         -3.2756431502        2.5540879017       -2.3511675160
 H         -2.9501820071        2.9550272793        0.1732904615
 H         -1.4192939165        2.4072641417        0.8790651929
 H         -1.4093539494        3.5467427845       -0.4627561109
 H         -4.0504507774       -3.7784947828        1.4847786541
 H         -5.6289933480       -2.9881860782        1.3878308378
 H         -4.9138485479       -3.6920833836       -0.0573249536
 H          0.1021562225       -1.8326099989        3.4111965758
  53
        -68.44505177
 C          6.0347430442       -1.1517785627        2.1465672402
 C          5.7556993113        0.1094178724        1.3384529580
 C          4.7681976600       -0.1513763953        0.2039766285
 C          4.4833129374        1.1087606953       -0.6076591198
 C          3.4807939577        0.8540772055       -1.7404506467
 C          2.1326509731        0.4732689221       -1.1992467829
 C          1.7006547324       -0.8406804615       -1.2233906042
 C          0.4727137143       -1.2117812716       -0.6791029772
 C         -0.3247130178       -0.2541424458       -0.0624975826
 C         -1.6625718554       -0.4305440284        0.6218746729
 C         -2.2211102234       -1.8158977786        0.7229163698
 C         -3.4274828673       -2.1716328053        0.2956351595
 C         -4.3571403170       -1.1719531732       -0.3349983183
 C         -4.0525020081        0.2362340177        0.1741864038
 C         -2.5898789923        0.5505654136       -0.1170049304
 C         -2.1388917614        1.9865365777        0.2218748337
 O         -0.7123082368        2.0617028638        0.4131980541
 C          0.0778310394        1.0850305578       -0.1182355844
 C          1.2994877797        1.4458428576       -0.6630728876
 C         -2.4862847918        2.9328449277       -0.9343088105
 C         -2.7476422070        2.5135391762        1.5231039806
 C         -3.9514958710       -3.5673999613        0.4343848864
 O          0.1234878140       -2.5225619539       -0.7953304431
 H          5.1142791897       -1.5351686984        2.5813126977
 H          6.4596605625       -1.9256904291        1.5108374851
 H          6.7360713766       -0.9455198125        2.9520421843
 H          5.3499015896        0.8801089692        1.9979219421
 H          6.6926441827        0.4894688736        0.9235709857
 H          3.8314283009       -0.5288773203        0.6190857261
 H          5.1733376802       -0.9224731819       -0.4557949383
 H          4.0846680020        1.8807157402        0.0539162111
 H          5.4167999281        1.4829555187       -1.0354112887
 H          3.3882182445        1.7635727838       -2.3385733227
 H          3.8600776776        0.0584844807       -2.3839963669
 H          2.3029494482       -1.6148483553       -1.6719649729
 H         -1.5284187393       -0.0665808433        1.6537570552
 H         -1.6148192896       -2.5233350408        1.2777207866
 H         -4.2523512224       -1.2039036087       -1.4243053180
 H         -5.3897217499       -1.4400319219       -0.1007300239
 H         -4.2413993165        0.2724434418        1.2477318676
 H         -4.7048962096        0.9598694149       -0.3172896433
 H         -2.4319241845        0.4009098099       -1.1930831956
 H          1.5838157019        2.4862184929       -0.6649400164
 H         -2.1896098460        3.9471786740       -0.6809771238
 H         -1.9511053689        2.6324001299       -1.8329026665
 H         -3.5541103855        2.9150252339       -1.1347916333
 H         -2.6044601261        1.8042882695        2.3344096429
 H         -2.2428946503        3.4384404977        1.7899280782
 H         -3.8079700324        2.7111130417        1.4012854260
 H         -4.2618053101       -3.9494171598       -0.5379807409
 H         -3.1993751494       -4.2339492399        0.8492373960
 H         -4.8244518725       -3.5798365308        1.0867611651
 H         -0.7837682453       -2.6409852814       -0.4768595693
  53
        -68.44504226
 C          5.4777618322       -2.5391593292       -0.6143856994
 C          5.4187848852       -1.0677825142       -0.2222904078
 C          4.4419022449       -0.2919363542       -1.1031116659
 C          4.3794400962        1.1998750363       -0.7769961170
 C          3.7164238463        1.5072525555        0.5731386365
 C          2.2907910449        1.0363545849        0.6016259195
 C          1.9360398166       -0.1307597370        1.2640068754
 C          0.6274109525       -0.5897556559        1.2409402450
 C         -0.3625963180        0.1033961686        0.5420615777
 C         -1.7699843811       -0.4180520385        0.4576588759
 C         -1.8728715444       -1.8499637710        0.0125177261
 C         -3.0828293205       -2.3341607236       -0.2342101711
 C         -4.2587481941       -1.4346461619        0.0281356328
 C         -4.0518561742       -0.0149539656       -0.5403627355
 C         -2.5740247491        0.3895182379       -0.5761299988
 C         -2.2980763117        1.8936773054       -0.4189557196
 O         -0.9100695975        2.1169629415       -0.6921227755
 C         -0.0137662928        1.3103424025       -0.0638469756
 C          1.3051045711        1.7572832714       -0.0471830573
 C         -3.0441493817        2.7068977605       -1.4776057522
 C         -2.6164369668        2.4290708843        0.9808495157
 C         -3.3554340545       -3.7184519620       -0.7285016673
 O          0.2718192154       -1.7258931065        1.9115902041
 H          5.8060152590       -2.6465421802       -1.6460152333
 H          6.1720315940       -3.0810078861        0.0242847297
 H          4.4950226091       -2.9969718376       -0.5213636499
 H          5.1173538664       -0.9907549126        0.8234813435
 H          6.4148266357       -0.6274667805       -0.3126499227
 H          3.4422888461       -0.7205228287       -1.0041832483
 H          4.7487876906       -0.4073468932       -2.1457235871
 H          5.3911118271        1.6130110527       -0.7776715124
 H          3.8104449174        1.7041450591       -1.5607694493
 H          4.2823078987        1.0363520736        1.3776978700
 H          3.7439816237        2.5877650499        0.7309469077
 H          2.6832133699       -0.6931275196        1.8093974633
 H         -2.2482793790       -0.3281571023        1.4431331502
 H         -0.9734761716       -2.4202616248       -0.1458593096
 H         -5.1733482751       -1.8643166511       -0.3823597598
 H         -4.3909395714       -1.3599153748        1.1125239470
 H         -4.6252742590        0.6862398688        0.0674593014
 H         -4.4546054112        0.0270809349       -1.5531993927
 H         -2.1663572002        0.1185522623       -1.5587566206
 H          1.5339548646        2.6870303399       -0.5435491803
 H         -4.1125238514        2.6945138151       -1.2867398708
 H         -2.6899260882        3.7341947912       -1.4566531150
 H         -2.8519170081        2.2985489633       -2.4662506660
 H         -2.4594003375        3.5051794729        0.9979902737
 H         -3.6477643095        2.2227422353        1.2511364392
 H         -1.9584553339        1.9788583448        1.7198655299
 H         -4.0046696360       -4.2487887587       -0.0317179984
 H         -3.8626527680       -3.6824930216       -1.6929514238
 H         -2.4306074442       -4.2783314347       -0.8401143931
 H          1.0499752771       -2.0890469084        2.3508096491
  53
        -68.44503847
 C          5.7522737604        1.1903735876        2.5396871251
 C          5.7311509555        0.2901004986        1.3105909260
 C          4.6422246687        0.7033176975        0.3238102351
 C          4.6197163204       -0.1927969978       -0.9109028065
 C          3.5140665685        0.2060848655       -1.8965700982
 C          2.1513439739        0.0064095044       -1.2975516573
 C          1.6197115713       -1.2682258898       -1.1973622738
 C          0.3820299478       -1.4945350815       -0.6016040055
 C         -0.3271124867       -0.4263744622       -0.0614700928
 C         -1.6589024588       -0.4373521195        0.6564258450
 C         -2.3155932178       -1.7612981883        0.8951871573
 C         -3.5544423144       -2.0624354910        0.5222166913
 C         -4.4217480601       -1.0576684223       -0.1846666344
 C         -4.0019832361        0.3645348496        0.1844997139
 C         -2.5269784562        0.5385156493       -0.1575220304
 C         -1.9624912251        1.9612635083        0.0375138152
 O         -0.5311145233        1.9441236844        0.2070125158
 C          0.1728331379        0.8666854088       -0.2453364269
 C          1.4076544921        1.0832826336       -0.8379657895
 C         -2.2573192672        2.8168676967       -1.2010070043
 C         -2.5066754834        2.6547357347        1.2882393970
 C         -4.1767095781       -3.3959148033        0.7990173389
 O         -0.0693371459       -2.7790157296       -0.5941014264
 H          5.9443279840        2.2222566269        2.2533663107
 H          4.7948237932        1.1520374277        3.0545805772
 H          6.5290853997        0.8764532428        3.2333831996
 H          6.7042383163        0.3300470705        0.8146706653
 H          5.5610668484       -0.7434068600        1.6210840370
 H          4.8094831804        1.7385006023        0.0162647423
 H          3.6694385924        0.6572735433        0.8178172302
 H          5.5864581014       -0.1359042126       -1.4174316924
 H          4.4639257528       -1.2283475383       -0.6016601753
 H          3.6448153616        1.2522053091       -2.1789679051
 H          3.6085282977       -0.4060389174       -2.7964030941
 H          2.1509184989       -2.1214153432       -1.5891125453
 H         -1.4758926675        0.0094693587        1.6474665509
 H         -1.7503938623       -2.4586233654        1.5036000447
 H         -4.3448931167       -1.1984153812       -1.2676712128
 H         -5.4656717550       -1.2236296267        0.0903985131
 H         -4.1637091075        0.5147735830        1.2525522862
 H         -4.6097462756        1.0866750573       -0.3631619452
 H         -2.4048924123        0.2778566979       -1.2169829597
 H          1.7700588089        2.0945025829       -0.9332823526
 H         -1.8823797047        3.8255314569       -1.0491070250
 H         -1.7606697999        2.3929794513       -2.0715552213
 H         -3.3266833533        2.8603582122       -1.3889166026
 H         -2.4021496709        2.0172935604        2.1625869877
 H         -1.9295518142        3.5597565984        1.4591267659
 H         -3.5512748392        2.9199348402        1.1594164141
 H         -5.0337279326       -3.2822042165        1.4626755392
 H         -4.5353915121       -3.8417334955       -0.1285181080
 H         -3.4667236473       -4.0760269916        1.2632010494
 H         -0.9750840067       -2.7973389292       -0.2506889048
  53
        -68.44503332
 C          3.4490236122       -1.8677870443       -1.0811749315
 C          3.7505578181       -0.4674919806       -1.6012158137
 C          4.9577505237        0.1849203287       -0.9258675887
 C          4.8386865617        0.4025050648        0.5833084224
 C          3.8176268101        1.4723714175        0.9937384494
 C          2.3897024651        1.0175495985        0.8913908122
 C          1.9382624437       -0.0400731831        1.6671540224
 C          0.6335251099       -0.4964902033        1.5525647323
 C         -0.2566216547        0.0985482472        0.6546305613
 C         -1.6547284395       -0.4302486565        0.4627632059
 C         -1.7244588051       -1.9070291284        0.1707387709
 C         -2.9082694573       -2.4172338768       -0.1486807257
 C         -4.0900271334       -1.4902259252       -0.1139138846
 C         -3.7994994247       -0.1526580972       -0.8295531749
 C         -2.3212847116        0.2448266653       -0.7498207252
 C         -2.0396649853        1.7565832821       -0.7454316299
 O         -0.6280579554        1.9369449023       -0.8861341352
 C          0.1780560499        1.2167681621       -0.0569451503
 C          1.4940278203        1.6567546298        0.0515298212
 C         -2.6511891025        2.4334291419       -1.9726834968
 C         -2.5047756292        2.4606771996        0.5338887286
 C         -3.1387951097       -3.8444986063       -0.5235200773
 O          0.2640521592       -1.5318082612        2.3606844516
 H          2.6790387751       -2.3351985449       -1.6913478776
 H          4.3402763811       -2.4916322656       -1.1163632007
 H          3.0872802558       -1.8308496782       -0.0571822700
 H          3.9602809059       -0.5268156274       -2.6728340815
 H          2.8694740618        0.1601297406       -1.4708067209
 H          5.1439898933        1.1499338768       -1.4048504437
 H          5.8345984917       -0.4436745512       -1.1075926811
 H          4.5963313021       -0.5400512028        1.0731274230
 H          5.8196724739        0.7181394098        0.9491874121
 H          4.0159865085        1.7467308739        2.0340099203
 H          3.9639814776        2.3629011986        0.3797370974
 H          2.5858602393       -0.5279466000        2.3784588884
 H         -2.2629198299       -0.2116572602        1.3555508212
 H         -0.8145626507       -2.4861257972        0.1226584290
 H         -4.9649415553       -1.9633113781       -0.5604036710
 H         -4.3322443332       -1.2808542895        0.9334338351
 H         -4.4271906517        0.6192112582       -0.3825784405
 H         -4.0862802924       -0.2400432145       -1.8779188316
 H         -1.8081493770       -0.1453192605       -1.6381492426
 H          1.7928574947        2.5099879079       -0.5372791441
 H         -3.7341296531        2.4503904134       -1.9011766160
 H         -2.2820287036        3.4533434957       -2.0395850223
 H         -2.3592406379        1.9042045743       -2.8758953220
 H         -2.3498345812        3.5319029359        0.4294231599
 H         -3.5591761529        2.2777692318        0.7194476642
 H         -1.9274082667        2.1194181764        1.3897378766
 H         -2.2142888347       -4.4141223464       -0.4743544532
 H         -3.8689521909       -4.2992461124        0.1460187593
 H         -3.5351116614       -3.9067287696       -1.5368936403
 H         -0.6500079645       -1.7798901624        2.1739683683
  53
        -68.44500095
 C          3.4820026203        0.9089378067        2.3693119435
 C          3.7532373026        1.8138461346        1.1735295807
 C          4.9851059472        1.4014663399        0.3661971965
 C          4.9375383326        0.0060515782       -0.2583347879
 C          3.9300985409       -0.1463528790       -1.4065746998
 C          2.5032206363       -0.2600246177       -0.9508676613
 C          2.1070945546       -1.3292062378       -0.1612154340
 C          0.7948136107       -1.4418295225        0.2741481869
 C         -0.1641864760       -0.4927081019       -0.0893092608
 C         -1.6060357734       -0.6283648170        0.3283946394
 C         -2.2270809905       -1.9623850078        0.0032011732
 C         -3.5299830606       -2.1045004080        0.2181187512
 C         -4.2558786389       -0.9464485575        0.8418608704
 C         -3.9015296198        0.3945254032        0.1619915246
 C         -2.4793722139        0.4029440255       -0.4094238601
 C         -1.7837607736        1.7739055039       -0.4397554896
 O         -0.5752175470        1.6308499881       -1.1907013498
 C          0.2504372875        0.6028559554       -0.8468002412
 C          1.5666172414        0.7017348732       -1.2880527948
 C         -2.6158648162        2.7958049209       -1.2151581169
 C         -1.4405628649        2.3164267585        0.9519484460
 C         -4.3091084936       -3.3368416997       -0.1058871970
 O          0.4972368722       -2.5022604729        1.0791974289
 H          2.6947575482        1.3333067586        2.9890190635
 H          3.1570702716       -0.0756796654        2.0441060635
 H          4.3764970703        0.7997260315        2.9796877515
 H          2.8754146730        1.8271327280        0.5283419662
 H          3.9172419691        2.8336940221        1.5327229892
 H          5.8574316057        1.4454422874        1.0250797622
 H          5.1405275123        2.1356071843       -0.4289038014
 H          5.9330518950       -0.2097074049       -0.6560083486
 H          4.7273141888       -0.7348285240        0.5123181203
 H          4.0312649104        0.7002451194       -2.0880904470
 H          4.1849224547       -1.0544221916       -1.9605911973
 H          2.8055406805       -2.0974234632        0.1310426648
 H         -1.6977939890       -0.4445609534        1.4112180005
 H         -1.6379647041       -2.7217415866       -0.4887200232
 H         -5.3342748700       -1.1028307492        0.8065189779
 H         -3.9697731220       -0.8894793393        1.8974790152
 H         -4.0233392582        1.1935766790        0.8942989568
 H         -4.6087707956        0.5818428284       -0.6464925391
 H         -2.5235288512        0.0749824361       -1.4559200163
 H          1.8367642488        1.5582401739       -1.8860819945
 H         -2.0216925733        3.6909278852       -1.3785980557
 H         -2.8975978454        2.3908761936       -2.1835552633
 H         -3.5119744808        3.0589242200       -0.6620181014
 H         -1.0285115729        3.3180277149        0.8540135327
 H         -2.3240561067        2.3633670486        1.5819843816
 H         -0.6921872587        1.6908001656        1.4325778091
 H         -3.6634053725       -4.1091362280       -0.5160632265
 H         -4.7964308226       -3.7236736603        0.7891560863
 H         -5.0873070923       -3.1078946706       -0.8337773628
 H         -0.4432715741       -2.4917661439        1.2968333891
  53
        -68.44499465
 C          5.7751830662       -0.8618363491        2.2338704916
 C          5.5886389112       -0.3189707549        0.8222612562
 C          4.6031788400        0.8473140404        0.7958715936
 C          4.4128763963        1.4531719860       -0.5943074540
 C          3.6548914683        0.5380779537       -1.5665684596
 C          2.2663714261        0.2427863137       -1.0762117397
 C          1.9647536171       -0.9695798635       -0.4712556727
 C          0.6855739175       -1.2297396614       -0.0025321098
 C         -0.3331495613       -0.2848769926       -0.1384385887
 C         -1.7396793365       -0.5828769640        0.3007948478
 C         -2.2904550162       -1.8771009295       -0.2291715719
 C         -3.5737281075       -2.1354884557       -0.0153520188
 C         -4.3539477677       -1.1492481588        0.8088666832
 C         -4.0984625398        0.3100743912        0.3769638055
 C         -2.6970143569        0.5075259299       -0.2111264645
 C         -2.0860361266        1.9029041124       -0.0043531419
 O         -0.8928789746        1.9818211291       -0.7923770059
 C         -0.0076864315        0.9550460801       -0.6882358582
 C          1.2761680374        1.2037800029       -1.1669823364
 C         -2.9996389958        2.9953691733       -0.5616158029
 C         -1.7319829564        2.2031913299        1.4558189674
 C         -4.2865475515       -3.3506274985       -0.5155575843
 O          0.3939526540       -2.4125620228        0.6163319200
 H          4.8254781025       -1.2077825753        2.6369335172
 H          6.4746857590       -1.6949581887        2.2373358215
 H          6.1617143329       -0.0872819393        2.8928043112
 H          6.5529356207        0.0141550962        0.4308052454
 H          5.2303124256       -1.1224665499        0.1769072016
 H          4.9711808365        1.6268118886        1.4678733246
 H          3.6345396549        0.5150220125        1.1754907034
 H          3.8536065402        2.3856440595       -0.4942713308
 H          5.3899863736        1.6921356775       -1.0211505526
 H          3.5958073015        1.0401355776       -2.5348495810
 H          4.2077885653       -0.3917671296       -1.7042727833
 H          2.7309180269       -1.7266198487       -0.3624686094
 H         -1.7772321701       -0.6156206110        1.3987458526
 H         -1.6541950194       -2.5245277159       -0.8081290957
 H         -5.4221187795       -1.3643119209        0.7604146110
 H         -4.0448003618       -1.2628704183        1.8531223684
 H         -4.2436052019        0.9561918358        1.2438268041
 H         -4.8392570382        0.5968269482       -0.3705630168
 H         -2.7578185832        0.3732970200       -1.2989804006
 H          1.4774716773        2.1676716800       -1.6069425677
 H         -2.4655051527        3.9419119323       -0.5667806374
 H         -3.2855880026        2.7580330269       -1.5828938684
 H         -3.8931825756        3.0938645086        0.0465721893
 H         -1.3684199392        3.2252406873        1.5343635682
 H         -2.6007791306        2.0917409233        2.0977251853
 H         -0.9463718914        1.5365083516        1.8023645025
 H         -3.6068933097       -4.0007128222       -1.0602312677
 H         -4.7143226970       -3.9090217638        0.3171873206
 H         -5.1039698464       -3.0637134315       -1.1775254163
 H          1.1880461385       -2.9595177382        0.6406278815
  53
        -68.44496303
 C          5.3790538494        1.2003418512       -2.0533484960
 C          5.3230111936       -0.3199503217       -1.9696402609
 C          4.2770941053       -0.8531650794       -0.9886317915
 C          4.5575451600       -0.5180128362        0.4813742275
 C          3.8095121590        0.7240529014        0.9889098651
 C          2.3224695575        0.5222817083        0.9491591133
 C          1.6980639142       -0.2853457747        1.8899823143
 C          0.3335503170       -0.5230890378        1.8344883775
 C         -0.4523518618        0.0244945933        0.8159175169
 C         -1.9314782699       -0.2504340049        0.6871989163
 C         -2.3116496444       -1.7028702938        0.8036572305
 C         -3.3605541089       -2.2269018328        0.1861694133
 C         -4.2530866678       -1.4339797216       -0.7311661756
 C         -3.9530171289        0.0649548945       -0.7016761778
 C         -2.4408629012        0.2580324140       -0.6652132515
 C         -1.9197978580        1.6733627241       -0.9490225225
 O         -0.4923562219        1.5971460308       -1.0377694474
 C          0.1681986285        0.9023440604       -0.0742317971
 C          1.5431248785        1.1265359438       -0.0175630628
 C         -2.3657804996        2.1815951567       -2.3217601949
 C         -2.3046964996        2.6903290324        0.1300508756
 C         -3.7309891020       -3.6732025260        0.3295643705
 O         -0.2664208707       -1.2862413507        2.7980490231
 H          6.0558332913        1.5078906893       -2.8482221907
 H          4.3928325534        1.6052325995       -2.2690580981
 H          5.7387911386        1.6300326456       -1.1221329754
 H          5.0909305265       -0.7164462002       -2.9614688678
 H          6.3078134807       -0.7016685797       -1.6876756490
 H          4.2459145336       -1.9396280127       -1.1008676656
 H          3.2920400999       -0.4721994048       -1.2634614562
 H          4.2587155470       -1.3652266705        1.1024156960
 H          5.6304662048       -0.3713921709        0.6241332136
 H          4.1224062890        0.9173028812        2.0186339865
 H          4.0730622217        1.5910298380        0.3855153213
 H          2.2795931262       -0.7319711952        2.6868777388
 H         -2.4469574290        0.2823228465        1.5009722125
 H         -1.7059123919       -2.3130537220        1.4525328515
 H         -4.1178518499       -1.8130769176       -1.7504528875
 H         -5.2985350622       -1.6114511138       -0.4637121179
 H         -4.4020949044        0.5123640295        0.1870926989
 H         -4.3922837112        0.5400606241       -1.5794531435
 H         -1.9998071157       -0.3811963073       -1.4416448320
 H          1.9737784409        1.8014389030       -0.7405765528
 H         -3.4085493008        2.4822429172       -2.3009264147
 H         -1.7573035332        3.0405172418       -2.5927158622
 H         -2.2260974328        1.4112013527       -3.0756013142
 H         -3.3823236332        2.7087613291        0.2648437149
 H         -1.8284750219        2.4459495461        1.0761826523
 H         -1.9699408808        3.6805293411       -0.1706766538
 H         -3.0188861675       -4.1970130495        0.9613399847
 H         -4.7234613723       -3.7683667487        0.7702829693
 H         -3.7559767124       -4.1571109369       -0.6468575318
 H          0.4008036550       -1.5637807090        3.4371002923
  53
        -68.44492936
 C          5.4609979260        1.7121610881       -1.7876024815
 C          5.5055211899        2.1073978126       -0.3168500936
 C          4.4680519642        1.3949557449        0.5529613338
 C          4.6780095776       -0.1190238609        0.6782324399
 C          3.8291593466       -0.9479870681       -0.2976374614
 C          2.3601429542       -0.7742254208       -0.0402168444
 C          1.7682807282       -1.3565081155        1.0723508651
 C          0.4159135177       -1.1940607659        1.3298053875
 C         -0.3984599612       -0.4552344567        0.4661747685
 C         -1.8854490852       -0.2983036991        0.6774360525
 C         -2.6135063046       -1.5798206920        0.9863209026
 C         -3.8771726152       -1.7925665095        0.6487073911
 C         -4.7012332216       -0.7924318141       -0.1176618319
 C         -4.0024987036        0.5587813594       -0.2710332218
 C         -2.5280358318        0.3126907654       -0.5719597060
 C         -1.7168843122        1.5154888659       -1.0721005399
 O         -0.4240103045        1.0335535503       -1.4560549650
 C          0.2198243487        0.1921696183       -0.6046762483
 C          1.5779088832        0.0115211119       -0.8634748974
 C         -2.3052016190        2.1076079171       -2.3546288544
 C         -1.5525884382        2.6173925787       -0.0205313199
 C         -4.5876198234       -3.0710412680        0.9807567343
 O         -0.1356917006       -1.7461855744        2.4530786791
 H          4.4574265140        1.8434893583       -2.1860732589
 H          6.1417460724        2.3352060839       -2.3645942724
 H          5.7591521709        0.6758633966       -1.9227608951
 H          6.5044607168        1.9076312793        0.0795944255
 H          5.3326212702        3.1838931077       -0.2384581296
 H          3.4685083028        1.5886669702        0.1601594472
 H          4.5151034413        1.8396939967        1.5499786202
 H          5.7328918202       -0.3550201663        0.5219254790
 H          4.4219434609       -0.4305316606        1.6931419675
 H          4.0516007551       -0.6590682133       -1.3234284493
 H          4.0950544495       -2.0014235620       -0.1750199539
 H          2.3670599407       -1.9491382271        1.7526954502
 H         -2.0368747281        0.3722047421        1.5372225486
 H         -2.0685036412       -2.3274655356        1.5378262855
 H         -4.9094878604       -1.2100476678       -1.1091969610
 H         -5.6665113828       -0.6601095934        0.3790485842
 H         -4.0982621214        1.1294535562        0.6546845323
 H         -4.4809550660        1.1258644752       -1.0702013971
 H         -2.4669544976       -0.4382450879       -1.3709169080
 H          1.9967333740        0.5079648430       -1.7247821335
 H         -1.5621712620        2.7524607518       -2.8166794708
 H         -2.5569735587        1.3171560912       -3.0568034964
 H         -3.1923848219        2.6937617264       -2.1365845929
 H         -0.9607725633        2.2623674946        0.8193601319
 H         -1.0357602918        3.4657513440       -0.4635294737
 H         -2.5239584628        2.9452272311        0.3382644717
 H         -5.4421230628       -2.8728024363        1.6279296248
 H         -4.9638708278       -3.5428328416        0.0729889882
 H         -3.9229664345       -3.7661311887        1.4864370158
 H          0.5563131279       -2.1970388650        2.9515403286
  53
        -68.44487289
 C          4.8174141863       -1.0045574914       -2.6288218840
 C          5.4257986617       -1.2400850211       -1.2512080198
 C          4.5715945418       -0.6781731135       -0.1146601963
 C          4.5155696200        0.8470604283       -0.1011547147
 C          3.7062157931        1.3804411534        1.0877400325
 C          2.2662620543        0.9633019802        0.9961507140
 C          1.7642563986       -0.0542095091        1.7954351166
 C          0.4469476873       -0.4699258655        1.6698976193
 C         -0.4020264275        0.1144608551        0.7281224452
 C         -1.8116178586       -0.3723953317        0.5383218721
 C         -1.9309739647       -1.8576497939        0.3410222612
 C         -3.1211347032       -2.3433580516        0.0139643779
 C         -4.2715821246       -1.3777210690       -0.0548336283
 C         -3.9139418608       -0.0908471864       -0.8279029647
 C         -2.4251187539        0.2576233664       -0.7242735818
 C         -2.0921255523        1.7567575962       -0.7954695307
 O         -0.6700593711        1.8864862859       -0.9046685478
 C          0.0893002074        1.1811154633       -0.0244282258
 C          1.4162262216        1.5850207430        0.0998732447
 C         -2.6448198289        2.3862662201       -2.0748974946
 C         -2.5657645439        2.5454092395        0.4297654100
 C         -3.3989786972       -3.7859035263       -0.2632761669
 O         -0.0565494736       -1.4541905948        2.4726756755
 H          3.8047439894       -1.4000944791       -2.6681797773
 H          4.7810417576        0.0556327419       -2.8645079656
 H          5.4105733192       -1.5007384499       -3.3939801155
 H          5.5434250071       -2.3158633377       -1.0984909546
 H          6.4213845779       -0.7913373962       -1.2117989799
 H          4.9853069782       -1.0222482459        0.8372367052
 H          3.5566113773       -1.0726115750       -0.1979411607
 H          5.5317443926        1.2456989218       -0.0484022388
 H          4.0571140735        1.2063038036       -1.0227538955
 H          4.1430310241        1.0101771857        2.0175476858
 H          3.7678554850        2.4710652900        1.0933024232
 H          2.4030759983       -0.5317442948        2.5275592564
 H         -2.4120086857       -0.0916667169        1.4150542712
 H         -1.0505718531       -2.4730354853        0.4147917682
 H         -5.1444417999       -1.8480362932       -0.5093176122
 H         -4.5441396417       -1.1043519878        0.9698458764
 H         -4.5250963873        0.7250458440       -0.4396429583
 H         -4.1742420222       -0.2208781950       -1.8791764081
 H         -1.9045798232       -0.1983901127       -1.5764926800
 H          1.7588231070        2.4031904905       -0.5136555602
 H         -3.7281752053        2.4398820610       -2.0375711776
 H         -2.2416873444        3.3896618635       -2.1844107576
 H         -2.3445870475        1.8003402709       -2.9396063642
 H         -2.3558708003        3.6019975567        0.2797760019
 H         -3.6334145724        2.4204037875        0.5841835862
 H         -2.0369721422        2.2181810427        1.3214206212
 H         -3.7685977402       -3.9108891233       -1.2813494524
 H         -2.4991308211       -4.3831970487       -0.1418547910
 H         -4.1639797178       -4.1620770832        0.4160633321
 H          0.6355107424       -1.7555684711        3.0730497280
  53
        -68.44483511
 C          4.9346057728        2.6458117185        1.4665277985
 C          5.5772064345        1.2646166467        1.4129317152
 C          4.7082327598        0.2272361291        0.7015723482
 C          4.5702860882        0.4827270300       -0.7968823727
 C          3.7295080082       -0.5980591229       -1.4885525066
 C          2.3141607758       -0.5955825731       -0.9853243347
 C          1.8717822258       -1.5616465857       -0.0924554922
 C          0.5695863394       -1.5428877313        0.3847683558
 C         -0.3307395770       -0.5589913712       -0.0283055568
 C         -1.7626022069       -0.5677763118        0.4296855829
 C         -2.4630355946       -1.8840750132        0.2404454790
 C         -3.7677669610       -1.9282377084        0.4749861849
 C         -4.4252062733       -0.6771066481        0.9881920526
 C         -3.9983483782        0.5782384161        0.1985898107
 C         -2.5844865174        0.4511115688       -0.3789224411
 C         -1.8119220199        1.7717362169       -0.5278154299
 O         -0.6192159321        1.5016952704       -1.2730471339
 C          0.1388223362        0.4454938336       -0.8744942607
 C          1.4434683351        0.4112470765       -1.3602090429
 C         -2.5903032498        2.7756503026       -1.3791942019
 C         -1.4218604623        2.4044965253        0.8120273228
 C         -4.6199503617       -3.1423772411        0.2888197902
 O          0.1391661588       -2.4786395877        1.2824528050
 H          4.8294728422        3.0677006613        0.4706573466
 H          3.9476912971        2.5868917739        1.9205298954
 H          5.5454203807        3.3242703961        2.0581794616
 H          6.5448495583        1.3328155897        0.9099097243
 H          5.7605920549        0.9230655022        2.4347504281
 H          3.7149321500        0.2178170121        1.1555271920
 H          5.1508094499       -0.7615508583        0.8494725123
 H          4.0966745510        1.4505630509       -0.9624333332
 H          5.5635423116        0.5080364530       -1.2518920354
 H          3.7303580260       -0.4085441613       -2.5643075357
 H          4.1841521188       -1.5755325051       -1.3148053270
 H          2.5464968581       -2.3407658581        0.2390665589
 H         -1.8033423846       -0.3054905911        1.4962550014
 H         -1.9081829958       -2.7295596807       -0.1289783651
 H         -5.5113459093       -0.7734889742        0.9643552943
 H         -4.1316884107       -0.5468532548        2.0350077630
 H         -4.0636549530        1.4413931759        0.8624483178
 H         -4.7009961350        0.7425912283       -0.6193665509
 H         -2.6626939318        0.0421296688       -1.3946711725
 H          1.7566047500        1.1940470020       -2.0327767999
 H         -3.4648955764        3.1330565075       -0.8450320397
 H         -1.9477465561        3.6194679468       -1.6165976979
 H         -2.9039293750        2.3114277829       -2.3104337731
 H         -2.2967281049        2.5693237647        1.4338837450
 H         -0.7220795529        1.7661800267        1.3455760963
 H         -0.9374799857        3.3611871232        0.6299050545
 H         -5.1104982802       -3.4086225247        1.2251496795
 H         -5.3979031850       -2.9485761135       -0.4500314431
 H         -4.0224478210       -3.9864494868       -0.0453799488
 H          0.8636008389       -3.0849539948        1.4769576250
  53
        -68.44483446
 C          4.9758328074        2.6771371413        1.3980613132
 C          5.5985796879        1.2859679666        1.3807509408
 C          4.7140430257        0.2419267808        0.6989463629
 C          4.5724037595        0.4627435771       -0.8046389920
 C          3.7259574198       -0.6309516097       -1.4681968212
 C          2.3116112049       -0.6143394700       -0.9622477073
 C          1.8655028208       -1.5667528370       -0.0566618876
 C          0.5621919859       -1.5389675064        0.4171673125
 C         -0.3351988825       -0.5591097758       -0.0115124249
 C         -1.7695201985       -0.5619948944        0.4388474849
 C         -2.4692487358       -1.8798655488        0.2580973824
 C         -3.7757858572       -1.9213322298        0.4826088226
 C         -4.4372804848       -0.6654045384        0.9788130890
 C         -4.0028716246        0.5832205527        0.1826038964
 C         -2.5859146115        0.4487799255       -0.3853240348
 C         -1.8111309392        1.7669279482       -0.5441880336
 O         -0.6153914178        1.4874639153       -1.2810794657
 C          0.1389853278        0.4341258153       -0.8683247426
 C          1.4444035691        0.3902189975       -1.3511908670
 C         -2.5842048425        2.7629548455       -1.4095719789
 C         -1.4268388345        2.4130957840        0.7908978346
 C         -4.6267713491       -3.1370923311        0.3012028741
 O          0.1272403896       -2.4620484509        1.3256879623
 H          5.5973300511        3.3624178038        1.9704429861
 H          4.8752114882        3.0735120693        0.3912907145
 H          3.9889515036        2.6446461994        1.8547847164
 H          6.5660466728        1.3270436499        0.8744055295
 H          5.7794109689        0.9694622698        2.4110662945
 H          3.7227254544        0.2548688611        1.1571734978
 H          5.1461841847       -0.7479510648        0.8689642152
 H          4.1020676218        1.4282631466       -0.9914736947
 H          5.5643622452        0.4733901079       -1.2630811350
 H          3.7240740005       -0.4663375953       -2.5480983474
 H          4.1784753072       -1.6054874751       -1.2736247876
 H          2.5376677911       -2.3429886070        0.2865651513
 H         -1.8165400279       -0.2890184911        1.5024404921
 H         -1.9119240649       -2.7293238539       -0.0984308950
 H         -5.5231828647       -0.7618055219        0.9459345065
 H         -4.1532844303       -0.5264878083        2.0271222466
 H         -4.0701941771        1.4513905932        0.8396780599
 H         -4.7001325976        0.7431146944       -0.6408276522
 H         -2.6587772816        0.0288945880       -1.3970310380
 H          1.7606966577        1.1633837840       -2.0333181712
 H         -3.4608335523        3.1269925205       -0.8832412565
 H         -1.9394472154        3.6034904948       -1.6526187151
 H         -2.8940858457        2.2896104889       -2.3374821302
 H         -0.7304747329        1.7795592227        1.3344677470
 H         -0.9404907588        3.3673072124        0.6012811131
 H         -2.3046111746        2.5852953981        1.4066472904
 H         -5.3980487760       -2.9504143019       -0.4464512999
 H         -4.0266337852       -3.9846166027       -0.0192866184
 H         -5.1256851293       -3.3937795792        1.2357623576
 H          0.8499048010       -3.0671415337        1.5303903667
  53
        -68.44480153
 C          5.2678631084        1.2080609855        2.3726078838
 C          5.4500692480        1.8806878457        1.0167975940
 C          4.4582459607        1.3868010734       -0.0366487692
 C          4.6972218258       -0.0606791814       -0.4571154453
 C          3.7157236244       -0.5104852981       -1.5474121072
 C          2.3010846896       -0.5186829673       -1.0427053782
 C          1.8697739260       -1.5339452030       -0.1982755583
 C          0.5735362536       -1.5456595677        0.2917917224
 C         -0.3344223319       -0.5439735275       -0.0600317011
 C         -1.7622790193       -0.5838102552        0.4086457480
 C         -2.4591826838       -1.8907778585        0.1530726859
 C         -3.7618936999       -1.9533207537        0.3944450336
 C         -4.4205184179       -0.7351044538        0.9801738306
 C         -4.0041459981        0.5637130508        0.2581323676
 C         -2.5946054238        0.4741168987       -0.3366728295
 C         -1.8281806335        1.8040749381       -0.4197639249
 O         -0.6405275924        1.5798120284       -1.1879650934
 C          0.1236277182        0.5057211579       -0.8547038190
 C          1.4250852423        0.5034513116       -1.3537080554
 C         -2.6171562914        2.8494932973       -1.2091997807
 C         -1.4296132529        2.3648955110        0.9492732915
 C         -4.6104944083       -3.1592767359        0.1484558710
 O          0.1531475818       -2.5302595183        1.1406934083
 H          5.9301727776        1.6568958937        3.1097258683
 H          4.2422989522        1.3227437551        2.7171201959
 H          5.4954886440        0.1467495112        2.3172689638
 H          5.3175541793        2.9583013654        1.1398356345
 H          6.4698774097        1.7125788281        0.6619685778
 H          4.5385136215        2.0248002872       -0.9203434948
 H          3.4416962276        1.4846506075        0.3499949669
 H          5.7184301292       -0.1639143502       -0.8324144098
 H          4.5875096797       -0.7176675802        0.4066261488
 H          3.7968098904        0.1606778250       -2.4039470133
 H          3.9905112295       -1.5161853292       -1.8750195271
 H          2.5496676823       -2.3293703399        0.0799664821
 H         -1.7952791087       -0.3804519921        1.4882429599
 H         -1.9039531371       -2.7125249373       -0.2660173980
 H         -5.5064194310       -0.8347686412        0.9584284799
 H         -4.1202023633       -0.6614929031        2.0305712389
 H         -4.0668897178        1.3884584327        0.9693760465
 H         -4.7139139632        0.7705466901       -0.5438913345
 H         -2.6795695332        0.1206347259       -1.3725162680
 H          1.7297911652        1.3251169474       -1.9821441557
 H         -2.9366976930        2.4352027044       -2.1617526833
 H         -3.4886740297        3.1738927175       -0.6495208708
 H         -1.9796051314        3.7075283425       -1.4056020951
 H         -2.3001624727        2.4934180602        1.5855621118
 H         -0.7242233275        1.7008833276        1.4425165285
 H         -0.9491344287        3.3314116542        0.8152149867
 H         -5.3941691698       -2.9291221191       -0.5737499816
 H         -4.0119592266       -3.9814662420       -0.2348993701
 H         -5.0936650020       -3.4779092655        1.0721873051
 H          0.8806919300       -3.1440392889        1.2961312801
  53
        -68.44479044
 C          6.6386046668       -0.9805456411       -1.7246014497
 C          5.1456262509       -1.2806121483       -1.6530527446
 C          4.4839506383       -0.7556815686       -0.3787113716
 C          4.4404304732        0.7684551419       -0.3065916128
 C          3.6807692704        1.2639881944        0.9309507300
 C          2.2307169891        0.8761696079        0.8806582836
 C          1.7398098275       -0.1600255596        1.6627372618
 C          0.4097674343       -0.5443049040        1.5771099601
 C         -0.4640553807        0.0912877784        0.6930575975
 C         -1.8908706509       -0.3586134844        0.5456938374
 C         -2.0521113711       -1.8331137640        0.3029178733
 C         -3.2657544575       -2.2813530236        0.0105254122
 C         -4.3953061492       -1.2890499023        0.0232350094
 C         -4.0406159701        0.0151953912       -0.7213774541
 C         -2.5413353758        0.3285693024       -0.6676205915
 C         -2.1784859606        1.8220787865       -0.7004414670
 O         -0.7595024854        1.9264398902       -0.8634817087
 C          0.0193811680        1.1742768054       -0.0410606121
 C          1.3586051436        1.5468047365        0.0427812712
 C         -2.7684976059        2.5080210942       -1.9333614134
 C         -2.5845238087        2.5762916441        0.5698683034
 C         -3.5881136383       -3.7070004752       -0.3036237298
 O         -0.0817439985       -1.5467049633        2.3646834787
 H          7.0747842581       -1.4437906652       -2.6068726682
 H          6.8203912359        0.0894727342       -1.7810126076
 H          7.1478359548       -1.3713859808       -0.8459420332
 H          4.6456353356       -0.8458944508       -2.5214606693
 H          5.0023872948       -2.3630183759       -1.6985356998
 H          5.0204013949       -1.1443192422        0.4908220429
 H          3.4596801381       -1.1333965821       -0.3351986153
 H          5.4557054694        1.1672247153       -0.2740514730
 H          3.9515321927        1.1560052007       -1.2026091589
 H          4.1460090528        0.8489702963        1.8274108823
 H          3.7613965317        2.3523501072        0.9786683691
 H          2.3973219421       -0.6764543579        2.3506595250
 H         -2.4481642412       -0.0961816264        1.4559307684
 H         -1.1836067608       -2.4693039576        0.3177222745
 H         -5.2972116609       -1.7242979624       -0.4088882460
 H         -4.6181378351       -1.0447381397        1.0670800557
 H         -4.6173553091        0.8301805372       -0.2819595688
 H         -4.3459703767       -0.0741859533       -1.7647209053
 H         -2.0661705826       -0.1074895280       -1.5559934486
 H          1.6935385835        2.3802517675       -0.5541413224
 H         -2.3478626913        3.5060057157       -2.0246160852
 H         -2.5165356124        1.9470050357       -2.8294135174
 H         -3.8480217841        2.5827596079       -1.8495948042
 H         -2.3578587039        3.6330350478        0.4480345403
 H         -3.6474471816        2.4676414571        0.7639350406
 H         -2.0271291417        2.2068146672        1.4269382711
 H         -2.6980193772       -4.3275362089       -0.2409644745
 H         -4.3325942591       -4.0899784043        0.3945173301
 H         -4.0027773038       -3.7883204448       -1.3087604082
 H          0.6274611457       -1.8835346367        2.9248839627
  53
        -68.44478392
 C          7.2487416360       -1.6819983641       -0.1543023946
 C          7.1236185010       -0.2118273294        0.2288212849
 C          5.9813018607        0.5049054229       -0.4923155086
 C          4.5972267319        0.0254202865       -0.0585944261
 C          3.4968680338        0.8259605152       -0.7498965286
 C          2.0870052920        0.4985807971       -0.3314686905
 C          1.7588827072       -0.5982915158        0.4497375478
 C          0.4375735280       -0.8711097434        0.7804265632
 C         -0.6068328975       -0.0684221890        0.3189606789
 C         -2.0593674975       -0.3612158432        0.6098177985
 C         -2.4685490551       -1.7925368460        0.3832830494
 C         -3.6913770366       -2.1453393229        0.0141271540
 C         -4.7850517979       -1.1478098186       -0.2606500592
 C         -4.4026075575        0.2768090986        0.1414082619
 C         -2.9535051573        0.5245105802       -0.2636783539
 C         -2.4710714320        1.9812123606       -0.2396248060
 O         -1.1596877679        2.0111113023       -0.8145294174
 C         -0.2617249515        1.0788844697       -0.3999528424
 C          1.0637847937        1.3402605384       -0.7333163991
 C         -3.3128452350        2.8765388253       -1.1515319291
 C         -2.4182803064        2.5806323211        1.1692282354
 C         -4.0812841614       -3.5792621711       -0.1894877840
 O          0.1495777423       -1.9365125866        1.5889940064
 H          7.3585143021       -1.7858074982       -1.2317346658
 H          8.1209655023       -2.1234690702        0.3227604466
 H          6.3729466127       -2.2446990568        0.1580702255
 H          6.9763789861       -0.1289104717        1.3082608233
 H          8.0605945983        0.2945541230       -0.0153309380
 H          6.0919276919        0.3629895613       -1.5701137636
 H          6.0601708767        1.5764504548       -0.2913651474
 H          4.4873911072       -1.0306021640       -0.3078634748
 H          4.5039633468        0.1371735764        1.0242673934
 H          3.6664807099        1.8913995954       -0.5701223530
 H          3.5741737327        0.6722504729       -1.8311906481
 H          2.5268740928       -1.2612427610        0.8220478954
 H         -2.2436606446       -0.1394984515        1.6721822306
 H         -1.7219803961       -2.5460732545        0.5703930570
 H         -5.0117788201       -1.1760426227       -1.3324417172
 H         -5.6951213129       -1.4528645417        0.2634754414
 H         -4.5073945305        0.3945233502        1.2216594189
 H         -5.0762051762        0.9838523287       -0.3438904094
 H         -2.8307513919        0.1890627400       -1.3020945051
 H          1.2736408166        2.2284934024       -1.3083780501
 H         -3.4759966282        2.3939329800       -2.1115941194
 H         -4.2703515708        3.1021958859       -0.6927318965
 H         -2.7764342189        3.8062985174       -1.3223147849
 H         -3.3880470064        2.4987717596        1.6515669109
 H         -1.6717097758        2.0734119099        1.7750013733
 H         -2.1439759751        3.6311402985        1.1047722128
 H         -4.4546024153       -3.7309624638       -1.2023075522
 H         -3.2344867649       -4.2402169653       -0.0261711909
 H         -4.8780446566       -3.8569405010        0.5007216961
 H          0.9739841059       -2.3694387062        1.8412899960
  53
        -68.44475894
 C          6.5942753035       -0.8536955734       -1.8451661562
 C          5.0847475733       -1.0675550307       -1.8469611943
 C          4.3153912093        0.0474356742       -1.1383293655
 C          4.5633055575        0.0879870372        0.3671970872
 C          3.6946705554        1.1443650138        1.0635382290
 C          2.2342387943        0.8076398811        0.9703237404
 C          1.6929196011       -0.1739140817        1.7909803383
 C          0.3583978380       -0.5315503148        1.6830112026
 C         -0.4720250259        0.0763498147        0.7382495558
 C         -1.9040997266       -0.3481892538        0.5684906756
 C         -2.0937504655       -1.8296235449        0.3997415123
 C         -3.3082302275       -2.2651542203        0.0919944641
 C         -4.4126439289       -1.2478217825        0.0144241310
 C         -4.0023840902        0.0048109628       -0.7880325534
 C         -2.4984203854        0.2868703603       -0.7007988963
 C         -2.0985754093        1.7679043160       -0.8011357714
 O         -0.6729097838        1.8314269896       -0.9216051141
 C          0.0602225642        1.1067036280       -0.0351076371
 C          1.4065241110        1.4520470674        0.0710932323
 C         -2.6314870686        2.3992761505       -2.0880375126
 C         -2.5271394304        2.5986250731        0.4128050003
 C         -3.6555649752       -3.6978870701       -0.1561676377
 O         -0.1838152268       -1.4766858845        2.5072715124
 H          6.9936812279       -0.8881378458       -0.8349268073
 H          7.0864381449       -1.6283495958       -2.4292186762
 H          6.8414330188        0.1121301120       -2.2808133042
 H          4.7393143362       -1.1233334589       -2.8820587110
 H          4.8529796968       -2.0233622239       -1.3711481005
 H          3.2466532068       -0.0987528062       -1.3103218607
 H          4.5928846378        1.0094831999       -1.5755925517
 H          4.3447559137       -0.8937267745        0.7936231224
 H          5.6122148476        0.3158274749        0.5644874878
 H          3.9877338254        1.2024491396        2.1148125647
 H          3.8785801679        2.1171120300        0.6046623987
 H          2.3162446481       -0.6641362334        2.5282218978
 H         -2.4834197573       -0.0239951751        1.4444257774
 H         -1.2420156046       -2.4836780671        0.4768203661
 H         -5.3113147135       -1.6850141324       -0.4224441261
 H         -4.6615963376       -0.9413186923        1.0357077270
 H         -4.5731111688        0.8557251231       -0.4136694273
 H         -4.2757261116       -0.1354938178       -1.8346641702
 H         -2.0055773015       -0.2071580977       -1.5482683852
 H          1.7798145144        2.2419574850       -0.5611213576
 H         -2.3641258820        1.7851795170       -2.9439188592
 H         -3.7110539772        2.5025124280       -2.0448874194
 H         -2.1841224667        3.3812289706       -2.2180702661
 H         -3.5980258784        2.5240498181        0.5768335964
 H         -2.0065376565        2.2639281055        1.3065129099
 H         -2.2715815848        3.6419758650        0.2424016396
 H         -2.7834550331       -4.3343441589       -0.0314470733
 H         -4.4308656372       -4.0254561824        0.5365427884
 H         -4.0402489501       -3.8238767244       -1.1685302096
 H          0.4982706864       -1.7995922908        3.1078446491
  53
        -68.44475448
 C          6.8055200615        1.7885877327        0.8051745339
 C          5.3131998739        1.8248459893        1.1153691401
 C          4.4480771368        1.2554708093       -0.0092329267
 C          4.6387157470       -0.2447794467       -0.2156496658
 C          3.6691344315       -0.8087795073       -1.2631838239
 C          2.2411613349       -0.7158024382       -0.8072410357
 C          1.7585631796       -1.5981416538        0.1511360326
 C          0.4477597108       -1.5170643300        0.5934246004
 C         -0.4238370617       -0.5544413858        0.0783688926
 C         -1.8665553019       -0.5024366894        0.4976250049
 C         -2.5859726035       -1.8182913833        0.3971263431
 C         -3.8969093534       -1.8222053360        0.5989545038
 C         -4.5444615865       -0.5229749843        0.9907399586
 C         -4.0745677821        0.6563815550        0.1133264294
 C         -2.6487483986        0.4599353141       -0.4131487059
 C         -1.8486955059        1.7514396066       -0.6478780089
 O         -0.6419936648        1.4023892019       -1.3357141181
 C          0.0846986982        0.3685341754       -0.8340734580
 C          1.4009100928        0.2724655491       -1.2829612251
 C         -2.5863162469        2.6943856140       -1.5993544902
 C         -1.4822903701        2.4856880131        0.6460636692
 C         -4.7657212070       -3.0338165571        0.4890560555
 O         -0.0232594612       -2.3689161549        1.5521895840
 H          7.0115556427        2.3036490967       -0.1307718055
 H          7.3679458630        2.2792909219        1.5966111648
 H          7.1634339599        0.7657232635        0.7215336215
 H          5.1201132420        1.2673849740        2.0349462879
 H          5.0157883981        2.8615616791        1.2908439537
 H          4.6775953894        1.7795907441       -0.9400161726
 H          3.3980326351        1.4426422710        0.2264233348
 H          5.6598264806       -0.4470515027       -0.5433400900
 H          4.4805133225       -0.7604011955        0.7342779733
 H          3.7930657402       -0.2590551300       -2.1975534742
 H          3.9223694518       -1.8557811066       -1.4477537580
 H          2.4095846252       -2.3622107244        0.5569814037
 H         -1.9294098758       -0.1532418009        1.5378426562
 H         -2.0373209590       -2.7000743447        0.1132373881
 H         -5.6312130424       -0.6035639573        0.9451277070
 H         -4.2757568692       -0.3121649223        2.0311005471
 H         -4.1413570115        1.5718949761        0.7026794677
 H         -4.7526821616        0.7643588876       -0.7342223864
 H         -2.7081210234       -0.0294429882       -1.3940306870
 H          1.7447680435        0.9939337046       -2.0070398014
 H         -2.8838417487        2.1604427150       -2.4979119016
 H         -3.4679900375        3.1081217331       -1.1203866036
 H         -1.9226338059        3.5055777407       -1.8869602077
 H         -2.3699701138        2.7149487707        1.2280533481
 H         -0.8083933788        1.8822976704        1.2490496602
 H         -0.9759892212        3.4163215769        0.3998361201
 H         -4.1751019200       -3.9118853266        0.2412257620
 H         -5.2850860622       -3.2145869438        1.4302654567
 H         -5.5206982931       -2.8888253625       -0.2841133932
 H          0.6838143231       -2.9702856132        1.8141431700
  53
        -68.44473845
 C          6.8819391379        1.4665660974        1.0299287597
 C          5.4167805373        1.3663599603        1.4390400972
 C          4.6537156261        0.2729494404        0.6910367817
 C          4.4817725645        0.5684173788       -0.7966206906
 C          3.6248070954       -0.4928198065       -1.4992794898
 C          2.2149461756       -0.5026073851       -0.9812604225
 C          1.7819572021       -1.4895798354       -0.1066757338
 C          0.4822785198       -1.4872383900        0.3778335904
 C         -0.4249523199       -0.4993910188       -0.0097677987
 C         -1.8555163872       -0.5275153132        0.4515102804
 C         -2.5476910827       -1.8438505583        0.2337954438
 C         -3.8518108463       -1.9019973513        0.4686278296
 C         -4.5170560967       -0.6672931617        1.0106960985
 C         -4.0993655239        0.6085764917        0.2496010150
 C         -2.6855881211        0.5038323831       -0.3325851866
 C         -1.9219010542        1.8325095111       -0.4527741037
 O         -0.7291233412        1.5872392036       -1.2064849532
 C          0.0358261202        0.5262461139       -0.8351766620
 C          1.3380543273        0.5087930181       -1.3283238985
 C         -2.7085692361        2.8505144285       -1.2795355765
 C         -1.5333299341        2.4368719233        0.9005154134
 C         -4.6960100139       -3.1172714052        0.2556287883
 O          0.0608485570       -2.4444406820        1.2569800389
 H          7.3966831098        2.2004628206        1.6461711737
 H          7.3783688915        0.5064093354        1.1550785694
 H          6.9781480582        1.7714237876       -0.0087538198
 H          5.3649531533        1.1558477122        2.5101675068
 H          4.9255600845        2.3269760330        1.2683593011
 H          3.6631869022        0.1681778114        1.1398595401
 H          5.1778337433       -0.6784447249        0.8132968115
 H          4.0078321599        1.5447315519       -0.9155111507
 H          5.4582349907        0.6037152899       -1.2824693263
 H          3.6120830263       -0.2788945805       -2.5703975774
 H          4.0802496285       -1.4745251748       -1.3540631161
 H          2.4615381938       -2.2734894926        0.2029890110
 H         -1.8954757979       -0.2895724921        1.5237607901
 H         -1.9878016776       -2.6771439556       -0.1552409276
 H         -5.6025530987       -0.7704238246        0.9855043432
 H         -4.2233945467       -0.5590104507        2.0599679488
 H         -4.1692310338        1.4558446466        0.9331535425
 H         -4.8042146625        0.7871186990       -0.5634800153
 H         -2.7627542449        0.1173470602       -1.3571959593
 H          1.6443406909        1.3075368788       -1.9850913546
 H         -3.5841089381        3.1902789211       -0.7354878005
 H         -2.0718242890        3.7035131953       -1.4991318947
 H         -3.0215346709        2.4056476822       -2.2204192432
 H         -0.8264128690        1.7923925806        1.4169440832
 H         -1.0577905637        3.4017437031        0.7397104086
 H         -2.4078051044        2.5794041999        1.5284201411
 H         -5.4757096764       -2.9120358280       -0.4782859090
 H         -4.0931437424       -3.9496265142       -0.0978042398
 H         -5.1841532113       -3.4077379586        1.1859856417
 H          0.7891166077       -3.0513032310        1.4347625880
  53
        -68.44470703
 C          6.0569780982       -1.3324881770        0.3858734171
 C          5.6492016497       -1.2734567144       -1.0810788534
 C          4.3107830166       -0.5754096355       -1.3311635732
 C          4.3009653948        0.9199367604       -0.9901550794
 C          3.7380122361        1.2364531521        0.4031983334
 C          2.2918989769        0.8468870242        0.5110884962
 C          1.9026186473       -0.2649070407        1.2436610904
 C          0.5712228459       -0.6520174124        1.3029939844
 C         -0.4145870048        0.0524210539        0.6079108741
 C         -1.8662461427       -0.3629905157        0.6036702832
 C         -2.0994024563       -1.8258066950        0.3327318800
 C         -3.1900200626       -2.2850539642       -0.2636826258
 C         -4.2864603132       -1.3874649636       -0.7726308820
 C         -4.1106674127        0.0684688993       -0.3400743496
 C         -2.6350018287        0.4355327451       -0.4537580689
 C         -2.2877496392        1.9280952447       -0.3712550810
 O         -0.8940316495        2.0635455328       -0.6716978342
 C         -0.0255818057        1.2177919073       -0.0572200847
 C          1.3142604259        1.5922029498       -0.1203677613
 C         -2.9976672043        2.7403717772       -1.4565226472
 C         -2.5697726128        2.5425662473        1.0034301266
 C         -3.4101726516       -3.7483705790       -0.5084135748
 O          0.2071462057       -1.7274007665        2.0661778498
 H          5.2677273868       -1.7853286438        0.9822939272
 H          6.9577040439       -1.9321866301        0.5017765069
 H          6.2634430740       -0.3386180327        0.7740303709
 H          6.4306776348       -0.7637639574       -1.6502207589
 H          5.5781170366       -2.2941498056       -1.4660175246
 H          3.5242418983       -1.0791368384       -0.7665223023
 H          4.0718576270       -0.6952588688       -2.3903942481
 H          5.3155585790        1.3174039049       -1.0645705189
 H          3.6874274699        1.4477845735       -1.7225070394
 H          4.3148627245        0.7168808395        1.1674688700
 H          3.8347132501        2.3112355469        0.5761373357
 H          2.6413297684       -0.8384332783        1.7902220156
 H         -2.2813802091       -0.1516340291        1.6010795842
 H         -1.3446849629       -2.5109222518        0.6810193424
 H         -4.2937050914       -1.4445065135       -1.8670003010
 H         -5.2537538363       -1.7652951997       -0.4296979396
 H         -4.4401348571        0.1871465438        0.6939305083
 H         -4.7284207293        0.7106147612       -0.9687405547
 H         -2.2786645388        0.1025356751       -1.4376656992
 H          1.5638038322        2.4903391820       -0.6628091644
 H         -2.9226283893        2.2374681877       -2.4171192127
 H         -4.0435443812        2.8869899912       -1.2057548008
 H         -2.5161711313        3.7112780013       -1.5395707724
 H         -3.6075359141        2.3845431590        1.2824944573
 H         -1.9236537960        2.1049237213        1.7601794451
 H         -2.3728918166        3.6116816377        0.9685450407
 H         -4.3024192322       -4.0902328959        0.0163214010
 H         -3.5601346166       -3.9370593293       -1.5714796561
 H         -2.5606909188       -4.3328597446       -0.1658658443
 H          0.9911351453       -2.0810044759        2.5031300053
  53
        -68.44468707
 C          8.2367449678        0.4086020442        0.2835339561
 C          6.7813094260        0.3029864747        0.7223592044
 C          5.8310034447        0.2394642833       -0.4709321150
 C          4.3721972632        0.1274968712       -0.0371963875
 C          3.4214302338        0.0526831623       -1.2372990619
 C          1.9997299356       -0.0732778397       -0.7723223631
 C          1.4646002111       -1.3187157939       -0.4927360793
 C          0.1679559007       -1.4588849185       -0.0046938444
 C         -0.5994625997       -0.3259000986        0.2443498015
 C         -2.0036825904       -0.2344659700        0.8002314427
 C         -2.6802208200       -1.5060122237        1.2082502538
 C         -3.8678558815       -1.9003903750        0.7626487478
 C         -4.6513888283       -1.0650344388       -0.2119045860
 C         -4.2802782764        0.4105932872       -0.0702414944
 C         -2.7763927461        0.5531778035       -0.2726006576
 C         -2.2410971343        2.0002524021       -0.2844107302
 O         -0.8376902145        2.0481618276        0.0416119402
 C         -0.0845350694        0.9224691074       -0.1206560064
 C          1.2083119731        1.0535674658       -0.6036766243
 C         -2.3969700302        2.6059472868       -1.6850525988
 C         -2.9244476873        2.8995215130        0.7478859230
 C         -4.5143471359       -3.1736357925        1.2131055861
 O         -0.2780686057       -2.7296501916        0.1941696393
 H          8.5167429458       -0.4528660469       -0.3190968581
 H          8.3916339233        1.3060730786       -0.3116899973
 H          8.8961996247        0.4518133778        1.1473610332
 H          6.6507743474       -0.5926028903        1.3341588743
 H          6.5248883742        1.1656303248        1.3415746905
 H          6.0904852017       -0.6218794540       -1.0914041719
 H          5.9595943588        1.1364213511       -1.0817937373
 H          4.2403933227       -0.7663825760        0.5763090397
 H          4.1041031680        0.9905898779        0.5761308533
 H          3.5370910386        0.9535428383       -1.8429155791
 H          3.6892367199       -0.8098150638       -1.8508897654
 H          2.0388293665       -2.2171669367       -0.6554680960
 H         -1.9343408792        0.3923739353        1.7043698362
 H         -2.1864113510       -2.0642347410        1.9959025598
 H         -4.4509231209       -1.4020585387       -1.2340592604
 H         -5.7194291719       -1.2020647134       -0.0290186328
 H         -4.5626774385        0.7520273234        0.9262985584
 H         -4.8238258913        1.0042418333       -0.8071467535
 H         -2.5341939004        0.1041872734       -1.2447022823
 H          1.5778343299        2.0371312332       -0.8468854275
 H         -2.0440219800        3.6337872248       -1.6827795959
 H         -1.8043714912        2.0405603748       -2.4015100088
 H         -3.4384842855        2.5890489219       -1.9944669124
 H         -3.9485182960        3.1120857673        0.4575547256
 H         -2.9176815647        2.4365884960        1.7314208600
 H         -2.3724140680        3.8337030290        0.8104907150
 H         -4.7642055210       -3.7921689675        0.3512863165
 H         -3.8600310881       -3.7388306593        1.8722941692
 H         -5.4415015553       -2.9590631877        1.7443545891
 H         -1.2163834926       -2.7048358545        0.4343640698
  53
        -68.44465793
 C          5.8541998076        1.4875860508       -1.8342429805
 C          6.2686854686        0.0274210181       -1.7023401460
 C          5.8270520522       -0.6250304478       -0.3909681477
 C          4.3045171439       -0.7191073095       -0.2216516203
 C          3.7259112578        0.3848866475        0.6734701450
 C          2.2303801779        0.2728137434        0.7331637732
 C          1.6163558940       -0.5158114942        1.6953324956
 C          0.2383433511       -0.6719787101        1.7173638455
 C         -0.5711611841       -0.0601882081        0.7562085533
 C         -2.0694090536       -0.2440295611        0.7123957934
 C         -2.5299062919       -1.6727653115        0.8323718352
 C         -3.6434113822       -2.1225753605        0.2721247363
 C         -4.5385810621       -1.2625211498       -0.5797804456
 C         -4.1466424677        0.2149783183       -0.5485700495
 C         -2.6260255600        0.3164444793       -0.6002555669
 C         -2.0376519573        1.7025240030       -0.8962417838
 O         -0.6252652541        1.5424883003       -1.0714964556
 C          0.0482069534        0.7939530355       -0.1587017539
 C          1.4342384846        0.9357359964       -0.1803858802
 C         -2.5322104523        2.2593979358       -2.2330189866
 C         -2.2956713264        2.7226257311        0.2171336731
 C         -4.0922663427       -3.5461351989        0.4189469391
 O         -0.3477170429       -1.4176202021        2.7029287579
 H          6.2726487702        1.9158035223       -2.7428131863
 H          4.7728877870        1.5812003931       -1.8853961575
 H          6.2161370140        2.0657302958       -0.9865004280
 H          5.8556000808       -0.5406184377       -2.5393190731
 H          7.3580010073       -0.0376385162       -1.7680590018
 H          6.2529560184       -0.0694805478        0.4475212865
 H          6.2526190024       -1.6308779578       -0.3625537314
 H          3.8209753704       -0.6746692844       -1.1991675305
 H          4.0427691389       -1.6823874197        0.2218006811
 H          4.1475401459        0.2861014520        1.6763823229
 H          4.0049726842        1.3622058961        0.2812038210
 H          2.2161223607       -1.0127745070        2.4476383054
 H         -2.5027395020        0.3049913502        1.5624335924
 H         -1.9252973220       -2.3290050570        1.4357173147
 H         -4.4868495351       -1.6319268307       -1.6102158487
 H         -5.5753278297       -1.3814985166       -0.2526782837
 H         -4.5143590566        0.6734996409        0.3713750024
 H         -4.6072084432        0.7302849131       -1.3920923061
 H         -2.2711797698       -0.3349317813       -1.4100302113
 H          1.8635852535        1.5912675470       -0.9215030295
 H         -1.8894662944        3.0845051707       -2.5287807163
 H         -2.4844636117        1.4945887005       -3.0037730145
 H         -3.5516659125        2.6217667944       -2.1458203252
 H         -3.3603304450        2.8032566041        0.4166248808
 H         -1.7799828364        2.4344962944        1.1296489286
 H         -1.9197523264        3.6958572991       -0.0902594258
 H         -5.0604493694       -3.5886507390        0.9180527400
 H         -4.2053703983       -4.0113283512       -0.5603309060
 H         -3.3769153207       -4.1223357546        0.9993377827
 H          0.3386016160       -1.7451915578        3.2964601918
  53
        -68.44464653
 C          6.7980329353       -0.7831568670        0.9745232987
 C          6.7007085789        0.0411162481       -0.3038138558
 C          5.8026993504        1.2713553826       -0.1620796460
 C          4.3427841318        0.9685683826        0.1760385127
 C          3.6237989464        0.1559750806       -0.9071269398
 C          2.1746443010       -0.0104702407       -0.5531449237
 C          1.7672330134       -1.0644178614        0.2496462747
 C          0.4331802707       -1.2106090903        0.6021039603
 C         -0.5298412786       -0.3058941085        0.1471686110
 C         -1.9931507619       -0.4886184285        0.4601292544
 C         -2.5353004042       -1.8540318122        0.1241497379
 C         -3.8443022734       -2.0443679940        0.2428505758
 C         -4.6606368331       -0.9022081616        0.7776197027
 C         -4.3078444845        0.4343249830        0.0886210419
 C         -2.8459038271        0.4892575939       -0.3689333493
 C         -2.2056814398        1.8872340778       -0.3776866744
 O         -0.9354675161        1.7805570905       -1.0256754346
 C         -0.1010580091        0.7896535044       -0.6033182409
 C          1.2370289340        0.9222320551       -0.9605448325
 C         -3.0130714216        2.8561798513       -1.2423304123
 C         -2.0001061373        2.4735838010        1.0233052901
 C         -4.5474718600       -3.3148703230       -0.1066578609
 O          0.1160904323       -2.2586765149        1.4157435857
 H          7.1110544805       -0.1575199339        1.8079195929
 H          5.8411739194       -1.2341594464        1.2231964478
 H          7.5263800061       -1.5821446278        0.8534731469
 H          7.7014993768        0.3827370265       -0.5805768157
 H          6.3380410648       -0.5894972402       -1.1171947519
 H          5.8369384036        1.8353877131       -1.0978550498
 H          6.2117500493        1.9124218587        0.6232782647
 H          4.2811133907        0.4334320779        1.1244318866
 H          3.8138053228        1.9162265366        0.3038819718
 H          3.7158492674        0.6744138028       -1.8634736877
 H          4.0888230747       -0.8259309654       -0.9986818798
 H          2.4734074387       -1.7930407702        0.6149499366
 H         -2.1746234752       -0.2833664723        1.5276698708
 H         -1.8805168694       -2.6000239432       -0.3004900653
 H         -5.7262680129       -1.1034512064        0.6654993269
 H         -4.4583925832       -0.8068714325        1.8497234267
 H         -4.5208063038        1.2461941475        0.7850763717
 H         -4.9550663310        0.5696488566       -0.7783741531
 H         -2.7932821749        0.1375001562       -1.4072561427
 H          1.5220273135        1.7731502940       -1.5588029044
 H         -3.9608544440        3.0932893620       -0.7693846098
 H         -2.4440585725        3.7717093180       -1.3801069593
 H         -3.1990439720        2.4188566346       -2.2197024462
 H         -1.6236030669        3.4898292385        0.9342100943
 H         -2.9331503063        2.4953741213        1.5788049720
 H         -1.2682057732        1.8911811667        1.5777142120
 H         -3.8422964829       -4.0695549422       -0.4454565723
 H         -5.0872189557       -3.6999946068        0.7585364030
 H         -5.2752528991       -3.1352469260       -0.8977990581
 H         -0.8370485482       -2.2751465236        1.5685082159
  53
        -68.44464291
 C          3.1249750023        3.0642138060        1.4461914591
 C          3.5511325812        1.6064939053        1.3238805050
 C          4.5692062011        1.4110609157        0.2008615107
 C          4.9083143212       -0.0602000065       -0.0616016822
 C          4.0188237027       -0.7114505629       -1.1322209194
 C          2.5658362969       -0.6954731824       -0.7578583166
 C          2.0786792908       -1.5865016282        0.1906442061
 C          0.7491395189       -1.5491485746        0.5800106822
 C         -0.1351481642       -0.6221303458        0.0226248347
 C         -1.5887207979       -0.6030541131        0.4051272180
 C         -2.2734742169       -1.9368683672        0.3001368514
 C         -3.5884489910       -1.9703477599        0.4705203375
 C         -4.2767230759       -0.6843654686        0.8363638747
 C         -3.8121559179        0.5026128420       -0.0340114845
 C         -2.3730171751        0.3320849090       -0.5315714811
 C         -1.5955651122        1.6374088249       -0.7659690124
 O         -0.3714964871        1.3036939381       -1.4303336095
 C          0.3716172490        0.3011646041       -0.8906326666
 C          1.7044797497        0.2433741408       -1.2931292281
 C         -2.3360842512        2.5559710512       -1.7386293169
 C         -1.2633375878        2.3914872021        0.5259267359
 C         -4.4252695374       -3.2034299864        0.3508897238
 O          0.2724449946       -2.4048955941        1.5322709962
 H          2.4265411535        3.1916900429        2.2702611104
 H          3.9870586746        3.7042509966        1.6239248699
 H          2.6370572243        3.3912863507        0.5306422381
 H          3.9917237391        1.2751451487        2.2677781007
 H          2.6710648436        0.9924988114        1.1323050135
 H          5.4819453650        1.9502419274        0.4671720499
 H          4.1815672597        1.8598504581       -0.7153051375
 H          5.9440797577       -0.1383799322       -0.4005034705
 H          4.8239795036       -0.6211928446        0.8712787755
 H          4.1573192868       -0.1810787478       -2.0759108166
 H          4.3481531027       -1.7442383873       -1.2727274518
 H          2.7438506795       -2.3140112642        0.6382492773
 H         -1.6844861355       -0.2464552490        1.4404259928
 H         -1.6971090275       -2.8075257235        0.0373987119
 H         -5.3596022135       -0.7916071995        0.7623935597
 H         -4.0414162539       -0.4624997266        1.8824903646
 H         -3.9072911932        1.4178000497        0.5520062249
 H         -4.4752820702        0.5965628578       -0.8949264849
 H         -2.4033646999       -0.1689320191       -1.5079368746
 H          2.0468463871        0.9658526314       -2.0166903480
 H         -1.6840949221        3.3774226501       -2.0240768222
 H         -2.6088246597        2.0073551468       -2.6362786253
 H         -3.2331550565        2.9570059120       -1.2776665632
 H         -2.1637410215        2.6058554205        1.0938589462
 H         -0.5836933604        1.8098114204        1.1435869361
 H         -0.7747666322        3.3311576168        0.2783985199
 H         -3.8080129149       -4.0691431929        0.1256552494
 H         -4.9631674205       -3.3884919863        1.2807742622
 H         -5.1642097556       -3.0834649113       -0.4417799844
 H          0.9900418554       -2.9763480151        1.8301246726
  53
        -68.44463893
 C          5.8838812214        1.2537429419       -2.0709036111
 C          6.4172122746        1.5146370631       -0.6677497754
 C          5.9580174931        0.4881802016        0.3695619318
 C          4.4425233870        0.4797083312        0.6122427411
 C          3.7156270735       -0.6438051139       -0.1388605507
 C          2.2344462505       -0.5508678205        0.0870536313
 C          1.6431482241       -1.1776973197        1.1743180151
 C          0.2784704924       -1.0771785935        1.4009142841
 C         -0.5447427256       -0.3571227859        0.5307257780
 C         -2.0420951600       -0.2695422237        0.7061599220
 C         -2.7204137246       -1.5878446656        0.9701635083
 C         -3.9644217381       -1.8484910465        0.5952215374
 C         -4.8120695970       -0.8694847228       -0.1727614941
 C         -4.1703753311        0.5140794487       -0.2799060604
 C         -2.6792264261        0.3396063384       -0.5468467477
 C         -1.9098518175        1.5874950128       -1.0002946674
 O         -0.5875033494        1.1714137398       -1.3599693298
 C          0.0717270732        0.3405971484       -0.5101770409
 C          1.4414669113        0.2233951643       -0.7373712303
 C         -2.4910271020        2.1811331619       -2.2854105090
 C         -1.8218419944        2.6722645699        0.0778835106
 C         -4.6260746643       -3.1633385253        0.8832730340
 O         -0.2759438655       -1.6733077673        2.5000358115
 H          6.1423844422        0.2483745435       -2.3971293329
 H          4.8034781918        1.3646209674       -2.1028735466
 H          6.3161418976        1.9624335956       -2.7744693462
 H          7.5099510122        1.5060576889       -0.6983240215
 H          6.1065212188        2.5111186059       -0.3444466948
 H          6.4691396955        0.7154759446        1.3080903556
 H          6.2821140866       -0.5070409487        0.0572406247
 H          4.2422196116        0.3552321105        1.6787980867
 H          4.0162412220        1.4399431232        0.3163146232
 H          3.9274290834       -0.5720150637       -1.2050694563
 H          4.0859492751       -1.6071713847        0.2189416085
 H          2.2511363514       -1.7556179034        1.8591771558
 H         -2.2445118559        0.3751363601        1.5751466255
 H         -2.1570945690       -2.3223080716        1.5210103180
 H         -4.9755210074       -1.2745565854       -1.1778018101
 H         -5.7949268361       -0.7904838672        0.3002662855
 H         -4.3150069589        1.0597327424        0.6545012671
 H         -4.6530558388        1.0768128564       -1.0796026266
 H         -2.5644317307       -0.3903377024       -1.3592122376
 H          1.8633460385        0.7609022660       -1.5719076483
 H         -3.4082613450        2.7235159341       -2.0787514455
 H         -1.7654541701        2.8672756534       -2.7145071089
 H         -2.6900762928        1.3958893705       -3.0099859671
 H         -1.2360241113        2.3254230649        0.9253222304
 H         -1.3324376547        3.5520519110       -0.3337644709
 H         -2.8156868227        2.9488551546        0.4177826986
 H         -3.9442952967       -3.8394615753        1.3918188528
 H         -5.5042044013       -3.0160396497        1.5121664153
 H         -4.9586921778       -3.6317225757       -0.0430977123
 H          0.4224082541       -2.1048018908        3.0067289452
  53
        -68.44463662
 C          8.0300103640       -0.3170451002       -0.5432419632
 C          6.5625639543       -0.4734819915       -0.1627998259
 C          5.6388014396        0.0314651199       -1.2693568697
 C          4.1568374833       -0.2074304419       -0.9829923188
 C          3.6206634307        0.6329545551        0.1824376249
 C          2.1426381906        0.4201163608        0.3366813876
 C          1.6597547232       -0.6029042861        1.1416374731
 C          0.2980248445       -0.8438558499        1.2400900328
 C         -0.6193295426       -0.0736671442        0.5219584470
 C         -2.0926468912       -0.3687325601        0.5690873857
 C         -2.4433397716       -1.8037453026        0.2918354049
 C         -3.7269041876       -2.1114890454        0.1611986080
 C         -4.7312684428       -1.0142191736        0.3805512635
 C         -4.3479199730        0.2893096804       -0.3512021462
 C         -2.8314006027        0.4467345275       -0.5063674705
 C         -2.3179557836        1.8954947470       -0.5324473252
 O         -0.9338976307        1.8646398731       -0.8993890750
 C         -0.1317092071        0.9924625692       -0.2329307283
 C          1.2390277788        1.2199302252       -0.3368408923
 C         -3.0005357515        2.7051269026       -1.6357669862
 C         -2.4543206664        2.6149620226        0.8133683641
 C         -4.2403642993       -3.4777827578       -0.1623666313
 O         -0.1825882438       -1.8313165553        2.0527634074
 H          8.6746863539       -0.6769629510        0.2554869701
 H          8.2537055768       -0.8823150521       -1.4456063537
 H          8.2654982193        0.7287450873       -0.7289981149
 H          6.3491326598       -1.5275575019        0.0305757347
 H          6.3735143402        0.0804294663        0.7582562630
 H          5.8991107494       -0.4798097586       -2.1997667631
 H          5.8095743239        1.0997359175       -1.4223033376
 H          3.5783479661        0.0382882581       -1.8764855181
 H          3.9929823439       -1.2656304632       -0.7665011405
 H          4.1305815995        0.3503599154        1.1044060103
 H          3.8241335176        1.6868440793       -0.0157081684
 H          2.3503821352       -1.2193035616        1.7032294204
 H         -2.4836388596       -0.1034555713        1.5613804134
 H         -1.6543187950       -2.5229584944        0.1526752846
 H         -5.7260921705       -1.3321906724        0.0661638652
 H         -4.7780703386       -0.8097017343        1.4552113090
 H         -4.7644525337        1.1310745487        0.2036533287
 H         -4.8068681050        0.2924460971       -1.3407311935
 H         -2.5374032014        0.0148331005       -1.4718462516
 H          1.5737339919        2.0435047329       -0.9474221906
 H         -4.0425384246        2.8837107493       -1.3901531895
 H         -2.4919225081        3.6590426704       -1.7479891058
 H         -2.9413733950        2.1722922118       -2.5811143898
 H         -1.8232202085        2.1440288049        1.5628099709
 H         -2.1348118099        3.6486347403        0.7020938187
 H         -3.4840197859        2.6032711204        1.1581122987
 H         -4.7984364489       -3.4601439226       -1.0988205678
 H         -3.4215263735       -4.1861655610       -0.2563676306
 H         -4.9157841210       -3.8242269278        0.6199252469
 H          0.5583950906       -2.2700507546        2.4871301952
  53
        -68.44463138
 C          7.8211169631        0.5769128709       -1.3737443598
 C          6.3084453960        0.6566714576       -1.2060586411
 C          5.7406245510       -0.6307385828       -0.6122741600
 C          4.2144976161       -0.6432125480       -0.5324421575
 C          3.6519434686        0.3604419403        0.4813371689
 C          2.1584835327        0.2324332471        0.5636910240
 C          1.5731655613       -0.6364402910        1.4746671248
 C          0.1968522178       -0.7995530714        1.5141448277
 C         -0.6323025927       -0.1067187692        0.6293566097
 C         -2.1198758204       -0.3238807884        0.6205166884
 C         -2.5331583102       -1.7666359969        0.5381189853
 C         -3.8221486769       -2.0308315663        0.3707212772
 C         -4.7743477756       -0.8672691712        0.3562444539
 C         -4.2767552931        0.2885266992       -0.5370037181
 C         -2.7472132406        0.3512488155       -0.6116236165
 C         -2.1543006093        1.7544096851       -0.8184978886
 O         -0.7544572787        1.6058286940       -1.0820994263
 C         -0.0427098851        0.8104577434       -0.2399211000
 C          1.3418665203        0.9601064963       -0.2811386282
 C         -2.7238356312        2.4165283737       -2.0738848696
 C         -2.3316811900        2.6758460454        0.3926906830
 C         -4.3917401433       -3.4050812706        0.2223800959
 O         -0.3846314536       -1.6313985205        2.4287326087
 H          8.0898078698       -0.2411416070       -2.0389448694
 H          8.2101055855        1.5018390835       -1.7934886798
 H          8.3027321105        0.4072458109       -0.4129143159
 H          6.0669538023        1.5009018449       -0.5582337354
 H          5.8447696445        0.8382031318       -2.1784086117
 H          6.1571744042       -0.7814996804        0.3868002020
 H          6.0622826005       -1.4712904884       -1.2326739150
 H          3.7946007151       -0.4259409276       -1.5168172982
 H          3.8824274363       -1.6446874183       -0.2476839074
 H          4.0983459969        0.1683304109        1.4594785139
 H          3.9130884498        1.3738345217        0.1759323990
 H          2.1938220323       -1.1914899505        2.1667958610
 H         -2.5536965827        0.1074841154        1.5335892995
 H         -1.7787585121       -2.5344442718        0.5604712435
 H         -5.7657272925       -1.1829262551        0.0289499417
 H         -4.8712795422       -0.4977018441        1.3823831900
 H         -4.6788806860        1.2239232718       -0.1454940668
 H         -4.6749612522        0.1591656567       -1.5442346131
 H         -2.4202691728       -0.2353120785       -1.4800439291
 H          1.7571903961        1.6672571088       -0.9815354094
 H         -2.1576918342        3.3181926272       -2.2924118705
 H         -2.6373428703        1.7437024327       -2.9229766437
 H         -3.7673236864        2.6774607528       -1.9288093875
 H         -3.3792955130        2.7634383993        0.6649166357
 H         -1.7734960956        2.2965068933        1.2449241054
 H         -1.9497686029        3.6649858506        0.1504030621
 H         -5.1297866356       -3.5957198994        1.0016295814
 H         -4.8927417255       -3.5047692399       -0.7408497403
 H         -3.6098132416       -4.1569430449        0.2896492521
 H          0.3039063647       -2.0320170869        2.9724671758
  53
        -68.44462963
 C          6.2101267837       -0.9592255571        0.6534385856
 C          5.9597667382        0.4375295504        1.2083209100
 C          4.5921649345        1.0196260821        0.8450191808
 C          4.3930760095        1.2873935058       -0.6520744655
 C          3.6525560014        0.1643713290       -1.3931811121
 C          2.2510691225       -0.0080187006       -0.8816361181
 C          1.9091178307       -1.0902629718       -0.0841343492
 C          0.6166041235       -1.2446560374        0.3972009366
 C         -0.3853816157       -0.3256860057        0.0765313777
 C         -1.8165193749       -0.4824688320        0.5325862841
 C         -2.3928655250       -1.8588138510        0.3291849694
 C         -3.6805168096       -2.0774514273        0.1050017703
 C         -4.6923290409       -0.9690318194       -0.0143458875
 C         -4.1213027641        0.3981448495        0.3626989096
 C         -2.7131275327        0.5125982636       -0.2110725441
 C         -2.0853713080        1.9128232989       -0.2214564647
 O         -0.8554412806        1.8281724218       -0.9500595261
 C         -0.0134237543        0.8013623262       -0.6606558961
 C          1.2827679655        0.9407448160       -1.1502698854
 C         -2.9335284367        2.9130630178       -1.0099974086
 C         -1.8046682416        2.4634244696        1.1803419383
 C         -4.2355290797       -3.4587318604       -0.0781758313
 O          0.3160076037       -2.2995604741        1.2147152587
 H          7.1503357104       -1.3522963717        1.0353376244
 H          5.4123543365       -1.6362057202        0.9516549405
 H          6.2689821151       -0.9434865173       -0.4315694518
 H          6.0356517313        0.4001108380        2.2982659353
 H          6.7419894176        1.1112147381        0.8497071607
 H          4.4829447876        1.9615934964        1.3875029510
 H          3.8046313036        0.3524998401        1.1998207792
 H          3.8138144998        2.2041932143       -0.7750503741
 H          5.3641608738        1.4475576884       -1.1255900377
 H          3.6162461526        0.4207273057       -2.4549757219
 H          4.1960222919       -0.7741682148       -1.2898979155
 H          2.6554611631       -1.8337094988        0.1681429984
 H         -1.8520604295       -0.2763092215        1.6133458215
 H         -1.7102286717       -2.6881773092        0.4087023254
 H         -5.0488533938       -0.9423431821       -1.0502471307
 H         -5.5585016161       -1.1985624598        0.6125940977
 H         -4.0841219926        0.4939872620        1.4495385082
 H         -4.7722012882        1.1824971470       -0.0249660525
 H         -2.7497544018        0.1967749695       -1.2622024636
 H          1.5092911199        1.8152440823       -1.7393624487
 H         -3.2577126893        2.4768069130       -1.9511924618
 H         -3.8018894431        3.2192825795       -0.4351778106
 H         -2.3293097867        3.7896558301       -1.2288462952
 H         -1.0476820929        1.8670260089        1.6832638978
 H         -1.4335140956        3.4826730396        1.1005383317
 H         -2.7137012503        2.4652112418        1.7748681434
 H         -4.7399730915       -3.5404325201       -1.0409851537
 H         -3.4469823405       -4.2048317374       -0.0321155260
 H         -4.9687530745       -3.6785464705        0.6979497739
 H          1.1131324567       -2.8246856452        1.3541460634
  53
        -68.44462514
 C          8.1027417593        0.0740501280       -0.2287595279
 C          6.6279685295       -0.2211199268        0.0172580167
 C          5.7729542201        1.0367159984       -0.1223007995
 C          4.3006760352        0.8150305691        0.2221954427
 C          3.5722717193       -0.0877388309       -0.7809370654
 C          2.1124799244       -0.1743681444       -0.4406649455
 C          1.6528439734       -1.1406311506        0.4440390876
 C          0.3097179669       -1.2111988976        0.7803519951
 C         -0.6140024861       -0.3195228981        0.2307231535
 C         -2.0825828139       -0.4319475723        0.5318628748
 C         -2.6514808345       -1.8076336652        0.3243422567
 C         -3.9665764530       -1.9524291411        0.4185074379
 C         -4.7735669008       -0.7436997910        0.8039380164
 C         -4.3627004151        0.5147989615        0.0109160159
 C         -2.8874096993        0.4872512288       -0.4034589440
 C         -2.2102344865        1.8621234628       -0.5227926236
 O         -0.9239781427        1.6682414998       -1.1220002421
 C         -0.1345623549        0.6913540073       -0.6015392727
 C          1.2147006651        0.7477742613       -0.9443174029
 C         -2.9656809041        2.7688113396       -1.4953847519
 C         -2.0241572218        2.5689185433        0.8238108911
 C         -4.6941328368       -3.2388630041        0.1933619969
 O         -0.1431506530       -2.1471996436        1.6665710120
 H          8.2490824419        0.4722468768       -1.2305854243
 H          8.4708144824        0.8067516213        0.4864501838
 H          8.6976370695       -0.8311037644       -0.1293967569
 H          6.2935198602       -0.9767106091       -0.6954892941
 H          6.5033921392       -0.6307148233        1.0225670554
 H          5.8516174509        1.4143992663       -1.1445320501
 H          6.1733880516        1.8051487569        0.5440472315
 H          4.2211990348        0.3785527168        1.2205567769
 H          3.7920847887        1.7816065186        0.2449715633
 H          3.6929493853        0.3254526804       -1.7839480663
 H          4.0120279918       -1.0857653834       -0.7635480978
 H          2.3468898163       -1.8507496831        0.8757350832
 H         -2.2618218007       -0.1381799779        1.5756437593
 H         -1.9939059863       -2.6158792527        0.0532383621
 H         -5.8394244468       -0.9309816808        0.6680608494
 H         -4.6083989038       -0.5535004247        1.8695167681
 H         -4.5707458122        1.3919718670        0.6251164804
 H         -4.9802984753        0.5906358338       -0.8849762980
 H         -2.8187292496        0.0397517505       -1.4035241924
 H          1.5391183057        1.5324091224       -1.6093497919
 H         -3.1349698712        2.2496513028       -2.4350262678
 H         -3.9203357188        3.0691247157       -1.0753070020
 H         -2.3697375568        3.6551865285       -1.6964903357
 H         -1.6022937906        3.5571739542        0.6554564693
 H         -2.9731496628        2.6781262609        1.3402953921
 H         -1.3379212536        2.0105444801        1.4555070308
 H         -3.9984372869       -4.0408106624       -0.0391899632
 H         -5.2621212484       -3.5138606706        1.0822015016
 H         -5.3989266406       -3.1351861304       -0.6320014738
 H          0.6003108757       -2.6847847033        1.9640314626
  53
        -68.44458036
 C          7.7662516214       -0.0453490225       -1.9905648209
 C          6.2529702941       -0.2157360479       -1.9372603819
 C          5.6791748149        0.2170600835       -0.5901694926
 C          4.1639499951        0.0461812266       -0.5304702327
 C          3.5898459708        0.4840888533        0.8217775229
 C          2.0999316088        0.3005753879        0.8482413192
 C          1.5481614249       -0.8965437383        1.2692288941
 C          0.1698194205       -1.0968199265        1.2786995157
 C         -0.6778635786       -0.0653202155        0.8893034364
 C         -2.1904261085       -0.0392450610        0.8602138019
 C         -2.9225102935       -1.2459819257        1.3592019603
 C         -3.8368593323       -1.9106091048        0.6614939331
 C         -4.2233025834       -1.4797759464       -0.7265154903
 C         -3.9894410754        0.0197273417       -0.9053236123
 C         -2.5276908837        0.3219269004       -0.5972422368
 C         -2.0834293792        1.7783987723       -0.8463760237
 O         -0.9114088524        2.1136625585       -0.0772069533
 C         -0.1112328220        1.1076106971        0.3789817301
 C          1.2613984820        1.2991837321        0.3737321965
 C         -1.7195547604        1.9704076388       -2.3241388457
 C         -3.1408443229        2.8052837710       -0.4356039918
 C         -4.5578682438       -3.1030101883        1.2095586178
 O         -0.2683841242       -2.3238641409        1.6732822862
 H          8.0385976108        0.9959991796       -1.8321722585
 H          8.2447264697       -0.6442492541       -1.2185694444
 H          8.1542226156       -0.3582556794       -2.9572624771
 H          5.7927780501        0.3763869578       -2.7317195597
 H          5.9989461347       -1.2629189965       -2.1170376286
 H          5.9323824699        1.2649116039       -0.4111338449
 H          6.1411574176       -0.3740553346        0.2042828958
 H          3.6976976392        0.6357118708       -1.3230951300
 H          3.9064147982       -1.0010662657       -0.7036915109
 H          4.0502460241       -0.1086657186        1.6143190278
 H          3.8362937600        1.5339975202        0.9915914984
 H          2.1751252371       -1.7091365068        1.6009972626
 H         -2.4936710323        0.8036399832        1.5027439291
 H         -2.7438499476       -1.5027051928        2.3974942558
 H         -3.6378120505       -2.0376780419       -1.4644464699
 H         -5.2749989553       -1.7182619957       -0.8998024402
 H         -4.6411860602        0.5632458992       -0.2203131321
 H         -4.2349806029        0.3164170459       -1.9263693706
 H         -1.9180977600       -0.3237134483       -1.2428580360
 H          1.6578963448        2.2303937393        0.0012288114
 H         -1.4324286159        3.0035300495       -2.5009211902
 H         -0.8790367022        1.3304382729       -2.5851847356
 H         -2.5647256799        1.7230377411       -2.9607350888
 H         -2.6895610899        3.7937313729       -0.4613452189
 H         -3.9856892606        2.7838089136       -1.1167545469
 H         -3.4897911043        2.6196156463        0.5770341397
 H         -4.1814400831       -3.3769101182        2.1920810369
 H         -5.6244363967       -2.8943561794        1.2919201276
 H         -4.4395919721       -3.9534542053        0.5383660679
 H         -1.2274951928       -2.3763285279        1.5467773836
  53
        -68.44454034
 C          6.5118741815       -1.0511670257        0.6116518994
 C          6.5538117389       -0.8167725659       -0.8932641388
 C          5.6835426679        0.3507887879       -1.3624288971
 C          4.1806617659        0.1470711891       -1.1266521819
 C          3.6604513619        0.8676530131        0.1242901145
 C          2.1983957202        0.5862886829        0.3145224872
 C          1.7793528279       -0.4920742373        1.0804860296
 C          0.4319102814       -0.7934375104        1.2127218143
 C         -0.5429482347       -0.0353075650        0.5583808728
 C         -2.0164137599       -0.3570999318        0.6351087838
 C         -2.3555735265       -1.8059387736        0.4036299150
 C         -3.5019775065       -2.2035650430       -0.1290645593
 C         -4.5636974907       -1.2456358086       -0.6000856781
 C         -4.2747525332        0.2023066188       -0.2031378163
 C         -2.7866054366        0.4727419629       -0.3969405630
 C         -2.3427445496        1.9412706732       -0.3591276283
 O         -0.9603354260        1.9833004510       -0.7309022929
 C         -0.1167311604        1.0932226237       -0.1453258422
 C          1.2397162110        1.3814494528       -0.2822900794
 C         -3.0545392167        2.7805951013       -1.4223732836
 C         -2.5153299168        2.5930831927        1.0164510625
 C         -3.8266441814       -3.6534414814       -0.3341353690
 O          0.0407194683       -1.8337555047        2.0100739976
 H          7.2168335895       -1.8317980396        0.8905555800
 H          6.7787158543       -0.1425726032        1.1474826530
 H          5.5205739248       -1.3646095719        0.9277062068
 H          7.5866382986       -0.6157466334       -1.1894351981
 H          6.2369744572       -1.7270799417       -1.4080936991
 H          5.8615573077        0.4859423293       -2.4316623293
 H          6.0095049839        1.2651127944       -0.8619185649
 H          3.6192615748        0.5237923618       -1.9839563027
 H          3.9619692829       -0.9194527307       -1.0442319329
 H          4.2185559898        0.5387780279        1.0010119341
 H          3.8158881170        1.9414842529        0.0035949493
 H          2.5092843025       -1.1064380184        1.5930581503
 H         -2.3654735172       -0.1041482059        1.6480131114
 H         -1.6295026011       -2.5326229758        0.7275676908
 H         -4.6290891814       -1.3185679700       -1.6915650490
 H         -5.5346033115       -1.5555911449       -0.2035101499
 H         -4.5429404921        0.3570034382        0.8437207388
 H         -4.8819865334        0.8732721435       -0.8116047862
 H         -2.5024844895        0.1029956459       -1.3911631503
 H          1.5173486298        2.2526124328       -0.8542385211
 H         -4.0748345528        2.9978298485       -1.1223085178
 H         -2.5174197691        3.7171918015       -1.5474488629
 H         -3.0607262669        2.2592538697       -2.3760147998
 H         -3.5452472768        2.5049264060        1.3500490767
 H         -1.8597186094        2.1270899198        1.7476480870
 H         -2.2544104544        3.6470158610        0.9521717263
 H         -4.0415809990       -3.8493470210       -1.3846558061
 H         -2.9998507671       -4.2857699137       -0.0224171920
 H         -4.7113055219       -3.9285252249        0.2403437605
 H          0.8230200797       -2.2333730327        2.4086964616
  53
        -68.44453478
 C          6.9326802710        1.3438188760       -0.3509103035
 C          6.3373637260        0.4575820072       -1.4402147098
 C          5.7023608879       -0.8300231582       -0.8958613226
 C          4.1817115442       -0.7660294578       -0.7471217562
 C          3.6999397527        0.2581190778        0.2863500100
 C          2.2103182879        0.1666988354        0.4474711046
 C          1.6506951424       -0.6929138355        1.3817568135
 C          0.2747965834       -0.8265636830        1.4945098015
 C         -0.5887064104       -0.1185118584        0.6539967739
 C         -2.0899776261       -0.2723744855        0.7078610325
 C         -2.5736606949       -1.6981733268        0.7375726790
 C         -3.7359751401       -2.0776578317        0.2265825199
 C         -4.6716542488       -1.1304080301       -0.4762417824
 C         -4.2433998525        0.3316382451       -0.3471555882
 C         -2.7288204599        0.4111355068       -0.5052682674
 C         -2.1312697982        1.8075710993       -0.7239976815
 O         -0.7398321195        1.6395679692       -1.0186098025
 C         -0.0185790424        0.8021229030       -0.2278045302
 C          1.3651288105        0.9215300896       -0.3420578865
 C         -2.7097964784        2.4880707774       -1.9665181351
 C         -2.2823605535        2.7301062083        0.4896401874
 C         -4.2058333884       -3.5009458275        0.2820685275
 O         -0.2545030938       -1.6458486067        2.4534274982
 H          6.1798536360        1.6398548409        0.3741087589
 H          7.7240691100        0.8143925685        0.1760671131
 H          7.3595403335        2.2443568401       -0.7879082947
 H          5.5897566064        1.0207261852       -2.0021751486
 H          7.1359570734        0.1966591468       -2.1383537468
 H          6.1498059933       -1.0732846197        0.0703565879
 H          5.9296934221       -1.6551215697       -1.5749753826
 H          3.7312961570       -0.5297897702       -1.7137097517
 H          3.8181833934       -1.7535567752       -0.4510171729
 H          4.1913245022        0.0611860553        1.2417263461
 H          3.9666590193        1.2620509850       -0.0436900259
 H          2.2924328503       -1.2649333315        2.0403129143
 H         -2.4464105487        0.2065390056        1.6327077935
 H         -1.9413358913       -2.4155160784        1.2333419720
 H         -4.7061303671       -1.4082145839       -1.5357544228
 H         -5.6835157753       -1.2600001388       -0.0820886842
 H         -4.5308585359        0.7136358090        0.6342692150
 H         -4.7529046955        0.9270755470       -1.1054592449
 H         -2.4505372397       -0.1723573196       -1.3929646237
 H          1.7547601656        1.6316332384       -1.0542213011
 H         -2.7368472749        1.7932700486       -2.8018438809
 H         -3.7112802120        2.8585694302       -1.7717163529
 H         -2.0714190295        3.3249572801       -2.2375273180
 H         -1.7083224942        2.3537248873        1.3325254352
 H         -1.9066263872        3.7198343683        0.2401479631
 H         -3.3272821071        2.8116229918        0.7747162302
 H         -5.1347306730       -3.5716013489        0.8481855247
 H         -4.4027200940       -3.8750448849       -0.7226645098
 H         -3.4627874179       -4.1384880504        0.7532754307
 H          0.4657344581       -2.0363669209        2.9627229016
  53
        -68.44452892
 C          6.8183265159       -0.1425716116       -1.7212232924
 C          6.4282430742        1.0948140258       -0.9192927426
 C          5.8887230979        0.7661439613        0.4801204802
 C          4.3629344636        0.7725710749        0.5825421350
 C          3.6781471598       -0.3105420545       -0.2582827338
 C          2.1983722254       -0.3083633347       -0.0046326235
 C          1.6563319635       -1.0639523017        1.0250317164
 C          0.2928241440       -1.0505886632        1.2785268881
 C         -0.5780587320       -0.2903212759        0.4930479798
 C         -2.0744176692       -0.2910417600        0.6966836265
 C         -2.6867402977       -1.6592865905        0.8405916798
 C         -3.9241576677       -1.9411257799        0.4592070598
 C         -4.8296103119       -0.9337950739       -0.1982005448
 C         -4.2539669215        0.4824742153       -0.1792951927
 C         -2.7615120801        0.4052136774       -0.4823418670
 C         -2.0580611892        1.7258336657       -0.8228996456
 O         -0.7251886168        1.4087540224       -1.2400375490
 C         -0.0131374140        0.5323947427       -0.4838445877
 C          1.3562467603        0.5024535679       -0.7401294475
 C         -2.6893322403        2.4130080873       -2.0357261187
 C         -1.9992473916        2.7042491993        0.3544656572
 C         -4.5194072993       -3.3075731515        0.6267684099
 O         -0.2138864401       -1.7749636894        2.3222845543
 H          7.1841432403        0.1447392346       -2.7049823383
 H          7.6092951550       -0.6891751170       -1.2114286422
 H          5.9727813975       -0.8116121126       -1.8533822976
 H          7.3126208756        1.7288424257       -0.8233959590
 H          5.6800071447        1.6672369058       -1.4709654420
 H          6.2671736335        1.5043107298        1.1911601053
 H          6.2674154288       -0.2091783624        0.7935289762
 H          4.0831896897        0.6269510157        1.6292880910
 H          3.9822470151        1.7496404272        0.2768929629
 H          3.8620620995       -0.1215002683       -1.3157913972
 H          4.0981707360       -1.2845958407        0.0017726336
 H          2.3025514603       -1.6748504844        1.6430556389
 H         -2.2902695488        0.2565451546        1.6268838382
 H         -2.0803215002       -2.4160641892        1.3093489616
 H         -4.9928791907       -1.2473465772       -1.2354732998
 H         -5.8061529546       -0.9473094871        0.2939174914
 H         -4.4063640638        0.9281508562        0.8055504800
 H         -4.7763920558        1.0961431250       -0.9139052808
 H         -2.6283517891       -0.2367798175       -1.3632831323
 H          1.7388191134        1.1368966095       -1.5239359825
 H         -2.0037122100        3.1707609171       -2.4060173341
 H         -2.8659715616        1.6930441152       -2.8305284775
 H         -3.6262366517        2.8891782999       -1.7642513968
 H         -2.9980131158        2.8989348935        0.7344107967
 H         -1.3817180231        2.3054111948        1.1552337734
 H         -1.5588856498        3.6420571356        0.0233953519
 H         -4.8454150015       -3.7001488598       -0.3364523546
 H         -3.7986679130       -3.9961623481        1.0591508833
 H         -5.3927834040       -3.2633910283        1.2775738982
 H          0.5124674011       -2.2192983977        2.7757005081
  53
        -68.44452694
 C          6.5618371863       -1.1915611608        0.2347100111
 C          6.7658993947        0.2946391485        0.5012042234
 C          5.8386028137        1.2023108599       -0.3093194441
 C          4.3496417048        1.0373088517        0.0244113750
 C          3.5983778492        0.1492024737       -0.9764143937
 C          2.1622703401       -0.0010170011       -0.5655768090
 C          1.7762639835       -1.0208013788        0.2925043615
 C          0.4557929439       -1.1532110549        0.6957186607
 C         -0.5289820562       -0.2749611956        0.2350800622
 C         -1.9869113945       -0.4155109295        0.6028976285
 C         -2.5369528717       -1.8106158781        0.4652425731
 C         -3.8043495638       -2.0620894483        0.1710470166
 C         -4.8141442943       -0.9788756666       -0.1003863983
 C         -4.2811143547        0.4201047473        0.2097759010
 C         -2.8375867887        0.5092839384       -0.2735184109
 C         -2.2213230899        1.9127097828       -0.3470670222
 O         -0.9430791905        1.7894366128       -0.9809966461
 C         -0.1159710722        0.7973501488       -0.5586524316
 C          1.2106205272        0.9151157694       -0.9686225287
 C         -3.0203046256        2.8397780984       -1.2656574053
 C         -2.0428468988        2.5707810737        1.0247994240
 C         -4.3346160774       -3.4603057923        0.0552628060
 O          0.1061706660       -2.1440661197        1.5715067095
 H          7.3083624917       -1.7755103832        0.7694130810
 H          5.5796270623       -1.5145904333        0.5688187469
 H          6.6573784059       -1.4057600475       -0.8277550965
 H          6.6183475105        0.4930838985        1.5656724273
 H          7.7992439763        0.5566207047        0.2597418560
 H          5.9950402720        1.0163457468       -1.3740744786
 H          6.1351907635        2.2353597200       -0.1139653650
 H          4.2413697405        0.6202265522        1.0276737597
 H          3.8637893492        2.0150665181        0.0299842512
 H          3.6505506839        0.6088420248       -1.9652041240
 H          4.0716882640       -0.8312178638       -1.0307874950
 H          2.5116563995       -1.7279691192        0.6559102767
 H         -2.0987176964       -0.1295102144        1.6599931679
 H         -1.8547400266       -2.6226329817        0.6534435997
 H         -5.0988637564       -1.0347895988       -1.1571369897
 H         -5.7194795317       -1.1719301500        0.4819411431
 H         -4.3198566216        0.5978774908        1.2861955856
 H         -4.9098102074        1.1645237672       -0.2798794976
 H         -2.7990125284        0.1149933167       -1.2977194702
 H          1.4731907812        1.7466803452       -1.6032055684
 H         -3.2747027286        2.3298649909       -2.1911487610
 H         -3.9289814654        3.1769748894       -0.7769099336
 H         -2.4091439975        3.7052249039       -1.5082325598
 H         -2.9910891746        2.6062246187        1.5533443063
 H         -1.3186313420        2.0232091567        1.6225735464
 H         -1.6742026325        3.5856044989        0.8934713270
 H         -5.1179508176       -3.6309226749        0.7939006992
 H         -4.7706879842       -3.6202928284       -0.9308535483
 H         -3.5452906667       -4.1905387054        0.2112798545
 H          0.8961218483       -2.6440636998        1.8093481595
  53
        -68.44450683
 C          6.2922252152       -0.4973665326       -2.6281697339
 C          6.6054493678       -0.7367435669       -1.1557777204
 C          5.8495679537        0.2064576484       -0.2191828422
 C          4.3443265603       -0.0462860671       -0.1946130099
 C          3.6341005188        0.8583958835        0.8190396365
 C          2.1558556605        0.5977595166        0.8097806115
 C          1.5976366579       -0.3346256584        1.6735978661
 C          0.2415128385       -0.6200168362        1.6275386597
 C         -0.5921814306        0.0106229959        0.7015238307
 C         -2.0510079066       -0.3380045334        0.5994424154
 C         -2.3271176288       -1.8103415697        0.4763803820
 C         -3.5746986978       -2.1857038882        0.2274953720
 C         -4.6251917155       -1.1116555474        0.1671872840
 C         -4.1809183054        0.0982677843       -0.6813970666
 C         -2.6615258200        0.2984368247       -0.6614123382
 C         -2.1860597313        1.7521211795       -0.8163218187
 O         -0.7652372126        1.7333414738       -0.9953569696
 C         -0.0364903224        0.9908431657       -0.1200793464
 C          1.3289891589        1.2637259824       -0.0752221723
 C         -2.7365544288        2.3811850801       -2.0969632511
 C         -2.5180375309        2.6341505927        0.3916954216
 C         -4.0082878738       -3.6027366827        0.0299323591
 O         -0.3164242917       -1.5150258109        2.4959461658
 H          5.2498135110       -0.7137779357       -2.8460011803
 H          6.4929404903        0.5379089967       -2.8958099422
 H          6.9089065052       -1.1384769266       -3.2542903068
 H          6.3644541658       -1.7704588614       -0.8970012658
 H          7.6779095565       -0.5985457612       -0.9972241241
 H          6.0376857788        1.2395213615       -0.5212327642
 H          6.2428210154        0.0831164274        0.7935030510
 H          3.9165631236        0.1359859014       -1.1810817180
 H          4.1537004902       -1.0907374147        0.0633043545
 H          4.0409566657        0.6719422893        1.8153597786
 H          3.8274498017        1.9014759679        0.5615892685
 H          2.2231681505       -0.8435219569        2.3960960197
 H         -2.5757895494        0.0381557421        1.4888572208
 H         -1.5094277016       -2.5081270001        0.5367995516
 H         -5.5626627408       -1.5091429522       -0.2236663481
 H         -4.8164966427       -0.7689057595        1.1893759747
 H         -4.6884569931        0.9875726115       -0.3052608438
 H         -4.5045930053       -0.0497443592       -1.7124918467
 H         -2.2315339836       -0.2423667159       -1.5145098067
 H          1.7200965407        2.0166606123       -0.7409782398
 H         -2.2417810851        3.3331875949       -2.2706423702
 H         -2.5391503169        1.7326803355       -2.9464422203
 H         -3.8060945561        2.5456564644       -2.0131510522
 H         -1.9797200521        2.2925500348        1.2722268651
 H         -2.2133830213        3.6573633563        0.1839025342
 H         -3.5836803723        2.6230500508        0.6004845283
 H         -4.4398446985       -3.7311870351       -0.9630380017
 H         -3.1672581736       -4.2828108281        0.1366478158
 H         -4.7713803229       -3.8711150093        0.7606330375
 H          0.3715492565       -1.8612068283        3.0765402933
  53
        -68.44450349
 C          6.2829537631       -0.4578713499       -2.6435812825
 C          6.5982198422       -0.7253722472       -1.1764703098
 C          5.8474638330        0.2030937904       -0.2211604501
 C          4.3418486393       -0.0472141505       -0.1958197479
 C          3.6354615732        0.8463096684        0.8303203154
 C          2.1565884270        0.5892433382        0.8196881173
 C          1.5937474651       -0.3381605474        1.6857729744
 C          0.2369190274       -0.6200954206        1.6374339215
 C         -0.5926604352        0.0086247539        0.7065055859
 C         -2.0519436466       -0.3371321308        0.6014755775
 C         -2.3309192245       -1.8093746411        0.4842797395
 C         -3.5784795219       -2.1831645432        0.2329893171
 C         -4.6263940314       -1.1070879792        0.1642445762
 C         -4.1765435529        0.0979092998       -0.6884017396
 C         -2.6568101289        0.2949741426       -0.6642748786
 C         -2.1779953643        1.7470178092       -0.8241230857
 O         -0.7566477001        1.7245940404       -0.9982129097
 C         -0.0322820138        0.9841060927       -0.1176188797
 C          1.3336306577        1.2539452051       -0.0699845361
 C         -2.7227049405        2.3711693491       -2.1096082652
 C         -2.5122842590        2.6353199922        0.3786296046
 C         -4.0144802091       -3.6001520066        0.0403930996
 O         -0.3255473029       -1.5100177007        2.5081576881
 H          6.4876507934        0.5812729670       -2.8926773914
 H          6.8954441280       -1.0901546596       -3.2826913929
 H          5.2391278655       -0.6656490339       -2.8630920311
 H          6.3539477319       -1.7628082026       -0.9364227395
 H          7.6715187096       -0.5940372111       -1.0176925225
 H          6.0365309589        1.2407999409       -0.5063294454
 H          6.2438614639        0.0618979454        0.7879454348
 H          3.9121436772        0.1479371939       -1.1789505712
 H          4.1497823467       -1.0944015955        0.0496591193
 H          4.0433910437        0.6467890567        1.8236198387
 H          3.8308388517        1.8920656768        0.5853510718
 H          2.2160415929       -0.8459972647        2.4118054591
 H         -2.5786846361        0.0442405860        1.4875058741
 H         -1.5149792896       -2.5086532151        0.5505477625
 H         -5.5633902009       -1.5043731617       -0.2279422690
 H         -4.8203730238       -0.7591952973        1.1841759041
 H         -4.6835257900        0.9900529236       -0.3182560755
 H         -4.4969051759       -0.0543173550       -1.7199171472
 H         -2.2250968478       -0.2506637354       -1.5134278449
 H          1.7283648101        2.0035678273       -0.7373458763
 H         -3.7922260760        2.5380117560       -2.0303992321
 H         -2.2255129170        3.3214169796       -2.2858767632
 H         -2.5234776929        1.7184369529       -2.9553869362
 H         -2.2043518423        3.6568329397        0.1673820800
 H         -3.5787100408        2.6278085879        0.5834148725
 H         -1.9781372251        2.2963900880        1.2627161765
 H         -4.7811556251       -3.8632711117        0.7692199072
 H         -4.4422199475       -3.7323596737       -0.9537259137
 H         -3.1754557166       -4.2815668578        0.1538420281
 H          0.3600142509       -1.8554479803        3.0920434916
  53
        -68.44449657
 C          6.9814779418       -0.6864755347       -1.1858190737
 C          6.7075224461        0.0148058661        0.1406458002
 C          5.7975007927        1.2436539044        0.0013442555
 C          4.3308682890        0.9833959963        0.3473707802
 C          3.6345220812       -0.0043681153       -0.5953095687
 C          2.1726472000       -0.0962004275       -0.2656725411
 C          1.7175517516       -1.0048979736        0.6787903919
 C          0.3716563959       -1.0812936318        1.0051656508
 C         -0.5688629906       -0.2592908513        0.3782417113
 C         -2.0497813520       -0.3482274310        0.6603661829
 C         -2.6067904290       -1.7473186002        0.6517875367
 C         -3.8544802538       -2.0265118000        0.3033445295
 C         -4.8300189578       -0.9789081254       -0.1630233665
 C         -4.3017965299        0.4446976201        0.0153645280
 C         -2.8280146310        0.4695499686       -0.3752917199
 C         -2.1906631760        1.8515559994       -0.5720004663
 O         -0.8744734710        1.6480932864       -1.0985402392
 C         -0.0901958532        0.7090400268       -0.5070200108
 C          1.2620512908        0.7705917955       -0.8375892668
 C         -2.9145709046        2.6667566580       -1.6458060431
 C         -2.0962466656        2.6669203100        0.7215252044
 C         -4.3930817728       -3.4262259917        0.3179072811
 O         -0.0480711517       -1.9588003266        1.9668029753
 H          7.4883486507       -0.0108376647       -1.8717599865
 H          7.6199874134       -1.5539127618       -1.0301394814
 H          6.0604292700       -1.0195528127       -1.6555797282
 H          6.2587848332       -0.6915371228        0.8421439706
 H          7.6658489704        0.3236483680        0.5644123297
 H          5.8637818713        1.6285857607       -1.0183088335
 H          6.1560715726        2.0306087058        0.6689926234
 H          4.2614001063        0.6079127310        1.3712260790
 H          3.7897165003        1.9320625768        0.3106567642
 H          3.7579234355        0.3373927630       -1.6245142025
 H          4.0923798116       -0.9892245062       -0.4963057702
 H          2.4186003699       -1.6667197797        1.1720654748
 H         -2.2284546534        0.0620616828        1.6660863199
 H         -1.9490294413       -2.5340886830        0.9812189041
 H         -5.0432849526       -1.1587284570       -1.2227838597
 H         -5.7750235642       -1.0974066809        0.3744942621
 H         -4.4107289619        0.7492218155        1.0580356078
 H         -4.8867544469        1.1284577257       -0.6006419900
 H         -2.7255238584       -0.0438056125       -1.3406370775
 H          1.5770163549        1.5198877734       -1.5465121965
 H         -2.2776629253        3.4944877996       -1.9467971499
 H         -3.1129363329        2.0517553116       -2.5196959058
 H         -3.8495498017        3.0637236390       -1.2630985350
 H         -1.7074975824        3.6575332357        0.4966744584
 H         -3.0771532851        2.7685336573        1.1768071589
 H         -1.4201583504        2.1911439258        1.4273438657
 H         -4.7622705241       -3.7009943547       -0.6702128125
 H         -3.6255595739       -4.1359341196        0.6142405659
 H         -5.2274246472       -3.5040543912        1.0151315657
 H          0.7181495921       -2.4297254796        2.3156979623
  53
        -68.44449631
 C          6.9850478266       -0.6788297843       -1.1845917343
 C          6.7069712458        0.0165578969        0.1441275733
 C          5.7961394684        1.2451029620        0.0072875870
 C          4.3292384626        0.9823983475        0.3503099877
 C          3.6352160733       -0.0035503189       -0.5960117978
 C          2.1730543955       -0.0973829490       -0.2681086516
 C          1.7180392106       -1.0068943718        0.6756023626
 C          0.3721313130       -1.0837841290        1.0017933732
 C         -0.5684668365       -0.2613802946        0.3754652688
 C         -2.0491195232       -0.3495185287        0.6590808210
 C         -2.6074437666       -1.7480896405        0.6501966219
 C         -3.8564967268       -2.0253323229        0.3050978808
 C         -4.8322338318       -0.9759936207       -0.1569482751
 C         -4.3013169491        0.4468625987        0.0197610578
 C         -2.8284873743        0.4695928018       -0.3747057991
 C         -2.1898202985        1.8508000175       -0.5727866358
 O         -0.8745865474        1.6459525648       -1.1011870831
 C         -0.0900138851        0.7070845927       -0.5097274929
 C          1.2622477855        0.7691067873       -0.8401020835
 C         -2.9144514451        2.6663810697       -1.6458203657
 C         -2.0926400789        2.6664913256        0.7203151424
 C         -4.3968277753       -3.4243935194        0.3194262041
 O         -0.0475720232       -1.9619957576        1.9627879825
 H          6.0653427414       -1.0100594854       -1.6583663532
 H          7.4937079990        0.0000096299       -1.8661064600
 H          7.6233118735       -1.5468107196       -1.0309333065
 H          6.2569581048       -0.6931304689        0.8414314042
 H          7.6638337083        0.3244643612        0.5718740255
 H          5.8635912978        1.6332492622       -1.0110667454
 H          6.1529413041        2.0303618760        0.6778753937
 H          4.2585468820        0.6040656895        1.3730418635
 H          3.7870928959        1.9305536945        0.3152890248
 H          3.7595551011        0.3410760366       -1.6241356885
 H          4.0939677377       -0.9881856148       -0.4990295087
 H          2.4192167742       -1.6687695455        1.1686259522
 H         -2.2260823460        0.0600993845        1.6653894372
 H         -1.9495123764       -2.5360345496        0.9764139732
 H         -5.0500113234       -1.1551981100       -1.2158928838
 H         -5.7752943400       -1.0932542956        0.3842740756
 H         -4.4070406476        0.7518071556        1.0626419781
 H         -4.8869106094        1.1313336414       -0.5948419149
 H         -2.7291093771       -0.0437792786       -1.3403545075
 H          1.5771134868        1.5188274088       -1.5486251672
 H         -2.2774711182        3.4937692401       -1.9475514624
 H         -3.1140457078        2.0514673727       -2.5194830000
 H         -3.8488276063        3.0638472032       -1.2621894090
 H         -1.4174798797        2.1893021860        1.4260642150
 H         -1.7014165406        3.6559681131        0.4947503712
 H         -3.0730668686        2.7709148634        1.1759877142
 H         -5.2278514087       -3.5025077931        1.0206172617
 H         -4.7712725423       -3.6967330867       -0.6674059994
 H         -3.6288484510       -4.1357407866        0.6106481663
 H          0.7186434952       -2.4331329534        2.3114205619
  53
        -68.44448914
 C          6.5902090008       -1.8521104954       -1.3073935340
 C          6.5512765349       -0.3484918941       -1.5547871911
 C          5.8241797017        0.4243740688       -0.4538145510
 C          4.3250796561        0.1403399069       -0.4062712237
 C          3.6177407491        1.0031678489        0.6452701825
 C          2.1485108681        0.6967993684        0.6739927482
 C          1.6608827015       -0.3331568461        1.4675260204
 C          0.3139534798       -0.6608403886        1.4538929375
 C         -0.5820862704        0.0266918859        0.6323123183
 C         -2.0323115802       -0.3627753612        0.5611865894
 C         -2.2665979548       -1.8246762753        0.3019704365
 C         -3.5118132366       -2.2189428707        0.0710923506
 C         -4.5984315590       -1.1841096771        0.1668509326
 C         -4.2344390514        0.1217332630       -0.5706834222
 C         -2.7229216760        0.3730065914       -0.6002751456
 C         -2.3001673354        1.8507021825       -0.6300959487
 O         -0.8899653723        1.8993408128       -0.8756184221
 C         -0.0970482085        1.1008949197       -0.1126185839
 C          1.2604836566        1.4152885865       -0.1036505153
 C         -2.9323350452        2.5837143637       -1.8140473150
 C         -2.5986394964        2.5965957292        0.6745149444
 C         -3.9080987888       -3.6241120977       -0.2504574149
 O         -0.1743804941       -1.6548455420        2.2539322052
 H          7.1841925702       -2.3453910128       -2.0736242354
 H          7.0359259986       -2.0666596749       -0.3382249849
 H          5.5904122869       -2.2774615974       -1.3294934132
 H          7.5766835852        0.0235026178       -1.6215273635
 H          6.0655948405       -0.1512176982       -2.5131023345
 H          5.9723334023        1.4942850869       -0.6215983710
 H          6.2706884628        0.1782400144        0.5128917747
 H          3.8832605279        0.3410077157       -1.3846983487
 H          4.1502490065       -0.9106752048       -0.1716731438
 H          4.0596094207        0.8064080083        1.6246892316
 H          3.7718797826        2.0571787473        0.4072957160
 H          2.3357346840       -0.8859911525        2.1088110988
 H         -2.5252854364       -0.0966208011        1.5067137025
 H         -1.4248908101       -2.4944021455        0.2552312076
 H         -5.5395962133       -1.5748091149       -0.2219537579
 H         -4.7528451061       -0.9544321836        1.2262449044
 H         -4.7496461457        0.9490599600       -0.0807563885
 H         -4.6043169604        0.0689155422       -1.5954773746
 H         -2.3188522568       -0.0653207651       -1.5220776091
 H          1.5958901251        2.2414572365       -0.7102881516
 H         -4.0009171856        2.7011873965       -1.6646075874
 H         -2.4760706462        3.5651147895       -1.9136860007
 H         -2.7576339474        2.0300055314       -2.7327393017
 H         -3.6519515395        2.5279526180        0.9296813715
 H         -2.0078725414        2.1882698994        1.4906085517
 H         -2.3352592539        3.6452882971        0.5569981993
 H         -3.0414062022       -4.2798919048       -0.2501086069
 H         -4.6269971426       -3.9923451708        0.4815293291
 H         -4.3813098484       -3.6682799853       -1.2316921349
 H          0.5505927905       -2.0308174720        2.7670595959
  53
        -68.44447264
 C          6.8946070429        0.7364023943        1.6886639317
 C          6.7402758099        1.3246765612        0.2908708386
 C          5.8724047320        0.4673713126       -0.6311056925
 C          4.4049537995        0.4261345871       -0.2124937748
 C          3.5509676982       -0.3588070853       -1.2150664681
 C          2.1161973475       -0.3919697521       -0.7743903228
 C          1.6692763688       -1.3821076359        0.0903657926
 C          0.3515299950       -1.4047693052        0.5204183907
 C         -0.5598637356       -0.4392127832        0.0872320700
 C         -2.0075303431       -0.4956318800        0.4887257156
 C         -2.6613783240       -1.8284541446        0.2536355338
 C         -3.9724209710       -1.9137112511        0.4356815786
 C         -4.6859119717       -0.6896998479        0.9391785303
 C         -4.2655345654        0.5885614680        0.1836604663
 C         -2.8262873392        0.5115762472       -0.3374816233
 C         -2.0878686604        1.8563069544       -0.4351281924
 O         -0.8582059832        1.6332657222       -1.1346203822
 C         -0.0871950995        0.5913938040       -0.7243924229
 C          1.2357069216        0.6001642097       -1.1618456620
 C         -2.8605794437        2.8503424826       -1.3032384934
 C         -1.7718620324        2.4788479347        0.9287513298
 C         -4.7804338586       -3.1491546705        0.1994784255
 O         -0.0866810669       -2.3652302203        1.3876443472
 H          7.5815436793        1.3395435335        2.2782874770
 H          5.9401827994        0.7072687657        2.2076187449
 H          7.2893132592       -0.2761309325        1.6335671181
 H          6.3073579553        2.3249897636        0.3643201403
 H          7.7309188120        1.4260458533       -0.1592763590
 H          6.2710442515       -0.5499152803       -0.6563614903
 H          5.9356305405        0.8705528261       -1.6451348143
 H          4.3086602636       -0.0395478555        0.7694552952
 H          4.0172291136        1.4444128626       -0.1373984470
 H          3.6250824471        0.1132375401       -2.1964199513
 H          3.9396620694       -1.3763776163       -1.2957053163
 H          2.3529963065       -2.1490539858        0.4318779659
 H         -2.0973125828       -0.2507530237        1.5563923019
 H         -2.0679818384       -2.6520934931       -0.1050270785
 H         -5.7670050823       -0.8169976263        0.8710911437
 H         -4.4375187974       -0.5660779695        1.9984086978
 H         -4.3836789457        1.4400350355        0.8552261352
 H         -4.9392893377        0.7433554348       -0.6600793097
 H         -2.8512537028        0.1166898814       -1.3614677130
 H          1.5535446040        1.4033801713       -1.8075234102
 H         -2.2341073045        3.7159233076       -1.5021343016
 H         -3.1225368815        2.3917750768       -2.2530761882
 H         -3.7662279676        3.1741111025       -0.8002538130
 H         -1.3108242515        3.4527608723        0.7807396859
 H         -2.6757125072        2.6066334319        1.5169526247
 H         -1.0741711697        1.8538407905        1.4804358978
 H         -5.5332945784       -2.9675718829       -0.5679559353
 H         -4.1454014440       -3.9709400333       -0.1208236449
 H         -5.3003353782       -3.4423832593        1.1116059277
 H          0.6459462276       -2.9553625144        1.6003245730
  53
        -68.44438882
 C          3.5300045439       -1.1652753724       -2.6360706383
 C          3.6504009317       -0.9665797873       -1.1301597440
 C          4.6574407405        0.1304530948       -0.7890381283
 C          4.7900341407        0.3935941868        0.7139877037
 C          3.7986469013        1.4375816474        1.2481931262
 C          2.3666327443        1.0152474184        1.0963138233
 C          1.8415393721        0.0218389096        1.9142077173
 C          0.5384884638       -0.4180396817        1.7454978115
 C         -0.2762395973        0.1215359767        0.7468441601
 C         -1.6652828524       -0.3999514580        0.5065965086
 C         -1.7434756345       -1.8923447851        0.3456557626
 C         -2.9060398257       -2.4130771044       -0.0239232805
 C         -4.0720941102       -1.4756206001       -0.1737190918
 C         -3.7056499879       -0.2013998145       -0.9635826378
 C         -2.2306749623        0.1813707460       -0.8009181931
 C         -1.9241097478        1.6845527578       -0.9000185188
 O         -0.5012136032        1.8403351190       -0.9472845491
 C          0.2296292527        1.1734406549       -0.0150866415
 C          1.5460297796        1.6007890521        0.1509918445
 C         -2.4288327448        2.2667567171       -2.2209782970
 C         -2.4693500862        2.4970182699        0.2789706801
 C         -3.1395948000       -3.8683173943       -0.2742951187
 O          0.0111943931       -1.3810664552        2.5584047793
 H          2.8248765354       -1.9619869795       -2.8614754407
 H          3.1773696363       -0.2522957386       -3.1106739842
 H          4.4940772147       -1.4264593935       -3.0685881294
 H          2.6724376772       -0.7094068793       -0.7233376321
 H          3.9709471229       -1.9027919646       -0.6657559229
 H          4.3664951607        1.0541197714       -1.2930385146
 H          5.6323989762       -0.1653543663       -1.1857507843
 H          4.6588844213       -0.5446283720        1.2567435088
 H          5.7981116392        0.7586240792        0.9256319993
 H          4.0145431095        1.6045028348        2.3071583355
 H          3.9583660581        2.3790326255        0.7198380822
 H          2.4552810064       -0.4182220602        2.6898060192
 H         -2.3120635834       -0.1087726181        1.3460889162
 H         -0.8543971126       -2.4853346085        0.4771506482
 H         -4.9117910674       -1.9773146787       -0.6562338244
 H         -4.3995016551       -1.1819021287        0.8290154213
 H         -4.3505950953        0.6107939422       -0.6254375507
 H         -3.9143066366       -0.3638949362       -2.0218176447
 H         -1.6614597255       -0.2873577307       -1.6142673055
 H          1.9029750315        2.4004534594       -0.4782949641
 H         -2.0773728661        1.6633337340       -3.0537434118
 H         -3.5136252995        2.2988612161       -2.2349783838
 H         -2.0406581742        3.2748700509       -2.3406314003
 H         -2.2731781223        3.5531801803        0.1086825745
 H         -3.5404001667        2.3542498321        0.3873870584
 H         -1.9766888098        2.2055674045        1.2031618555
 H         -2.2340522787       -4.4417778889       -0.0944606728
 H         -3.9279112799       -4.2436073147        0.3783394988
 H         -3.4576349868       -4.0283964523       -1.3047990930
 H          0.6796000455       -1.6542909805        3.1977342976
  53
        -68.44435378
 C          4.5112972570        1.2827178779       -3.0756518553
 C          4.8458066912        1.0734129383       -1.6038229151
 C          4.2556471056       -0.2322873289       -1.0760804174
 C          4.5653900615       -0.4893842511        0.3982879111
 C          3.8205391189        0.4516878297        1.3564797612
 C          2.3320131977        0.2975865745        1.2298433677
 C          1.6952920225       -0.7883534670        1.8063250031
 C          0.3210511217       -0.9750114397        1.6831266851
 C         -0.4417476570       -0.0373484518        0.9945686593
 C         -1.9368361703       -0.0123731335        0.7636717476
 C         -2.7616500923       -1.0930456307        1.3903966277
 C         -3.5990602886       -1.8797792948        0.7238321860
 C         -3.7929240828       -1.7325206863       -0.7601630428
 C         -3.4929540911       -0.2998917446       -1.1992677844
 C         -2.0741243370        0.0518171987       -0.7679378263
 C         -1.5573260668        1.4272847767       -1.2398754808
 O         -0.4903361229        1.9089935271       -0.3992117103
 C          0.2178077031        1.0099521686        0.3436433377
 C          1.5860186959        1.1907053455        0.4743048125
 C         -0.9924200719        1.3158105899       -2.6617795993
 C         -2.6290951481        2.5181146144       -1.1916079426
 C         -4.4188917222       -2.9365748191        1.3969219537
 O         -0.1989620097       -2.0965320679        2.2535856256
 H          4.9431814831        2.2120801038       -3.4404212886
 H          4.9008140858        0.4639732815       -3.6773080870
 H          3.4332672395        1.3267091073       -3.2163009853
 H          5.9309294503        1.0578093790       -1.4751748374
 H          4.4557901678        1.9147198481       -1.0295399779
 H          4.6582055791       -1.0594715699       -1.6666600759
 H          3.1725826557       -0.2227464052       -1.2153544969
 H          4.2850725122       -1.5169628089        0.6395569509
 H          5.6404318357       -0.3874107125        0.5650459155
 H          4.1242350837        0.2123620356        2.3779885210
 H          4.1044249463        1.4844546924        1.1536490688
 H          2.2524041761       -1.5227329609        2.3666082947
 H         -2.2947106074        0.9429701096        1.1814950234
 H         -2.7239810697       -1.1389934628        2.4731422447
 H         -3.1357407878       -2.4291807157       -1.2906761316
 H         -4.8208624678       -1.9961886879       -1.0186090163
 H         -4.2102240390        0.3721628580       -0.7267301786
 H         -3.5968592373       -0.2122220419       -2.2820417561
 H         -1.4073757546       -0.7129604065       -1.1873774947
 H          2.0482278988        2.0307205415       -0.0191953106
 H         -0.1454424515        0.6324568548       -2.6719406334
 H         -1.7517259687        0.9483369499       -3.3467394306
 H         -0.6513313450        2.2908152007       -2.9997385522
 H         -3.1142217852        2.5423016827       -0.2191126574
 H         -2.1495597086        3.4799365824       -1.3537150858
 H         -3.3765383303        2.3604592936       -1.9627504143
 H         -4.1782983627       -3.0114190690        2.4545774653
 H         -5.4805717156       -2.7112533843        1.2973195380
 H         -4.2421258661       -3.9038449575        0.9269566905
 H         -1.1364494807       -2.1682952945        2.0201951667
  53
        -68.44433807
 C          3.8797701933       -2.3592215982       -1.4687528811
 C          3.6665141933       -0.8633639697       -1.2701081084
 C          4.7925848793       -0.2408483682       -0.4463335044
 C          4.6066664991        1.2573004699       -0.1881960424
 C          3.7795309436        1.5731622398        1.0662297815
 C          2.3609960475        1.0930035616        0.9672511819
 C          1.9258530520       -0.0027727690        1.7005077860
 C          0.6300269009       -0.4778611326        1.5625692823
 C         -0.2645179426        0.1291530087        0.6791381607
 C         -1.6455593901       -0.4239939376        0.4651595183
 C         -1.6770206780       -1.8918663565        0.1429867742
 C         -2.8400071059       -2.4205557213       -0.2137274388
 C         -4.0484897533       -1.5261094326       -0.1880095589
 C         -3.7825955528       -0.1561642393       -0.8473369253
 C         -2.3153145546        0.2706384816       -0.7330971929
 C         -2.0704974810        1.7875029221       -0.6833056203
 O         -0.6602219178        2.0085478393       -0.7999860041
 C          0.1537464296        1.2780533282        0.0075628027
 C          1.4600062372        1.7413564935        0.1417230954
 C         -2.6813601902        2.4873119103       -1.8980954829
 C         -2.5663934760        2.4431499957        0.6095911068
 C         -3.0331586337       -3.8485705942       -0.6117907807
 O          0.1923571672       -1.5453143645        2.2940496599
 H          3.8997375367       -2.8719917949       -0.5091610677
 H          3.0765209205       -2.7836881431       -2.0664529726
 H          4.8235324027       -2.5493045987       -1.9764745666
 H          3.6243202408       -0.3715663323       -2.2447406207
 H          2.7097693912       -0.6971529711       -0.7752230095
 H          5.7328497222       -0.3946918480       -0.9826466354
 H          4.8748593112       -0.7651613304        0.5084133719
 H          5.5880637937        1.7209340631       -0.0609433862
 H          4.1330799611        1.7166028850       -1.0574075226
 H          4.2632193643        1.1183788205        1.9333597474
 H          3.7797049906        2.6565783472        1.2107123729
 H          2.6025654699       -0.5010499558        2.3830604603
 H         -2.2477763926       -0.2555826774        1.3689453102
 H         -0.7594842601       -2.4552805449        0.1546091198
 H         -4.8967634452       -2.0088492377       -0.6748217260
 H         -4.3234142777       -1.3612482338        0.8589534304
 H         -4.4329402725        0.5838433888       -0.3789424910
 H         -4.0547971458       -0.2077049059       -1.9023380237
 H         -1.7836365815       -0.0820798434       -1.6264860731
 H          1.7486406996        2.6204027492       -0.4120687965
 H         -2.3384243769        3.5181750422       -1.9287235811
 H         -2.3637270006        1.9934702832       -2.8125824859
 H         -3.7651635340        2.4739907180       -1.8419912217
 H         -2.4189730491        3.5189064354        0.5462520658
 H         -3.6225007603        2.2444451482        0.7658470589
 H         -2.0051190876        2.0738395177        1.4642130444
 H         -3.4089046838       -3.9087051992       -1.6334939156
 H         -2.0969040985       -4.3970506474       -0.5505101028
 H         -3.7640511959       -4.3282636237        0.0392885720
 H          0.9106820683       -1.8575594622        2.8567835527
  53
        -68.44428197
 C          4.0978402409        0.7115822982        2.9565914638
 C          3.7847612137        1.1059336438        1.5180697589
 C          4.9091746648        0.6975496594        0.5679484587
 C          4.6444041526        1.0691186987       -0.8938061291
 C          3.8384605112        0.0174966767       -1.6694325612
 C          2.4394370660       -0.1574883993       -1.1538415210
 C          2.0728973100       -1.3037732165       -0.4615690021
 C          0.7830092717       -1.4562356710        0.0252657295
 C         -0.1816110979       -0.4681762059       -0.1808094249
 C         -1.5980823342       -0.6498692561        0.2887258502
 C         -2.2287516111       -1.9457762366       -0.1379136699
 C         -3.5223109034       -2.1116329959        0.1039087810
 C         -4.2347970592       -1.0228487600        0.8575023470
 C         -3.8991195725        0.3835745965        0.3179838536
 C         -2.4971485754        0.4528026303       -0.2969577227
 C         -1.8028639608        1.8211827532       -0.2043980907
 O         -0.6192816556        1.7680801875       -1.0089009171
 C          0.2082668880        0.7045688685       -0.8279113796
 C          1.5004498293        0.8432387340       -1.3276522106
 C         -2.6594029748        2.9203100511       -0.8342770666
 C         -1.4090469846        2.2102554583        1.2243208244
 C         -4.3099787012       -3.3169681659       -0.2981743560
 O          0.4281176175       -2.5701401026        0.7319512717
 H          4.2168635494       -0.3668359970        3.0389281732
 H          5.0195851946        1.1827004701        3.2924885749
 H          3.2936039241        1.0182748592        3.6213415570
 H          2.8506268937        0.6370494765        1.2091495830
 H          3.6461750792        2.1881619521        1.4617481287
 H          5.0736908146       -0.3796835737        0.6439270112
 H          5.8283373442        1.1901546336        0.8966148070
 H          4.1220911071        2.0263468879       -0.9329577263
 H          5.6019234298        1.1926747159       -1.4059751049
 H          3.7922216780        0.3290737602       -2.7161942947
 H          4.3680208155       -0.9366451169       -1.6266459181
 H          2.7993862542       -2.0879972300       -0.2899528221
 H         -1.6247220400       -0.5978996241        1.3862832615
 H         -1.6376929616       -2.6709614415       -0.6707875237
 H         -5.3141418360       -1.1775544015        0.8315446960
 H         -3.9220466061       -1.0778699065        1.9054163934
 H         -3.9926121656        1.0980823859        1.1369682519
 H         -4.6321821505        0.6602068765       -0.4408759932
 H         -2.5810474867        0.2396777534       -1.3705989891
 H          1.7520549887        1.7569653737       -1.8419753251
 H         -2.9744978156        2.6231986619       -1.8310464730
 H         -3.5361254843        3.1178206544       -0.2257067969
 H         -2.0710521048        3.8302929378       -0.9181963392
 H         -0.6580291797        1.5267970942        1.6125405314
 H         -0.9854366009        3.2120081102        1.2198938528
 H         -2.2727005984        2.1996311010        1.8825558196
 H         -3.6752517192       -4.0449810431       -0.7965026011
 H         -4.7603347445       -3.7850628799        0.5772271340
 H         -5.1165461015       -3.0331204879       -0.9746334460
 H          1.1918019824       -3.1549134004        0.8028838140
  53
        -68.44427946
 C          4.1513637510        0.6809829053        2.9508541065
 C          3.8135152900        1.0807230028        1.5194762508
 C          4.9301066078        0.6931375051        0.5517435329
 C          4.6428106126        1.0728188926       -0.9034558844
 C          3.8300697101        0.0233265559       -1.6747452941
 C          2.4333430001       -0.1505452996       -1.1524523039
 C          2.0677975740       -1.2980474277       -0.4615755322
 C          0.7786776054       -1.4513350772        0.0270522545
 C         -0.1865288923       -0.4633023513       -0.1765395447
 C         -1.6033883432       -0.6474010919        0.2910375584
 C         -2.2314563658       -1.9436311480       -0.1384765910
 C         -3.5252464086       -2.1116961932        0.1004739527
 C         -4.2409473770       -1.0248485410        0.8537165575
 C         -3.9063714772        0.3825024700        0.3160528057
 C         -2.5027855706        0.4548390657       -0.2949899381
 C         -1.8109597766        1.8242015191       -0.1981017139
 O         -0.6252069137        1.7746780263       -0.9996273595
 C          0.2027195065        0.7111048001       -0.8209551140
 C          1.4944637288        0.8510414699       -1.3216244460
 C         -2.6676939228        2.9230457580       -0.8282996748
 C         -1.4216330310        2.2112754706        1.2323308255
 C         -4.3102180473       -3.3177996291       -0.3047441312
 O          0.4249565518       -2.5665012720        0.7323379082
 H          3.3522511879        0.9719826524        3.6286295201
 H          4.2864241606       -0.3962737926        3.0240422594
 H          5.0711407884        1.1624401296        3.2774821127
 H          2.8812804786        0.6020260424        1.2199003719
 H          3.6602752789        2.1614243057        1.4723176272
 H          5.1083850660       -0.3826765979        0.6170205627
 H          5.8476968509        1.1940032527        0.8723533600
 H          4.1166248007        2.0284357866       -0.9291355191
 H          5.5927940418        1.2031238670       -1.4278771547
 H          3.7779115441        0.3361933287       -2.7208276321
 H          4.3584007850       -0.9317039820       -1.6364623042
 H          2.7944205241       -2.0827960210       -0.2929292227
 H         -1.6319020532       -0.5968661927        1.3885717009
 H         -1.6383542666       -2.6673882895       -0.6710022209
 H         -5.3200091554       -1.1812138389        0.8255272521
 H         -3.9301516194       -1.0802992847        1.9022110486
 H         -4.0036233946        1.0963120118        1.1351442712
 H         -4.6378163871        0.6581137749       -0.4447633139
 H         -2.5834213328        0.2434782864       -1.3691782763
 H          1.7452037640        1.7656883820       -1.8347464400
 H         -2.0806333639        3.8341335640       -0.9090690237
 H         -2.9796794448        2.6271503467       -1.8263913694
 H         -3.5463501916        3.1180377778       -0.2216994705
 H         -1.0006094227        3.2141462329        1.2310834135
 H         -2.2869008963        2.1970232227        1.8884075971
 H         -0.6698197405        1.5289151049        1.6209044528
 H         -4.7617140825       -3.7875691096        0.5691691062
 H         -5.1157479445       -3.0343864179       -0.9826040219
 H         -3.6732694841       -4.0442054447       -0.8025231434
 H          1.1889498715       -3.1510902570        0.8015519315
  53
        -68.44426102
 C          3.1118755365        2.4461193505        1.3597670481
 C          3.8567312300        1.1459586977        1.6375701787
 C          5.0488105052        0.9151306656        0.7070178055
 C          4.7202853346        0.8018674541       -0.7826062390
 C          3.9887908904       -0.4874972487       -1.1799930460
 C          2.5452689569       -0.5216786059       -0.7650359289
 C          2.0782379171       -1.4870284296        0.1174616773
 C          0.7464321052       -1.5118707474        0.5040238649
 C         -0.1603727891       -0.5721745286        0.0102379056
 C         -1.6146950118       -0.6167953168        0.3873498869
 C         -2.2643015750       -1.9574728795        0.1882561538
 C         -3.5784535485       -2.0364845608        0.3496168239
 C         -4.3014075540       -0.7972511368        0.8002392148
 C         -3.8646351560        0.4595430674        0.0177919624
 C         -2.4212907567        0.3593880181       -0.4864362557
 C         -1.6771495442        1.6967442299       -0.6303252253
 O         -0.4443364597        1.4395180725       -1.3124185450
 C          0.3243521675        0.4231583558       -0.8374684369
 C          1.6571875209        0.4257602159       -1.2405967831
 C         -2.4395838436        2.6599777783       -1.5407851532
 C         -1.3651846802        2.3698667022        0.7102961692
 C         -4.3823292539       -3.2796038622        0.1411994665
 O          0.2923195029       -2.4441431362        1.3934082268
 H          2.3803507099        2.6325094278        2.1432542892
 H          3.8031201238        3.2862292407        1.3292415304
 H          2.5807595114        2.3934524045        0.4133407818
 H          4.2352180363        1.1683919120        2.6633413516
 H          3.1587602810        0.3128952579        1.5602217970
 H          5.5655366608        0.0044329296        1.0222409738
 H          5.7481510561        1.7463995305        0.8353993874
 H          4.1345313210        1.6650749255       -1.0959605753
 H          5.6651318622        0.8309221992       -1.3323355002
 H          4.0343278412       -0.5785599757       -2.2692337293
 H          4.5155509009       -1.3434953198       -0.7527581732
 H          2.7593979956       -2.2273582508        0.5188963175
 H         -1.7220796008       -0.3345079661        1.4441696414
 H         -1.6647429174       -2.7929510980       -0.1308058975
 H         -5.3808039484       -0.9269828522        0.7127205839
 H         -4.0761028977       -0.6432545538        1.8606046649
 H         -3.9823294399        1.3282178192        0.6671319854
 H         -4.5288475981        0.5986449192       -0.8361773672
 H         -2.4381620426       -0.0752142666       -1.4944331386
 H          1.9764627833        1.1939601612       -1.9271886706
 H         -3.3472144039        3.0058081873       -1.0564149564
 H         -1.8084834077        3.5152336314       -1.7678660280
 H         -2.6970028160        2.1667998203       -2.4743984813
 H         -0.6745622278        1.7627247712        1.2901499706
 H         -0.8966761350        3.3343765884        0.5275718589
 H         -2.2717628243        2.5261124586        1.2873740125
 H         -4.9184946174       -3.5420958905        1.0532733192
 H         -5.1213910681       -3.1244204027       -0.6452444338
 H         -3.7419256772       -4.1115391454       -0.1398532680
 H          1.0241995640       -3.0163732863        1.6525234128
  53
        -68.44425161
 C          5.3544058297        0.8516785759        2.3649065536
 C          5.8228450175       -0.1443208894        1.3103026986
 C          4.7819193988       -0.3965172547        0.2193879572
 C          4.5447014510        0.8150219016       -0.6779110814
 C          3.5374249813        0.5110611675       -1.7941951485
 C          2.1773007984        0.2142280238       -1.2306888928
 C          1.6980862030       -1.0820150036       -1.1709366502
 C          0.4586533474       -1.3730810792       -0.6044610881
 C         -0.3024829452       -0.3497830610       -0.0507902656
 C         -1.6452924823       -0.4328977972        0.6414804794
 C         -2.2525050638       -1.7878678256        0.8327805189
 C         -3.4711312942       -2.1279311120        0.4280476040
 C         -4.3653272399       -1.1397566888       -0.2685885679
 C         -4.0100751416        0.2874611935        0.1460501513
 C         -2.5373630171        0.5291182259       -0.1630496796
 C         -2.0347897546        1.9676293658        0.0797283818
 O         -0.6071745474        2.0034505075        0.2748924921
 C          0.1479169904        0.9676382906       -0.1921670101
 C          1.3807947470        1.2486085401       -0.7580306024
 C         -2.3427553397        2.8440438670       -1.1409259222
 C         -2.6283298438        2.6046682773        1.3380073787
 C         -4.0440461792       -3.4921654800        0.6573683931
 O          0.0621234812       -2.6751597509       -0.6365522491
 H          6.0866586294        0.9269917537        3.1660199463
 H          5.2198930944        1.8412973245        1.9365564190
 H          4.4071655596        0.5313854647        2.7932861973
 H          6.7468282134        0.2183309857        0.8531382230
 H          6.0489487541       -1.0943186414        1.8007268532
 H          3.8372852559       -0.6896069417        0.6820365281
 H          5.1192471811       -1.2310142845       -0.4007419424
 H          4.1645793581        1.6458012722       -0.0826062625
 H          5.4922744450        1.1238439093       -1.1264339137
 H          3.4747610805        1.3777244447       -2.4565139910
 H          3.8908408253       -0.3406177959       -2.3780380377
 H          2.2713362321       -1.9045412901       -1.5686086134
 H         -1.4981107210       -0.0060582654        1.6471871348
 H         -1.6709706074       -2.4784271907        1.4334874322
 H         -4.2632897907       -1.2478282275       -1.3532683301
 H         -5.4064875965       -1.3546335109       -0.0180324213
 H         -4.1968410034        0.4020755672        1.2144408522
 H         -4.6364764377        0.9995391104       -0.3937479494
 H         -2.3858077334        0.3020746149       -1.2264376304
 H          1.7020608724        2.2759194200       -0.8265594661
 H         -1.8144270156        2.4639109726       -2.0130186538
 H         -3.4095853344        2.8499297635       -1.3472957067
 H         -2.0114818707        3.8623928567       -0.9557053910
 H         -3.6804052932        2.8313684401        1.1969479303
 H         -2.5134028977        1.9482956750        2.1968832995
 H         -2.0912940954        3.5270171948        1.5435777425
 H         -3.3155542056       -4.1562277391        1.1160913592
 H         -4.9163333287       -3.4309054316        1.3079272335
 H         -4.3684100952       -3.9260082398       -0.2883163744
 H         -0.8479707068       -2.7400976064       -0.3108356800
  53
        -68.44418083
 C          7.0607999534        0.2384749830        1.1624770563
 C          5.6203546699       -0.0634852532        1.5604824887
 C          4.7196828821       -0.3887810047        0.3687858613
 C          4.4847833079        0.8051193561       -0.5526856554
 C          3.4894706900        0.4774113879       -1.6737613231
 C          2.1177947313        0.2047711492       -1.1268935378
 C          1.6388888470       -1.0884784636       -1.0169556253
 C          0.3877613668       -1.3553636883       -0.4645254735
 C         -0.3870067314       -0.3087138485        0.0224881953
 C         -1.7446472394       -0.3623833645        0.6880572515
 C         -2.3530872065       -1.7083544804        0.9315939576
 C         -3.5615272310       -2.0717046027        0.5166334868
 C         -4.4414327905       -1.1216191651       -0.2479140480
 C         -4.0992456772        0.3252890138        0.1049859002
 C         -2.6203915914        0.5568328495       -0.1817628241
 C         -2.1264640551        2.0068442180        0.0032149700
 O         -0.7033478901        2.0567013853        0.2267071789
 C          0.0641172063        1.0016702071       -0.1719094429
 C          1.3095044841        1.2584371057       -0.7218384604
 C         -2.4101867251        2.8236642280       -1.2637802342
 C         -2.7485207733        2.7006703514        1.2169139253
 C         -4.1368446937       -3.4247488618        0.7999699937
 O         -0.0059299957       -2.6584782471       -0.4428635864
 H          7.4766137954       -0.5857912161        0.5866641202
 H          7.1194262368        1.1424252540        0.5619446850
 H          7.6758042329        0.3813074226        2.0484057513
 H          5.6161946182       -0.9176328208        2.2420509169
 H          5.2061324988        0.7908347073        2.1008478637
 H          3.7531089589       -0.7330685093        0.7432144501
 H          5.1636923776       -1.2061925416       -0.2045972442
 H          4.0979486415        1.6413086617        0.0336595845
 H          5.4282536361        1.1155199005       -1.0049434790
 H          3.4432336387        1.3259733573       -2.3603240941
 H          3.8471833697       -0.3919258330       -2.2281820086
 H          2.2213504056       -1.9273644627       -1.3639521390
 H         -1.6205541062        0.1130769552        1.6748714642
 H         -1.7838468650       -2.3666324993        1.5785271973
 H         -4.3136882470       -1.2818903022       -1.3233717645
 H         -5.4876937590       -1.3276217010       -0.0115767125
 H         -4.3107705171        0.4908356115        1.1620148264
 H         -4.7148076037        1.0081465512       -0.4829011401
 H         -2.4440887572        0.2797229513       -1.2293575166
 H          1.6313455441        2.2819885076       -0.8315555369
 H         -2.0848566112        3.8505708638       -1.1199778086
 H         -1.8628692833        2.4043484319       -2.1056831611
 H         -3.4724424646        2.8167017211       -1.4925079746
 H         -2.2181845308        3.6334736013        1.3900835163
 H         -3.7978250901        2.9169629813        1.0426722812
 H         -2.6507214000        2.0860011635        2.1081609860
 H         -5.0241042271       -3.3341719031        1.4264328568
 H         -4.4382927045       -3.9058745468       -0.1302828732
 H         -3.4177772559       -4.0629191791        1.3076698039
 H         -0.9226537595       -2.7101094012       -0.1336905622
  53
        -68.44407804
 C          3.1844071144       -0.8192796584       -2.1104384116
 C          3.9088618615       -1.2295942933       -0.8343184239
 C          5.0489906164       -0.2848982475       -0.4510041693
 C          4.6442391669        1.1605664504       -0.1578684135
 C          3.8318795484        1.3458168237        1.1310759200
 C          2.3971980307        0.9164679591        1.0095414632
 C          1.8830485769       -0.0977817049        1.8067660484
 C          0.5675977160       -0.5142291457        1.6655565217
 C         -0.2692375942        0.0684360323        0.7120641086
 C         -1.6703671271       -0.4291780656        0.4936471658
 C         -1.7691272175       -1.9135084315        0.2786279313
 C         -2.9469502072       -2.4085582583       -0.0774822087
 C         -4.1070568388       -1.4552573792       -0.1579836594
 C         -3.7499957921       -0.1540296164       -0.9071752185
 C         -2.2667005020        0.2071021751       -0.7738718679
 C         -1.9460914774        1.7097401268       -0.8255382978
 O         -0.5234610192        1.8524450133       -0.9096364664
 C          0.2270806736        1.1426147112       -0.0255259671
 C          1.5510666322        1.5497311019        0.1171665244
 C         -2.4828774949        2.3466725422       -2.1080453113
 C         -2.4468531523        2.4826870043        0.3988582752
 C         -3.2026569103       -3.8508079511       -0.3766996505
 O          0.0543103910       -1.4995799270        2.4605810176
 H          2.4869934482       -1.5980693309       -2.4109440102
 H          2.6166719570        0.0943331622       -1.9565011918
 H          3.8933194603       -0.6612792302       -2.9210909759
 H          3.1875232114       -1.2893143123       -0.0199519899
 H          4.3352482310       -2.2268656174       -0.9747191638
 H          5.7741949589       -0.2724461407       -1.2698756381
 H          5.5579782349       -0.6911991793        0.4275762176
 H          5.5621338016        1.7471935223       -0.0624113253
 H          4.0850922015        1.5639950494       -1.0013191373
 H          4.3152315142        0.7963347562        1.9416425392
 H          3.8503315882        2.4080334094        1.3918606188
 H          2.5136942829       -0.5778032264        2.5450901029
 H         -2.2894272384       -0.1639116278        1.3621414399
 H         -0.8829205994       -2.5193706039        0.3620672209
 H         -4.9647806242       -1.9299968192       -0.6360429289
 H         -4.4037167125       -1.1985516637        0.8642886206
 H         -4.3754097510        0.6503473549       -0.5175569507
 H         -3.9918287680       -0.2716694805       -1.9642729660
 H         -1.7266838511       -0.2363663881       -1.6206025113
 H          1.8931557003        2.3799015184       -0.4807154687
 H         -3.5671675527        2.3904097135       -2.0883269651
 H         -2.0869920560        3.3545724403       -2.2014024101
 H         -2.1630289409        1.7715923443       -2.9729992752
 H         -3.5159681741        2.3477882994        0.5332489595
 H         -1.9312330083        2.1507523501        1.2964954099
 H         -2.2428790775        3.5423444155        0.2627915196
 H         -3.5502985637       -3.9680134040       -1.4034220805
 H         -2.2986521521       -4.4393351640       -0.2440655416
 H         -3.9768087537       -4.2434702172        0.2826482758
 H          0.7381744841       -1.8027025562        3.0693947420
  53
        -68.44406278
 C          6.3483267046        0.4718121779       -1.9407799655
 C          4.8282383558        0.3566521551       -1.9455692632
 C          4.2991338351       -0.7237634786       -1.0012083913
 C          4.5613297542       -0.4660866773        0.4827849747
 C          3.7850824631        0.7329184958        1.0449656886
 C          2.3019082800        0.5151739416        0.9589215337
 C          1.6694345291       -0.3244264220        1.8674638011
 C          0.3108516241       -0.5793615383        1.7707269855
 C         -0.4541608648       -0.0086595267        0.7505770944
 C         -1.9143637739       -0.3304571497        0.5958323905
 C         -2.2229597810       -1.8013126410        0.5747916653
 C         -3.4644391802       -2.1676816328        0.2853745692
 C         -4.4814796608       -1.0792721128        0.0806740325
 C         -3.9595360257        0.0508016257       -0.8315769324
 C         -2.4384630534        0.2156557321       -0.7437116784
 C         -1.9142511622        1.6400581900       -0.9879839083
 O         -0.4871021504        1.5722862309       -1.0864800868
 C          0.1721955783        0.8862218100       -0.1151588303
 C          1.5417317261        1.1272911295       -0.0190126822
 C         -2.3782308016        2.1761732766       -2.3429694170
 C         -2.2843762975        2.6251711998        0.1255917033
 C         -3.9239243836       -3.5862021799        0.1763004246
 O         -0.3191068730       -1.3832084589        2.6783494247
 H          6.8040901317       -0.4930367729       -2.1539685530
 H          6.6754222767        1.1797262092       -2.6993351408
 H          6.7136011239        0.8193158975       -0.9777433624
 H          4.3906394543        1.3216381211       -1.6872974882
 H          4.4971350570        0.1121112711       -2.9577609249
 H          4.7607659734       -1.6769311026       -1.2724557859
 H          3.2215475441       -0.8226608630       -1.1503947681
 H          4.2700265032       -1.3592276573        1.0408987864
 H          5.6282819586       -0.3089611269        0.6488762325
 H          4.0724625433        0.8694910742        2.0907075149
 H          4.0589925602        1.6369203205        0.5014354801
 H          2.2403574104       -0.7836888133        2.6646840959
 H         -2.4756667220        0.1281319770        1.4219852565
 H         -1.4288879559       -2.5100806916        0.7371049492
 H         -5.4053625776       -1.4864023385       -0.3320415395
 H         -4.7212740988       -0.6533690768        1.0604964633
 H         -4.4609799145        0.9783724300       -0.5520957087
 H         -4.2324319890       -0.1684064069       -1.8646745693
 H         -1.9793112742       -0.4030350726       -1.5257555439
 H          1.9853439119        1.8122577828       -0.7238429124
 H         -3.4456280614        2.3724271060       -2.3313141716
 H         -1.8482737801        3.0988435469       -2.5645632325
 H         -2.1546733428        1.4563918369       -3.1259467415
 H         -1.8049637717        2.3425164804        1.0594256412
 H         -1.9385467269        3.6200992312       -0.1454892929
 H         -3.3595789256        2.6581192359        0.2743046992
 H         -3.1083602188       -4.2737950365        0.3845807524
 H         -4.7331499919       -3.7779432898        0.8810599347
 H         -4.3031081425       -3.7848026812       -0.8264743314
 H          0.3262503910       -1.6963875832        3.3230400087
  53
        -68.44406001
 C          6.4266168549        1.9659626937       -0.9267416712
 C          4.9083886901        2.0076536607       -0.7961411395
 C          4.3954727172        1.3952017237        0.5081203883
 C          4.6417740368       -0.1066385993        0.6534880707
 C          3.8274642599       -0.9618700965       -0.3274751161
 C          2.3511344125       -0.8083396069       -0.0994967929
 C          1.7439249523       -1.4464663961        0.9748707230
 C          0.3862719009       -1.3009465127        1.2112943650
 C         -0.4076229536       -0.5180933429        0.3695694598
 C         -1.8927441664       -0.4081377109        0.5750807290
 C         -2.5970537845       -1.7293868158        0.7069330095
 C         -3.9231259383       -1.7220175147        0.7341276352
 C         -4.6121728906       -0.3857582161        0.7113600232
 C         -4.0273771304        0.5597089137       -0.3589963956
 C         -2.5455701484        0.2826637614       -0.6349309632
 C         -1.7172569769        1.5014402759       -1.0726926740
 O         -0.4323163587        1.0309205846       -1.4949917681
 C          0.2191347559        0.1711640716       -0.6671909363
 C          1.5826753060        0.0087958883       -0.9062526622
 C         -2.3208321105        2.1652749252       -2.3111010388
 C         -1.5205790604        2.5366244022        0.0396825791
 C         -4.7741857574       -2.9486021442        0.8124570537
 O         -0.2091155648       -1.9096321643        2.2798532408
 H          6.8961830176        2.4354281597       -0.0645735741
 H          6.7871124761        0.9430834496       -1.0001162977
 H          6.7430835112        2.4985353583       -1.8210395493
 H          4.5810161145        3.0496162675       -0.8323486422
 H          4.4575009658        1.4974903946       -1.6481531087
 H          3.3212205256        1.5784070218        0.5835738707
 H          4.8790208204        1.9070974831        1.3444043950
 H          5.7026163242       -0.3228167906        0.5177332551
 H          4.3748229468       -0.3992192860        1.6718911660
 H          4.0740131256       -0.6831323513       -1.3518026780
 H          4.1088545465       -2.0086223626       -0.1870402311
 H          2.3341073317       -2.0687928179        1.6357931273
 H         -2.0903567916        0.1803029681        1.4820810690
 H         -2.0188169843       -2.6375038836        0.7188370568
 H         -5.6838314910       -0.5061439274        0.5480793627
 H         -4.4815478233        0.0779460657        1.6946458958
 H         -4.1676929858        1.5882589796       -0.0237525895
 H         -4.5882340386        0.4401796768       -1.2868760011
 H         -2.4775197116       -0.4308938646       -1.4664198494
 H          2.0182766124        0.5448837176       -1.7342486716
 H         -1.6221788838        2.9011906174       -2.7004641147
 H         -2.5006739013        1.4218050421       -3.0831352639
 H         -3.2558582232        2.6577073982       -2.0636285138
 H         -0.9834746437        3.3943813187       -0.3588044405
 H         -2.4759289339        2.8740799080        0.4304562262
 H         -0.9330940827        2.1162758072        0.8520897379
 H         -5.4125054531       -2.9114866307        1.6952924208
 H         -5.4212978082       -3.0163636862       -0.0623843916
 H         -4.1591604473       -3.8432363884        0.8629066008
 H          0.4560871529       -2.4074915833        2.7695923124
  53
        -68.44404253
 C          6.7527553843       -1.1263187991       -0.4652166397
 C          5.2753479424       -1.4378481880       -0.2559042253
 C          4.3515505197       -0.6251973754       -1.1649291438
 C          4.3440896056        0.8796957159       -0.8949448638
 C          3.7215151892        1.2602589029        0.4554552817
 C          2.2760842805        0.8590135411        0.5233084250
 C          1.8774444090       -0.2677475482        1.2290536794
 C          0.5480121984       -0.6630259663        1.2418698773
 C         -0.4196341206        0.0546952169        0.5366004874
 C         -1.8512521185       -0.4014679029        0.4898345418
 C         -2.0281927572       -1.8400102286        0.0918196575
 C         -3.2632154585       -2.2737309927       -0.1224598574
 C         -4.3914973801       -1.3119056422        0.1278434637
 C         -4.1272379415        0.0783000895       -0.4877926403
 C         -2.6328159803        0.4108950534       -0.5573286337
 C         -2.2839436306        1.9043675406       -0.4515992652
 O         -0.8917183604        2.0528341008       -0.7526615153
 C         -0.0241453413        1.2237896553       -0.1132699037
 C          1.3146804837        1.6064267310       -0.1320978089
 C         -3.0084133968        2.7194439702       -1.5237404546
 C         -2.5534987832        2.4966961506        0.9354815856
 C         -3.6079317808       -3.6582596230       -0.5687733782
 O          0.1498331631       -1.7583815640        1.9549685064
 H          7.0247363799       -1.2585363345       -1.5103544319
 H          6.9829817683       -0.1039646797       -0.1767238762
 H          7.3683852848       -1.7923907158        0.1356774713
 H          5.1075610177       -2.4982192986       -0.4612285833
 H          5.0152802573       -1.2647336882        0.7894172835
 H          3.3309138990       -0.9999873925       -1.0584864454
 H          4.6565748735       -0.7891386553       -2.2016078494
 H          5.3622215544        1.2694583600       -0.9403726137
 H          3.7686012659        1.3651436521       -1.6860720168
 H          4.2791752917        0.7896048330        1.2659005473
 H          3.8018216279        2.3428733655        0.5774618265
 H          2.6061277194       -0.8488786375        1.7797314764
 H         -2.3088842356       -0.2584213602        1.4788030193
 H         -1.1590492224       -2.4568160149       -0.0610790592
 H         -5.3314507024       -1.7102506410       -0.2561283057
 H         -4.5033035607       -1.1977075013        1.2110858506
 H         -4.6574025482        0.8242426646        0.1058588849
 H         -4.5435041097        0.1083019163       -1.4955628363
 H         -2.2538517739        0.0906890886       -1.5366214045
 H          1.5791114550        2.5078146358       -0.6620182480
 H         -4.0727336522        2.7644094175       -1.3158499789
 H         -2.6053513672        3.7286624812       -1.5408452212
 H         -2.8528750605        2.2720010384       -2.5018737033
 H         -3.5881256673        2.3455081707        1.2287035304
 H         -1.9034811971        2.0401874009        1.6776785468
 H         -2.3483602221        3.5646267566        0.9161147378
 H         -2.7121301271       -4.2643700729       -0.6753988069
 H         -4.2704922134       -4.1355008516        0.1533815140
 H         -4.1276344641       -3.6283459467       -1.5267539372
 H          0.9175560142       -2.1464457380        2.3911452079
  53
        -68.44402364
 C          3.1240552003        0.1035904584       -3.0226298062
 C          3.4069350237       -0.3230041660       -1.5870284571
 C          4.4681652075        0.5643522461       -0.9382697974
 C          4.7246791682        0.2317980751        0.5351275780
 C          3.8268051356        1.0090282024        1.5095513876
 C          2.3704776158        0.6883367200        1.3387974190
 C          1.8650466121       -0.5142421985        1.8039140643
 C          0.5266745924       -0.8560025084        1.6291860356
 C         -0.3355695144        0.0392295866        1.0045199182
 C         -1.8150129018       -0.1044411334        0.7231992868
 C         -2.5098594417       -1.3296684160        1.2297587324
 C         -3.2221624832       -2.1554488356        0.4712733705
 C         -3.3943987868       -1.9081587535       -1.0021126358
 C         -3.2678747618       -0.4174071874       -1.3135105543
 C         -1.9177973546        0.0713609988       -0.8024333296
 C         -1.5671686458        1.5359288428       -1.1422652996
 O         -0.6100394288        2.0805236007       -0.2118903456
 C          0.1966354801        1.2172228921        0.4705024863
 C          1.5280630415        1.5546586047        0.6563674845
 C         -0.9332204431        1.6111854682       -2.5369705009
 C         -2.7734242296        2.4736877185       -1.0662800167
 C         -3.9169090562       -3.3603844042        1.0257679207
 O          0.1414433692       -2.0799881233        2.0837642892
 H          2.3841122180       -0.5501229539       -3.4798652621
 H          2.7445984299        1.1231948632       -3.0475589194
 H          4.0318171383        0.0633837780       -3.6215199825
 H          2.4851510164       -0.2760994614       -1.0069716047
 H          3.7532081221       -1.3593613491       -1.5777951435
 H          4.1642169883        1.6093902353       -1.0248575079
 H          5.3993532612        0.4487254179       -1.4992482780
 H          4.5863338567       -0.8392284141        0.6930556800
 H          5.7621454879        0.4715501810        0.7803286388
 H          4.1320410984        0.7598363214        2.5287298679
 H          3.9855868348        2.0786770292        1.3604392700
 H          2.5025181744       -1.2240804571        2.3070386977
 H         -2.3034231333        0.7598998526        1.2024634819
 H         -2.4938896513       -1.4630250531        2.3058464911
 H         -2.6402468076       -2.4701161432       -1.5625890608
 H         -4.3732974377       -2.2751003315       -1.3184985243
 H         -4.0778559980        0.1175234616       -0.8163408017
 H         -3.3522800819       -0.2526560618       -2.3889900329
 H         -1.1479394287       -0.5661872597       -1.2566439359
 H          1.8908040337        2.4860292816        0.2516223682
 H         -0.0018153375        1.0486306515       -2.5514076722
 H         -1.6067514230        1.2008088294       -3.2845515187
 H         -0.7140162197        2.6459473501       -2.7869679360
 H         -3.2944807295        2.3583056683       -0.1192465169
 H         -2.4181074850        3.4986802294       -1.1334647385
 H         -3.4633407429        2.2836832029       -1.8823767268
 H         -3.6046303359       -4.2543307683        0.4862545015
 H         -3.6970460309       -3.4937318765        2.0821530479
 H         -4.9957065141       -3.2629313723        0.9051089258
 H         -0.7763152354       -2.2442198168        1.8203211317
  53
        -68.44398909
 C          6.9414435009       -0.1058351884        0.8220341039
 C          5.4838873105       -0.4075498379        1.1507729451
 C          4.5571233249        0.7919494683        0.9445238837
 C          4.4046729524        1.2438623234       -0.5081174772
 C          3.6550299332        0.2369779636       -1.3915308891
 C          2.2435863845        0.0332187293       -0.9204910820
 C          1.8883349453       -1.0906672882       -0.1875216856
 C          0.5865769618       -1.2640730864        0.2587671505
 C         -0.4010527289       -0.3200056210       -0.0281402200
 C         -1.8300845199       -0.5323459655        0.3876131255
 C         -2.3954195817       -1.8676863568       -0.0080002979
 C         -3.6922487716       -2.0703113282        0.1828958159
 C         -4.4761298382       -0.9766150264        0.8538403344
 C         -4.1651435578        0.4158574126        0.2657607268
 C         -2.7386315410        0.5106418225       -0.2863319295
 C         -2.0982557559        1.9066701944       -0.2220481669
 O         -0.8759356007        1.8645003475       -0.9669961595
 C         -0.0229725768        0.8377706872       -0.7079486118
 C          1.2832970737        0.9984052063       -1.1628744985
 C         -2.9616351562        2.9453172969       -0.9393537336
 C         -1.7889338086        2.3703791733        1.2051648930
 C         -4.4182074314       -3.3199503627       -0.1996320435
 O          0.2410055325       -2.3575618695        1.0016370732
 H          7.5693807711       -0.9589881329        1.0700402573
 H          7.0687419553        0.1091332657       -0.2357836556
 H          7.2897797465        0.7529538245        1.3920560331
 H          5.1447888478       -1.2485999608        0.5441537559
 H          5.4163331527       -0.7136447893        2.1979016773
 H          4.9436309875        1.6304986453        1.5294002268
 H          3.5669303801        0.5462558268        1.3353379173
 H          3.8513155041        2.1853281246       -0.5162435636
 H          5.3875960130        1.4350494895       -0.9414743080
 H          3.6402833804        0.6219513367       -2.4137386731
 H          4.1868297063       -0.7150807590       -1.3999215047
 H          2.6296145286       -1.8458032744        0.0410320968
 H         -1.9084801595       -0.4339789172        1.4794605608
 H         -1.7556050282       -2.5931682935       -0.4807564890
 H         -5.5471165747       -1.1719416202        0.7872201390
 H         -4.2099995606       -0.9737096015        1.9159636435
 H         -4.3233448075        1.1621575929        1.0454880060
 H         -4.8704004706        0.6303707919       -0.5382169490
 H         -2.7637468853        0.2493730219       -1.3522866007
 H          1.5260809254        1.8982053485       -1.7057027606
 H         -3.2168435064        2.5947965082       -1.9359011916
 H         -3.8735555560        3.1352519372       -0.3822733291
 H         -2.4025278584        3.8724016819       -1.0352421025
 H         -2.6831073001        2.3564139171        1.8212294479
 H         -1.0350952462        1.7316701933        1.6585434778
 H         -1.4003139157        3.3858190742        1.1764631065
 H         -5.2015815294       -3.0953887082       -0.9239455083
 H         -3.7361270881       -4.0452034290       -0.6354837314
 H         -4.8925599050       -3.7657367691        0.6747284993
 H          1.0193603646       -2.9137797153        1.1243393282
  53
        -68.44398550
 C          4.8283742037       -1.3826938806       -2.3477200673
 C          5.0948958707        0.1087440541       -2.1796780001
 C          4.2241956521        0.7564232995       -1.1027077411
 C          4.5622381740        0.2855012246        0.3091607306
 C          3.7199338189        1.0044010572        1.3709951151
 C          2.2602453044        0.6798320175        1.2270877541
 C          1.7817150223       -0.5543570860        1.6333154464
 C          0.4382639423       -0.8934066060        1.4976788476
 C         -0.4565453145        0.0354234138        0.9762435731
 C         -1.9510455913       -0.0928075709        0.7776715351
 C         -2.6144501752       -1.3535708324        1.2375101071
 C         -3.3741233056       -2.1253509564        0.4682382773
 C         -3.6393583995       -1.7729393544       -0.9694959822
 C         -3.5330502636       -0.2628461306       -1.1781472619
 C         -2.1525178324        0.1933127635       -0.7210037461
 C         -1.8261208105        1.6799933082       -0.9746890722
 O         -0.7896734910        2.1528969358       -0.0917895794
 C          0.0473164058        1.2455185855        0.4887058134
 C          1.3868260696        1.5754649989        0.6278560303
 C         -1.3135610935        1.8676310274       -2.4083134555
 C         -3.0189245846        2.6054123700       -0.7255613067
 C         -4.0339671743       -3.3692051323        0.9776327100
 O          0.0797588519       -2.1470842723        1.8896498310
 H          5.1088173683       -1.9333990842       -1.4539424516
 H          3.7727502242       -1.5594991888       -2.5428669513
 H          5.4031923054       -1.7779642997       -3.1825574796
 H          6.1485166683        0.2638653853       -1.9349911840
 H          4.9009009132        0.6096326073       -3.1314998000
 H          3.1736063348        0.5416716115       -1.3094741603
 H          4.3559170592        1.8404172081       -1.1513778240
 H          4.3858883237       -0.7873271304        0.3918649484
 H          5.6205711202        0.4719917038        0.5077817837
 H          4.0631029847        0.6935443127        2.3603188403
 H          3.8684831565        2.0819566790        1.2807589354
 H          2.4422062333       -1.2888912783        2.0666970033
 H         -2.4067933065        0.7320437870        1.3497161146
 H         -2.5315580922       -1.5633330798        2.2981784075
 H         -2.9222211101       -2.2888600831       -1.6161666527
 H         -4.6362980707       -2.1205120089       -1.2492471287
 H         -4.3086104665        0.2304817880       -0.5911778362
 H         -3.6876078531       -0.0199312550       -2.2307503336
 H         -1.4133997059       -0.4049713011       -1.2697737409
 H          1.7284980965        2.5318600945        0.2651864784
 H         -0.3900844838        1.3092683091       -2.5484611514
 H         -2.0509905816        1.5189289070       -3.1262089586
 H         -1.1095604968        2.9192511923       -2.5912799560
 H         -2.6660543963        3.6333500953       -0.7386025985
 H         -3.7731104218        2.4800351340       -1.4960587603
 H         -3.4629683869        2.4131162835        0.2478577921
 H         -3.7476074857       -3.5773896098        2.0056137977
 H         -5.1181368985       -3.2668498711        0.9329416599
 H         -3.7577477057       -4.2210860034        0.3565297060
 H         -0.8489508339       -2.3000999247        1.6603956303
  53
        -68.44398379
 C          4.8125718750       -1.3554337421       -2.3728272936
 C          5.0962157596        0.1299438764       -2.1810755279
 C          4.2291566823        0.7717397913       -1.0976323358
 C          4.5607994233        0.2805554520        0.3088220257
 C          3.7209617783        0.9913056071        1.3781508169
 C          2.2605868003        0.6707268685        1.2327669102
 C          1.7780491407       -0.5612179721        1.6409913320
 C          0.4338002155       -0.8967845014        1.5043313555
 C         -0.4573624882        0.0331882132        0.9787687272
 C         -1.9518216522       -0.0912206180        0.7776932475
 C         -2.6201830631       -1.3477616894        1.2418332384
 C         -3.3810504757       -2.1203266365        0.4745221600
 C         -3.6420470946       -1.7735610423       -0.9653621672
 C         -3.5300992036       -0.2648105954       -1.1808022229
 C         -2.1490814686        0.1888639820       -0.7226555567
 C         -1.8169447532        1.6733591840       -0.9821502866
 O         -0.7829981374        2.1476054682       -0.0969751826
 C          0.0507967802        1.2403507916        0.4884263705
 C          1.3907708122        1.5673076115        0.6296513914
 C         -1.2977983628        1.8522660508       -2.4145059209
 C         -3.0078714091        2.6036554757       -0.7426330100
 C         -4.0462260501       -3.3595624840        0.9881893164
 O          0.0708028567       -2.1481677826        1.8994455037
 H          5.3882980695       -1.7457043460       -3.2094058537
 H          5.0797233479       -1.9225028662       -1.4852269537
 H          3.7562474776       -1.5160816163       -2.5778479875
 H          6.1506205990        0.2686316934       -1.9301205666
 H          4.9119977914        0.6473326557       -3.1259678528
 H          3.1772292795        0.5684278124       -1.3089308586
 H          4.3702306149        1.8551247708       -1.1325007108
 H          4.3773869313       -0.7921037343        0.3777743728
 H          5.6198943673        0.4577078275        0.5118697742
 H          4.0644653191        0.6705548190        2.3641529084
 H          3.8716744111        2.0693235512        1.2975475562
 H          2.4359592741       -1.2964818935        2.0770966708
 H         -2.4062010317        0.7376958227        1.3449353432
 H         -2.5397494099       -1.5531982518        2.3035334991
 H         -2.9253367430       -2.2949590815       -1.6081108857
 H         -4.6395743916       -2.1189832868       -1.2456771712
 H         -4.3053256252        0.2338797931       -0.5979461886
 H         -3.6814172025       -0.0263299671       -2.2348892215
 H         -1.4108057627       -0.4144119077       -1.2670499667
 H          1.7358300750        2.5217290311        0.2650064300
 H         -0.3753202370        1.2905729965       -2.5477811445
 H         -2.0331483946        1.5018541237       -3.1337238307
 H         -1.0900185088        2.9023419437       -2.6020569905
 H         -3.4561783106        2.4177062821        0.2300542377
 H         -2.6518404404        3.6304436034       -0.7596160314
 H         -3.7594476133        2.4765054761       -1.5153890577
 H         -3.7630209739       -3.5637986838        2.0178309432
 H         -5.1299318524       -3.2538017180        0.9404760470
 H         -3.7714385893       -4.2153187063        0.3717957678
 H         -0.8582085904       -2.2987230636        1.6696921962
  53
        -68.44397449
 C          6.3866343104       -0.1524725100       -2.2887929187
 C          4.8726131106       -0.3305314094       -2.2767717206
 C          4.1771651661        0.4842779679       -1.1858750102
 C          4.4983051784        0.0000395234        0.2255609405
 C          3.7058315252        0.7683366524        1.2918738497
 C          2.2296575859        0.5158335645        1.1765814580
 C          1.6948895993       -0.6817972244        1.6203242120
 C          0.3338301403       -0.9541642961        1.5126565982
 C         -0.5198877762        0.0061738474        0.9796104517
 C         -2.0215709812       -0.0500917842        0.8036044414
 C         -2.7422080031       -1.2621115914        1.3063347486
 C         -3.5515525900       -2.0136518492        0.5683178437
 C         -3.8183214666       -1.6867599435       -0.8751192262
 C         -3.6371745107       -0.1904442319       -1.1268713281
 C         -2.2287665770        0.2057083240       -0.6997348811
 C         -1.8297550446        1.6661947411       -0.9983066843
 O         -0.7607019381        2.1095505498       -0.1391803256
 C          0.0377017999        1.1761799614        0.4543050321
 C          1.3940492142        1.4407111745        0.5675718456
 C         -1.3247291588        1.7875103756       -2.4417016798
 C         -2.9705905179        2.6583640099       -0.7632997412
 C         -4.2676641431       -3.2072281951        1.1201842702
 O         -0.0828005841       -2.1772108412        1.9419881448
 H          6.8233333474       -0.6860457921       -3.1302529809
 H          6.6445323947        0.9005790119       -2.3803141852
 H          6.8329543068       -0.5385565092       -1.3762370112
 H          4.4755168817       -0.0225237971       -3.2473030385
 H          4.6326049171       -1.3879286835       -2.1433708195
 H          3.0969139858        0.4217359705       -1.3358394315
 H          4.4653414132        1.5338821126       -1.2826355805
 H          4.2619689009       -1.0632645448        0.3031318354
 H          5.5634393053        0.1261194587        0.4266588347
 H          4.0493854991        0.4510474136        2.2789664626
 H          3.9063617396        1.8360772988        1.1871250731
 H          2.3238678161       -1.4385118387        2.0623379470
 H         -2.4263760524        0.8123776693        1.3582207943
 H         -2.6548445525       -1.4476230533        2.3711627270
 H         -3.1377404518       -2.2564250963       -1.5161405570
 H         -4.8356381955       -1.9895319848       -1.1327135748
 H         -4.3782854898        0.3580725529       -0.5443869872
 H         -3.7934148416        0.0314779810       -2.1838406040
 H         -1.5289764801       -0.4446695062       -1.2407081949
 H          1.7784796698        2.3696368134        0.1771872325
 H         -1.0689549977        2.8216929289       -2.6563674594
 H         -0.4329701343        1.1782489188       -2.5752332137
 H         -2.0873543958        1.4576471442       -3.1419689726
 H         -3.7393947528        2.5504535152       -1.5218989847
 H         -3.4120637185        2.5163342798        0.2198571220
 H         -2.5658411004        3.6660348233       -0.8093070634
 H         -3.9779869403       -3.4023233467        2.1497980983
 H         -5.3456037223       -3.0496623953        1.0864809651
 H         -4.0448033581       -4.0887788150        0.5193984472
 H         -1.0216122756       -2.2873956207        1.7297825733
  53
        -68.44393480
 C          3.4381280996       -1.8411493312       -1.1374559730
 C          3.7533632026       -0.4333421160       -1.6278299231
 C          4.9615765976        0.1963081638       -0.9328037003
 C          4.8364389936        0.3852352560        0.5797852687
 C          3.8188180552        1.4521809355        1.0073462717
 C          2.3882477204        1.0059531399        0.9002555223
 C          1.9257245192       -0.0482236425        1.6785983761
 C          0.6191626705       -0.4953559708        1.5628650388
 C         -0.2644811562        0.1002461816        0.6601443880
 C         -1.6591473810       -0.4261667523        0.4705433576
 C         -1.7268143464       -1.9033560245        0.2011326193
 C         -2.9032143728       -2.4161605049       -0.1340780499
 C         -4.0898173823       -1.4925014432       -0.1376113875
 C         -3.7931982320       -0.1537703347       -0.8460588786
 C         -2.3157767968        0.2415048210       -0.7501006431
 C         -2.0346831027        1.7529442544       -0.7546154645
 O         -0.6198404979        1.9359345860       -0.8820795001
 C          0.1785433871        1.2132740031       -0.0521946268
 C          1.4987203930        1.6467348664        0.0581804354
 C         -2.6323391871        2.4238409611       -1.9920532207
 C         -2.5107873843        2.4654639131        0.5154035847
 C         -3.1318954691       -3.8522987835       -0.4806365107
 O          0.1562766204       -1.5211880314        2.3376079932
 H          2.6639564281       -2.2881965329       -1.7569344997
 H          4.3234699563       -2.4728579991       -1.1833633788
 H          3.0744379607       -1.8209378939       -0.1136906790
 H          3.9688734008       -0.4736040357       -2.6988921150
 H          2.8759364234        0.1976070109       -1.4900208836
 H          5.1577047882        1.1693339373       -1.3907540287
 H          5.8351006168       -0.4348806976       -1.1220436157
 H          4.5893564001       -0.5668434849        1.0492762534
 H          5.8173631897        0.6886515956        0.9560985058
 H          4.0204881902        1.7127429590        2.0508708658
 H          3.9677809804        2.3502282127        0.4055544246
 H          2.5879590949       -0.5270326964        2.3892711335
 H         -2.2539867632       -0.2111764363        1.3693236976
 H         -0.8227699871       -2.4875328832        0.2307221220
 H         -4.9509474162       -1.9716747857       -0.6050342027
 H         -4.3574596314       -1.2839366949        0.9034727219
 H         -4.4244733057        0.6175262065       -0.4027043774
 H         -4.0699162618       -0.2362958552       -1.8979242256
 H         -1.7953252218       -0.1552012781       -1.6315719537
 H          1.8045054137        2.4969291371       -0.5314427346
 H         -2.2649943316        3.4445169008       -2.0597309765
 H         -2.3292962901        1.8905784077       -2.8892307756
 H         -3.7160199179        2.4384272218       -1.9331135060
 H         -3.5708216472        2.2976980286        0.6810750554
 H         -1.9556759011        2.1133139801        1.3812038663
 H         -2.3380075800        3.5344393587        0.4135658972
 H         -3.8720516501       -4.2908184385        0.1887564550
 H         -3.5121763978       -3.9397020115       -1.4986860140
 H         -2.2088671548       -4.4206422704       -0.4019642704
 H          0.8652577959       -1.8254042750        2.9163852579
  53
        -68.44391336
 C          6.0635785764       -1.2954031541        0.4810852076
 C          5.6569561785       -1.3318291734       -0.9868563863
 C          4.3128397888       -0.6619905471       -1.2795594646
 C          4.2923333612        0.8519601944       -1.0355589992
 C          3.7325552813        1.2525171247        0.3375917069
 C          2.2882757535        0.8653304231        0.4705102821
 C          1.9105204078       -0.2229586284        1.2401142940
 C          0.5795452047       -0.6113471971        1.3156962789
 C         -0.4069138682        0.0652418203        0.5946512432
 C         -1.8496371970       -0.3850413283        0.5808330326
 C         -2.0426100678       -1.8358561083        0.2068909238
 C         -3.1692311183       -2.2850782766       -0.3296303750
 C         -4.3378975306       -1.3927628963       -0.6499031888
 C         -4.1292809865        0.0691575475       -0.2418392796
 C         -2.6609165625        0.4352574456       -0.4297355433
 C         -2.2975759467        1.9243593701       -0.3470384821
 O         -0.9198322665        2.0466831861       -0.7144453013
 C         -0.0311772440        1.2196370683       -0.0966568148
 C          1.3050641890        1.5961846743       -0.1744974236
 C         -3.0536208686        2.7511853315       -1.3885604998
 C         -2.5102486893        2.5250993101        1.0462775731
 C         -3.3565575503       -3.7251219576       -0.7007061039
 O          0.2943228045       -1.6637813006        2.1385886499
 H          6.2681127950       -0.2781537861        0.8042416993
 H          5.2742423427       -1.7097948447        1.1042599827
 H          6.9654709684       -1.8846725641        0.6358886611
 H          6.4348273929       -0.8534811155       -1.5877203630
 H          5.5933221022       -2.3753509063       -1.3062634751
 H          3.5325000535       -1.1341222823       -0.6803942900
 H          4.0731461667       -0.8516752730       -2.3285922069
 H          5.3035268489        1.2515624164       -1.1397280902
 H          3.6718752736        1.3274653994       -1.7977912588
 H          4.3103641769        0.7795955917        1.1301115278
 H          3.8274050903        2.3360155306        0.4443248840
 H          2.6341309354       -0.7846430991        1.8096490284
 H         -2.2817042197       -0.2279291809        1.5842914910
 H         -1.2170194424       -2.5175176244        0.3532076293
 H         -4.5032740389       -1.4469436026       -1.7313619342
 H         -5.2397332531       -1.7883630987       -0.1743209582
 H         -4.4098552412        0.2060937891        0.8045373618
 H         -4.7742848247        0.7060613345       -0.8473679947
 H         -2.3552630578        0.1134922685       -1.4338662999
 H          1.5503825103        2.4824283370       -0.7381100324
 H         -2.5749056505        3.7225841334       -1.4795977627
 H         -3.0207588934        2.2613959664       -2.3582021507
 H         -4.0873844708        2.8947892266       -1.0900850545
 H         -3.5372424375        2.3795851110        1.3690354487
 H         -1.8375194956        2.0711604835        1.7697646291
 H         -2.2993023207        3.5914271395        1.0145589080
 H         -3.5722418821       -3.8168342184       -1.7648834243
 H         -2.4673480505       -4.3074433131       -0.4744300526
 H         -4.1999919259       -4.1493555321       -0.1561204892
 H         -0.6597241836       -1.7938686267        2.1853886374
  53
        -68.44388597
 C          3.4864656628        1.0056667496        2.3371129713
 C          3.7764820606        1.8616604499        1.1102500597
 C          5.0041030586        1.4003417222        0.3231501606
 C          4.9371754219       -0.0162663568       -0.2499147194
 C          3.9274917104       -0.1978297212       -1.3924563032
 C          2.4993191414       -0.2912430574       -0.9353187319
 C          2.0906204207       -1.3501546883       -0.1339360271
 C          0.7773380974       -1.4484788407        0.2980019454
 C         -0.1729688269       -0.4950485788       -0.0740442468
 C         -1.6117755875       -0.6219565355        0.3421208414
 C         -2.2266521195       -1.9604344617        0.0429085880
 C         -3.5313748779       -2.0976254399        0.2383980143
 C         -4.2751258263       -0.9274498345        0.8202321469
 C         -3.9061999749        0.4052109582        0.1347718922
 C         -2.4759431601        0.4012191014       -0.4152701452
 C         -1.7800045087        1.7713179829       -0.4548241513
 O         -0.5598946761        1.6218002834       -1.1897947925
 C          0.2529321591        0.5900900692       -0.8382414343
 C          1.5717818156        0.6733292395       -1.2812139804
 C         -2.5997892305        2.7863605667       -1.2522588470
 C         -1.4514729624        2.3293816898        0.9337961732
 C         -4.3038088410       -3.3434984607       -0.0548902512
 O          0.3813302770       -2.4734337169        1.1100070444
 H          3.1488720725        0.0147924421        2.0454339855
 H          4.3759721770        0.9057097603        2.9564747946
 H          2.7012931751        1.4624562193        2.9355672935
 H          2.9006103321        1.8652355563        0.4624662523
 H          3.9558722159        2.8907766473        1.4329957781
 H          5.8754819503        1.4549841782        0.9826059025
 H          5.1731636589        2.1014090776       -0.4983255392
 H          5.9297096705       -0.2598117037       -0.6390232140
 H          4.7193863439       -0.7251755019        0.5488185797
 H          4.0324123725        0.6285823866       -2.0973043085
 H          4.1787652885       -1.1218715070       -1.9218490094
 H          2.8009097660       -2.1145408211        0.1560311532
 H         -1.6924925585       -0.4388759729        1.4228319051
 H         -1.6135560604       -2.7435495170       -0.3694568179
 H         -5.3525814920       -1.0853604365        0.7588410947
 H         -4.0153552205       -0.8569971570        1.8816197983
 H         -4.0348758124        1.2118197237        0.8578413313
 H         -4.6003709299        0.5897981790       -0.6861316419
 H         -2.5090264477        0.0601970416       -1.4582265292
 H          1.8495391040        1.5201432524       -1.8894941451
 H         -2.0033077797        3.6799097511       -1.4167389179
 H         -2.8690046020        2.3714267499       -2.2199772893
 H         -3.5032212335        3.0551971576       -0.7141752314
 H         -1.0239301494        3.3240083043        0.8292784667
 H         -2.3449106441        2.3963818911        1.5474556896
 H         -0.7221458474        1.6982650911        1.4355028316
 H         -3.6488702099       -4.1249209146       -0.4312702254
 H         -4.7981581704       -3.7043860239        0.8471518035
 H         -5.0754008908       -3.1437287790       -0.7988600274
 H          1.1355562124       -3.0488907463        1.2838484156
  53
        -68.44387620
 C          7.9310173043       -0.2458104551       -0.9287961139
 C          6.4690265541       -0.4926626872       -0.5762275865
 C          5.5434329644        0.4748994004       -1.3107478948
 C          4.0594784939        0.1959903352       -1.0746838903
 C          3.6112786394        0.4764480187        0.3647589319
 C          2.1296341056        0.2734238757        0.4994745555
 C          1.6197652238       -0.9742022007        0.8132567199
 C          0.2483163723       -1.1914965345        0.9213997772
 C         -0.6324592549       -0.1296797508        0.7450178433
 C         -2.1412198114       -0.1188725299        0.8586765965
 C         -2.8232903268       -1.3882796605        1.2643419470
 C         -3.7985470196       -1.9695602802        0.5747667339
 C         -4.3127283681       -1.3700064040       -0.7049355009
 C         -4.0968185602        0.1427659242       -0.7109592251
 C         -2.6128041803        0.4210755695       -0.5030536835
 C         -2.1944297451        1.9027995048       -0.6034880641
 O         -0.9549428815        2.1514161414        0.0888265601
 C         -0.1160353333        1.1052979618        0.3384894671
 C          1.2502370052        1.3131024786        0.2329019107
 C         -1.9720475131        2.2869951627       -2.0718388544
 C         -3.2085470058        2.8555264555        0.0331913182
 C         -4.4652046230       -3.2306788980        1.0299421803
 O         -0.1508552033       -2.4641617327        1.1944021149
 H          8.0946405101       -0.3761669260       -1.9965789598
 H          8.2215274795        0.7678718384       -0.6606945810
 H          8.5769835915       -0.9398390387       -0.3958539648
 H          6.2001194190       -1.5178562148       -0.8411866234
 H          6.3399711371       -0.3815385792        0.5015086899
 H          5.7443242358        0.4022580470       -2.3828884319
 H          5.7726329099        1.4977614125       -1.0020515784
 H          3.4696441052        0.8237457416       -1.7469650215
 H          3.8396394920       -0.8454980373       -1.3194188866
 H          4.1332813046       -0.1936989529        1.0480702372
 H          3.8682702870        1.5054063614        0.6238305135
 H          2.2753926678       -1.8140894685        0.9813578360
 H         -2.3838608262        0.6313112468        1.6291634313
 H         -2.5483854582       -1.7733571740        2.2400467814
 H         -3.7984780444       -1.8221264996       -1.5591830015
 H         -5.3759616956       -1.5971615870       -0.8093844561
 H         -4.6820117378        0.5864839670        0.0953305010
 H         -4.4365083975        0.5642542332       -1.6584788825
 H         -2.0657100470       -0.1293639505       -1.2795702789
 H          1.6099969747        2.2889001510       -0.0527815687
 H         -1.7026437951        3.3376001772       -2.1403687771
 H         -1.1602428974        1.6958279402       -2.4909565471
 H         -2.8737788036        2.1132597177       -2.6527324351
 H         -4.1139068269        2.9111400702       -0.5629807439
 H         -3.4603632669        2.5373681075        1.0416817108
 H         -2.7618667334        3.8446071791        0.0927719906
 H         -4.4105655455       -3.9869267486        0.2471049031
 H         -3.9983871810       -3.6233474044        1.9299298730
 H         -5.5193189588       -3.0468789461        1.2371950816
 H         -1.1174220238       -2.5122509689        1.1492646203
  53
        -68.44387188
 C          6.2896716456        1.6769461662       -2.7624837632
 C          5.7102057766        0.4364757925       -2.0935327215
 C          5.0411435430        0.7691111033       -0.7620727565
 C          4.4739200440       -0.4756506561       -0.0815122124
 C          3.7322112417       -0.1619714223        1.2277888111
 C          2.2323830485       -0.1409347682        1.1006463918
 C          1.4479493540       -0.6776082266        2.1129607432
 C          0.0635145920       -0.6788440704        2.0284559391
 C         -0.5891283376       -0.1620395303        0.9064179670
 C         -2.0901420147       -0.1897744577        0.7443462396
 C         -2.7311666831       -1.5161159575        1.0562611366
 C         -3.8420783352       -1.9377668497        0.4695830004
 C         -4.5519438300       -1.1541839761       -0.6022746166
 C         -3.9866497526        0.2552748845       -0.7793417733
 C         -2.4658761662        0.1844181224       -0.6929589479
 C         -1.6912459994        1.4261108748       -1.1549296329
 O         -0.2991898728        1.0901282158       -1.1572456444
 C          0.2021382722        0.4465450873       -0.0694486948
 C          1.5926283196        0.4373102731        0.0212052545
 C         -2.0043725813        1.7860117233       -2.6089753051
 C         -1.9136509531        2.6490088282       -0.2593547541
 C         -4.4735374779       -3.2552199281        0.8088932880
 O         -0.6816318944       -1.1774032878        3.0613487103
 H          7.0373781752        2.1414890553       -2.1229569256
 H          6.7601231603        1.4189897495       -3.7085360882
 H          5.5060169328        2.4062160024       -2.9566903928
 H          4.9769108336       -0.0253357790       -2.7587038321
 H          6.5075169298       -0.2915124560       -1.9251434596
 H          4.2449702020        1.4955441567       -0.9338012299
 H          5.7740512089        1.2373715986       -0.0996585573
 H          3.7955748455       -0.9888574324       -0.7656431551
 H          5.3014244974       -1.1574738193        0.1278205997
 H          3.9990080871       -0.9020896329        1.9849498019
 H          4.0650431899        0.8109402677        1.6020151198
 H          1.9188333964       -1.1016948315        2.9914321847
 H         -2.5193536943        0.5454676283        1.4422308946
 H         -2.2631816592       -2.1136883417        1.8205449141
 H         -4.4604070569       -1.7050403083       -1.5452063796
 H         -5.6189748899       -1.1025586512       -0.3682371139
 H         -4.3694641273        0.9064394306        0.0088276663
 H         -4.3107951602        0.6580639307       -1.7394927033
 H         -2.1281965572       -0.6341041783       -1.3425125633
 H          2.1426774324        0.9054549971       -0.7772791036
 H         -2.9758973687        2.2637954610       -2.6869454531
 H         -1.2442803994        2.4729014295       -2.9720596699
 H         -1.9876059807        0.8958630830       -3.2323686779
 H         -1.3995324492        3.5074447612       -0.6857166771
 H         -2.9733984031        2.8749404837       -0.1841343536
 H         -1.5120005423        2.4749255479        0.7356457547
 H         -3.8831453288       -3.7917399137        1.5465784765
 H         -5.4760426690       -3.1029039406        1.2090616238
 H         -4.5653481582       -3.8734030354       -0.0841795828
 H         -0.0872419514       -1.4690642775        3.7629348150
  53
        -68.44387043
 C          7.7643402978        0.8953500180       -1.3072061427
 C          6.2649110276        0.9724364308       -1.0456480883
 C          5.6245056454       -0.4140640509       -1.0375971496
 C          4.1039154634       -0.3820825151       -0.8878448780
 C          3.6406059705        0.1089342395        0.4890422811
 C          2.1458803159        0.0188594826        0.6002086543
 C          1.5448395663       -1.1416944977        1.0550041674
 C          0.1595459634       -1.2543946820        1.1448700538
 C         -0.6424562449       -0.1705817899        0.8036127161
 C         -2.1493487542       -0.0482623329        0.8647167260
 C         -2.9258590806       -1.2071983033        1.4079339703
 C         -3.9209511397       -1.8101626616        0.7670225174
 C         -4.3614686633       -1.3517689921       -0.5958217510
 C         -4.0433758774        0.1302314909       -0.7897705378
 C         -2.5494933124        0.3377905254       -0.5702302333
 C         -2.0292197012        1.7637118897       -0.8470387199
 O         -0.7929492079        2.0207983448       -0.1520414645
 C         -0.0334480916        0.9648226804        0.2584913678
 C          1.3459921326        1.0690293614        0.1728333277
 C         -1.7455396740        1.9374130004       -2.3445156783
 C         -2.9916231165        2.8545482468       -0.3723202746
 C         -4.6826650228       -2.9554963775        1.3586810062
 O         -0.3316835081       -2.4519958994        1.5667128650
 H          8.2548353634        0.3016808272       -0.5386191293
 H          7.9613941548        0.4332482296       -2.2723984796
 H          8.2059639116        1.8893328601       -1.3064011656
 H          6.0966292487        1.4628970694       -0.0856028993
 H          5.7926012358        1.5818325957       -1.8197531385
 H          6.0551124756       -1.0054898339       -0.2259695303
 H          5.8706250607       -0.9164590761       -1.9768010320
 H          3.6741028097        0.2611520016       -1.6589812321
 H          3.7111825631       -1.3897710659       -1.0430292572
 H          4.1065755590       -0.5058198303        1.2614119902
 H          3.9534508811        1.1433536461        0.6337377881
 H          2.1374053710       -1.9928089946        1.3516665479
 H         -2.3593819404        0.8103733217        1.5234445055
 H         -2.7020907075       -1.4777730384        2.4338887936
 H         -3.8580351665       -1.9438312913       -1.3669349238
 H         -5.4347466384       -1.5221435004       -0.7055334646
 H         -4.6168858129        0.7122150618       -0.0674071392
 H         -4.3302548642        0.4449022335       -1.7945233543
 H         -2.0220205961       -0.3435102305       -1.2505772090
 H          1.7782915250        1.9737260269       -0.2244497323
 H         -1.4040902299        2.9506406017       -2.5389778826
 H         -0.9655774387        1.2458331912       -2.6568036509
 H         -2.6424963952        1.7471357723       -2.9276196277
 H         -2.4804310759        3.8122346580       -0.4258839306
 H         -3.8762200844        2.8896529039       -1.0003692593
 H         -3.2891744975        2.6878332362        0.6598339080
 H         -4.2660238098       -3.2558512523        2.3169448270
 H         -5.7267320558       -2.6791328820        1.5051142651
 H         -4.6599263533       -3.8097845691        0.6823430785
 H         -1.2978919132       -2.4435417366        1.4961344755
  53
        -68.44386000
 C          5.4444062834        1.6541698016       -1.8289663469
 C          5.4901388784        2.1015029382       -0.3732724833
 C          4.4565668826        1.4165394998        0.5231779170
 C          4.6724734640       -0.0909331273        0.7049489401
 C          3.8296391086       -0.9597520154       -0.2406981546
 C          2.3597618771       -0.7783682842        0.0062952114
 C          1.7727353853       -1.3014047143        1.1482898852
 C          0.4189787864       -1.1265851434        1.3939290749
 C         -0.3941716706       -0.4464251870        0.4824521529
 C         -1.8884538103       -0.3192393621        0.6703392150
 C         -2.5979809955       -1.6323519858        0.9032439810
 C         -3.8789755917       -1.8070239427        0.6074009012
 C         -4.7297094378       -0.7352766788       -0.0188680367
 C         -3.9954991969        0.5929494370       -0.2289312509
 C         -2.5366271274        0.3087630852       -0.5699566133
 C         -1.7011469096        1.4860344420       -1.0915333978
 O         -0.4333120369        0.9607624176       -1.4976562388
 C          0.2219564733        0.1557128859       -0.6155079037
 C          1.5796605594       -0.0318439807       -0.8586916381
 C         -2.3002815706        2.0864636244       -2.3645608318
 C         -1.4866818741        2.5879525196       -0.0488099285
 C         -4.5794833186       -3.1117496611        0.8386764218
 O         -0.0621030591       -1.6313207686        2.5684618317
 H          6.1213605758        2.2590191476       -2.4293752179
 H          5.7463030070        0.6148776942       -1.9275621825
 H          4.4394492619        1.7670500642       -2.2295882383
 H          6.4905387731        1.9191700726        0.0277275863
 H          5.3140028965        3.1797116630       -0.3329844037
 H          3.4557376139        1.5914883043        0.1247977743
 H          4.5025985826        1.8976680803        1.5031796281
 H          5.7288348413       -0.3278298890        0.5603607831
 H          4.4128482574       -0.3662004451        1.7289174074
 H          4.0553649106       -0.7128424077       -1.2769362650
 H          4.0957612493       -2.0064113468       -0.0727468457
 H          2.3529809365       -1.8515785097        1.8718146928
 H         -2.0845846309        0.3364766772        1.5362245282
 H         -2.0261988023       -2.4629703408        1.2914492458
 H         -5.0740337905       -1.1158545662       -0.9865420098
 H         -5.6230588615       -0.5758116327        0.5914416444
 H         -4.0482173752        1.1942240408        0.6810399864
 H         -4.4848681585        1.1508376726       -1.0274566785
 H         -2.5136573813       -0.4442546034       -1.3685109611
 H          2.0023597910        0.4259148794       -1.7393661397
 H         -3.1714768448        2.6910626457       -2.1324655669
 H         -1.5525683085        2.7144698228       -2.8416781834
 H         -2.5798868849        1.2993022074       -3.0598201165
 H         -0.8950020419        2.2203105725        0.7859763277
 H         -0.9473232319        3.4149644660       -0.5046398211
 H         -2.4414755781        2.9520293803        0.3197468466
 H         -5.4171617808       -2.9751874315        1.5225211309
 H         -4.9792359443       -3.4982550546       -0.0984220470
 H         -3.9030983242       -3.8508903228        1.2596135789
 H         -0.9868697149       -1.3819658022        2.6778980457
  53
        -68.44385809
 C          6.1073680929        0.9710150733       -2.2758474960
 C          6.4785805799        0.6528413877       -0.8323250652
 C          5.8455292087       -0.6409885495       -0.3173173965
 C          4.3167996650       -0.6481243165       -0.2993030070
 C          3.7145733087        0.4091557519        0.6335064165
 C          2.2204434567        0.2709774638        0.6738979934
 C          1.6120936561       -0.5521864690        1.6118360217
 C          0.2368904123       -0.7284167166        1.6135344452
 C         -0.5676079162       -0.0956480486        0.6633680808
 C         -2.0515293512       -0.3314507157        0.6148251701
 C         -2.4457986773       -1.7817558562        0.5973634247
 C         -3.7248408378       -2.0714549434        0.3988584139
 C         -4.6889390647       -0.9230896907        0.2867724346
 C         -4.1721619420        0.1895892173       -0.6493652427
 C         -2.6417307642        0.2672221717       -0.6738577226
 C         -2.0565511665        1.6641664087       -0.9371203608
 O         -0.6468566475        1.5184617463       -1.1437072944
 C          0.0428348617        0.7788826644       -0.2348759777
 C          1.4265281266        0.9416086775       -0.2372435189
 C         -2.5885211716        2.2496656661       -2.2459153888
 C         -2.2859156043        2.6481644350        0.2146611128
 C         -4.2732307453       -3.4591331485        0.3059583828
 O         -0.3681807587       -1.5145254156        2.5529402799
 H          6.3429761756        0.1292386270       -2.9237393847
 H          5.0470481081        1.1901859680       -2.3682278337
 H          6.6630950104        1.8384451580       -2.6254195401
 H          7.5644816826        0.5495753890       -0.7614608223
 H          6.1906745902        1.4866476292       -0.1898487204
 H          6.2103669547       -0.8258915474        0.6966449939
 H          6.1855774322       -1.4689843143       -0.9448516370
 H          3.9289982465       -0.4961054466       -1.3071541231
 H          3.9798249828       -1.6340266030        0.0311061210
 H          4.1305503021        0.2814247326        1.6353727092
 H          3.9761387547        1.4051953659        0.2759435850
 H          2.2137790913       -1.0607679850        2.3545774985
 H         -2.5221909087        0.1435569952        1.4870519922
 H         -1.6843097030       -2.5373781674        0.6887921195
 H         -5.6639870739       -1.2691453414       -0.0583982783
 H         -4.8276662487       -0.5001978206        1.2871932931
 H         -4.5977078304        1.1394748434       -0.3228953705
 H         -4.5329752481        0.0018801720       -1.6614976581
 H         -2.2780321567       -0.3619866857       -1.4966268451
 H          1.8582842327        1.6142669114       -0.9613963023
 H         -3.6390475874        2.5054737640       -2.1513493818
 H         -2.0243618425        3.1448518752       -2.4941843725
 H         -2.4655595323        1.5325261479       -3.0532073529
 H         -1.9064718911        3.6273470762       -0.0684909418
 H         -3.3432748873        2.7372163919        0.4455826382
 H         -1.7537877410        2.3230580491        1.1051129604
 H         -3.4859117709       -4.1958674636        0.4421963386
 H         -5.0369000832       -3.6168633814        1.0676565792
 H         -4.7377418290       -3.6177159151       -0.6675980035
 H          0.3047612562       -1.8762540112        3.1416081802
  53
        -68.44384397
 C          6.1727187818        2.0475184113       -1.4773450670
 C          6.5110596702        0.6843355485       -0.8856756435
 C          5.9325363909        0.4735607537        0.5146165331
 C          4.4067175144        0.5253008333        0.5961235186
 C          3.7165590351       -0.5768801860       -0.2159983839
 C          2.2312157398       -0.5264280281       -0.0038993895
 C          1.6431881061       -1.2287020672        1.0394447375
 C          0.2746852376       -1.1660252624        1.2525674146
 C         -0.5457989703       -0.4029478604        0.4189164063
 C         -2.0385877001       -0.3852980775        0.5957891229
 C         -2.6668431316       -1.7487145614        0.6705527077
 C         -3.9913189486       -1.8192695008        0.6686866415
 C         -4.7571171027       -0.5252840712        0.6728753123
 C         -4.2073099355        0.4871093356       -0.3539169397
 C         -2.7065141462        0.3057570856       -0.6057684790
 C         -1.9426373146        1.5843400784       -0.9862414927
 O         -0.6239989978        1.2034695552       -1.3951612616
 C          0.0601590522        0.3552674432       -0.5821812480
 C          1.4342381956        0.2761937740       -0.7981204148
 C         -2.5593134487        2.2525065372       -2.2158414492
 C         -1.8297053761        2.5916863176        0.1627078585
 C         -4.7702231818       -3.0951511260        0.6893154846
 O         -0.3050974006       -1.8396697681        2.2902055969
 H          6.4753467979        2.8426235463       -0.7989945151
 H          6.6923489546        2.1874438613       -2.4227850173
 H          5.1058953873        2.1401704302       -1.6622319363
 H          6.1560440131       -0.1013588675       -1.5546053867
 H          7.5978984049        0.5875783890       -0.8205885619
 H          6.3384962870        1.2413646398        1.1784764693
 H          6.2721759637       -0.4963302709        0.8878502994
 H          4.1131662357        0.4196026557        1.6437214799
 H          4.0458226302        1.4969096597        0.2569096127
 H          3.9340514534       -0.4423521405       -1.2756591936
 H          4.1061938157       -1.5483945548        0.0960250262
 H          2.2557350694       -1.8360509654        1.6938568801
 H         -2.2880859774        0.1607809853        1.5163573033
 H         -2.0366537767       -2.6216605196        0.6664822353
 H         -5.8163068342       -0.7023475610        0.4822092499
 H         -4.6739513986       -0.0873382188        1.6729790160
 H         -4.4145641679        1.4941843606        0.0105042619
 H         -4.7413517235        0.3658076242       -1.2972440065
 H         -2.5799404402       -0.3748726568       -1.4577356812
 H          1.8579616344        0.8611863795       -1.5991005401
 H         -3.5263306556        2.6814719602       -1.9733356280
 H         -1.8974328394        3.0401004360       -2.5662934711
 H         -2.6797611377        1.5257283558       -3.0147877238
 H         -1.3385183457        3.4930448910       -0.1968395832
 H         -2.8108089378        2.8578357057        0.5446344218
 H         -1.2326379593        2.1803715530        0.9727092347
 H         -5.3933897346       -3.1721210370       -0.2020098796
 H         -4.1048083033       -3.9536758109        0.7262095917
 H         -5.4283348382       -3.1237294535        1.5578325942
 H          0.3779650227       -2.3147105922        2.7780573646
  53
        -68.44382954
 C          4.2555456900       -2.0649496310       -0.5926511548
 C          5.1400523057       -0.9367243302       -1.1112290658
 C          4.3390932873        0.3132184589       -1.5069864021
 C          4.4528014612        1.4674441471       -0.5100491058
 C          3.8333957172        1.1781663708        0.8600901216
 C          2.3775330093        0.8016540340        0.8119306904
 C          1.9025886414       -0.2430298421        1.5937572580
 C          0.5673046010       -0.6176645795        1.5608155998
 C         -0.3406755192        0.0316745257        0.7209884813
 C         -1.7895342917       -0.3775046543        0.6088015859
 C         -2.0113565023       -1.8566524204        0.4341629186
 C         -3.0433240907       -2.3588855338       -0.2283434213
 C         -4.0741199900       -1.5015066260       -0.9133383009
 C         -3.9257767267       -0.0160725534       -0.5826747684
 C         -2.4422346522        0.3365242297       -0.5790159034
 C         -2.0887657146        1.8300001404       -0.5808307651
 O         -0.6708337511        1.9378215805       -0.7509852033
 C          0.1243490499        1.1388649773        0.0086207430
 C          1.4686303696        1.5031759614        0.0428196534
 C         -2.6793891204        2.5547706532       -1.7922694587
 C         -2.4990199560        2.5527974908        0.7060556553
 C         -3.2553117299       -3.8363813422       -0.3751000345
 O          0.1207795075       -1.6249023439        2.3709439112
 H          4.8619750324       -2.9110667430       -0.2744896322
 H          3.6547366849       -1.7302353388        0.2475810556
 H          3.5792760149       -2.4041536020       -1.3744955801
 H          5.8772231691       -0.6730255872       -0.3497833389
 H          5.6938481291       -1.3051104081       -1.9776253173
 H          3.2866662289        0.0495091412       -1.6239991541
 H          4.6937417207        0.6779259783       -2.4736231373
 H          5.5080582409        1.7144327135       -0.3663645742
 H          3.9709547414        2.3457102596       -0.9428770408
 H          4.3927811974        0.3791867283        1.3500349988
 H          3.9406965163        2.0752786201        1.4790046650
 H          2.5772870253       -0.7728589281        2.2559774107
 H         -2.2970448700       -0.0849180234        1.5407942339
 H         -1.3026470926       -2.5136567615        0.9100113169
 H         -3.9739831845       -1.6462536251       -1.9949862076
 H         -5.0747119292       -1.8474759158       -0.6392636374
 H         -4.3537734357        0.1860506533        0.4010609119
 H         -4.4719067399        0.5753856975       -1.3182669777
 H         -1.9948211277       -0.0748394147       -1.4936352371
 H          1.7668217018        2.3574193732       -0.5422970925
 H         -2.5147006829        1.9767733288       -2.6978432342
 H         -3.7434089133        2.7233442180       -1.6593543047
 H         -2.1821236671        3.5148385285       -1.9034950225
 H         -1.9360428347        2.1749269062        1.5557245005
 H         -2.2878193340        3.6150808407        0.6064585368
 H         -3.5610262599        2.4208052392        0.8918714043
 H         -2.4504304248       -4.3941485423        0.0957073653
 H         -4.1987423443       -4.1314294082        0.0844934489
 H         -3.3022203166       -4.1101971222       -1.4291405548
 H          0.8572696878       -1.9498911010        2.9024904334
  53
        -68.44377717
 C          6.6992136107       -1.4891732872        0.0632813807
 C          6.6688018155        0.0067290438       -0.2274617946
 C          5.6864764178        0.3862771023       -1.3370284692
 C          4.2221273931        0.0602436213       -1.0424926886
 C          3.6630938262        0.8155679892        0.1690497032
 C          2.1945676075        0.5414274460        0.3160667320
 C          1.7527665086       -0.5412725005        1.0647398166
 C          0.4010062545       -0.8355229590        1.1553787629
 C         -0.5472258588       -0.0595515365        0.4852218730
 C         -2.0090395499       -0.4082853941        0.5228593944
 C         -2.3117657208       -1.8369378744        0.1671560449
 C         -3.5847142550       -2.1815883605        0.0258637231
 C         -4.6250132134       -1.1342659999        0.3118298989
 C         -4.2923154797        0.2210736086       -0.3468808529
 C         -2.7833537297        0.4397135471       -0.5011817635
 C         -2.3201285884        1.9046133709       -0.4489571483
 O         -0.9385198997        1.9424929322       -0.8244071820
 C         -0.1019778580        1.0634475058       -0.2111820488
 C          1.2592130217        1.3445739032       -0.3083268890
 C         -3.0382216470        2.7500701084       -1.5016861524
 C         -2.4713014797        2.5425775204        0.9358287544
 C         -4.0527252106       -3.5447957549       -0.3712787168
 O         -0.0397334582       -1.8832379902        1.9135527791
 H          5.7521946927       -1.8272254990        0.4756336366
 H          6.8973265807       -2.0500035879       -0.8478255329
 H          7.4818849179       -1.7177729912        0.7835429728
 H          6.4231489492        0.5510370811        0.6859754408
 H          7.6676207858        0.3260033872       -0.5356968871
 H          5.9771629876       -0.1346623806       -2.2529807124
 H          5.7754215005        1.4590567379       -1.5265491993
 H          3.6255129985        0.3265449697       -1.9182415696
 H          4.1018132760       -1.0124490064       -0.8842917270
 H          4.1862876185        0.5005852313        1.0728877125
 H          3.8285134379        1.8854511745        0.0294084058
 H          2.4674613584       -1.1631820756        1.5891341558
 H         -2.4020106943       -0.2127764921        1.5304590376
 H         -1.4993355257       -2.5193568047       -0.0157710846
 H         -5.6101965463       -1.4686841959       -0.0155368266
 H         -4.6717460425       -0.9924637273        1.3965731870
 H         -4.7332416478        1.0150497064        0.2574121245
 H         -4.7585874337        0.2643660719       -1.3320605010
 H         -2.4817044941        0.0729299015       -1.4909270358
 H          1.5610763874        2.2125333381       -0.8728346095
 H         -2.5634717909        3.7258442200       -1.5631615604
 H         -2.9678884144        2.2730004970       -2.4756338775
 H         -4.0838438585        2.8785256480       -1.2405429003
 H         -3.4975462920        2.4762578370        1.2846143185
 H         -1.8191720480        2.0527165036        1.6545829536
 H         -2.1881595757        3.5912225156        0.8806837943
 H         -4.7111278776       -3.9574030032        0.3931997161
 H         -4.6166891933       -3.4943416029       -1.3030534330
 H         -3.2105324690       -4.2180001229       -0.5079913274
 H          0.7185386995       -2.3186631781        2.3204671748
  53
        -68.44376722
 C          4.3981496090       -1.2362724223        2.3908201544
 C          4.0302500706       -0.0182745966        1.5522476175
 C          4.9899503718        0.1625927226        0.3776840164
 C          4.6369802585        1.3507952012       -0.5217448866
 C          3.6572693390        1.0009411641       -1.6508241463
 C          2.3110675990        0.5716821933       -1.1448098101
 C          1.9129234326       -0.7515181620       -1.2191030859
 C          0.6841845305       -1.1699185657       -0.7120952761
 C         -0.1513047274       -0.2505165748       -0.0877697861
 C         -1.4981021810       -0.4805383127        0.5618662246
 C         -2.0172532322       -1.8834773306        0.6199265571
 C         -3.2028553548       -2.2644202871        0.1575453827
 C         -4.1474335483       -1.2783858931       -0.4725261731
 C         -3.8957591804        0.1266780123        0.0729765468
 C         -2.4368011299        0.4891850350       -0.1776857033
 C         -2.0353659167        1.9299159639        0.2015396967
 O         -0.6169541138        2.0406429587        0.4326416067
 C          0.2139304230        1.1005770646       -0.1025240216
 C          1.4368865581        1.5086968802       -0.6091522812
 C         -2.3790506763        2.8894598741       -0.9448017496
 C         -2.6924272175        2.4131887821        1.4961797570
 C         -3.6881825511       -3.6776684962        0.2534962501
 O          0.3728916849       -2.4855215446       -0.8710209728
 H          4.3372044978       -2.1415055458        1.7908389022
 H          5.4128123545       -1.1473363182        2.7743565227
 H          3.7199706834       -1.3389916807        3.2347919267
 H          3.0113050244       -0.1299220110        1.1818661034
 H          4.0602666572        0.8763204053        2.1791058114
 H          5.0035054857       -0.7514459114       -0.2194444886
 H          5.9972215520        0.3057634280        0.7781751354
 H          4.2155458379        2.1521866722        0.0877160180
 H          5.5507016455        1.7317517948       -0.9846915616
 H          3.5357074311        1.8844838272       -2.2830903849
 H          4.0894420842        0.2059982122       -2.2613993383
 H          2.5453734260       -1.4977691852       -1.6734106723
 H         -1.3980282756       -0.1355725093        1.6041029268
 H         -1.4023412547       -2.5851320580        1.1726357059
 H         -4.0179558628       -1.2835765482       -1.5596629148
 H         -5.1765836871       -1.5812410842       -0.2673474096
 H         -4.1097793072        0.1342971913        1.1423709259
 H         -4.5578499462        0.8416199293       -0.4182619207
 H         -2.2506320748        0.3673074734       -1.2527949561
 H          1.6927043621        2.5558086090       -0.5780172328
 H         -2.1190364620        3.9065196388       -0.6636667152
 H         -1.8116370695        2.6229645993       -1.8343042233
 H         -3.4401730401        2.8450739823       -1.1746008002
 H         -2.2216484497        3.3464215225        1.7941735737
 H         -3.7545345623        2.5830794669        1.3504530113
 H         -2.5496231118        1.6920514162        2.2969685525
 H         -3.9642801014       -4.0467814851       -0.7340664555
 H         -2.9263342738       -4.3310290440        0.6715613699
 H         -4.5753135390       -3.7302071985        0.8844635004
 H         -0.5359389154       -2.6373988552       -0.5717515142
  53
        -68.44376206
 C          6.8267730952       -0.7556740693        0.9558810010
 C          6.7043164601        0.0544570695       -0.3293070541
 C          5.7964462763        1.2775385659       -0.1880685134
 C          4.3422907584        0.9650484635        0.1658503939
 C          3.6210727602        0.1358442248       -0.9033352866
 C          2.1708952019       -0.0223401308       -0.5485325550
 C          1.7544908083       -1.0756907241        0.2545003276
 C          0.4205575570       -1.2141032288        0.6059598037
 C         -0.5372776574       -0.3041652253        0.1532912794
 C         -1.9961582860       -0.4844618431        0.4682199903
 C         -2.5315854348       -1.8524377797        0.1501522628
 C         -3.8401979754       -2.0425816855        0.2532626981
 C         -4.6722859313       -0.8958681238        0.7567205122
 C         -4.3106678066        0.4387208515        0.0714480613
 C         -2.8435128887        0.4896776528       -0.3687239777
 C         -2.2062514452        1.8885885491       -0.3778726661
 O         -0.9269453070        1.7850086528       -1.0132146506
 C         -0.1014790599        0.7892713858       -0.5943132062
 C          1.2388791361        0.9143729869       -0.9532971106
 C         -3.0045900965        2.8548267196       -1.2540991694
 C         -2.0136160826        2.4800548599        1.0223504540
 C         -4.5366595472       -3.3249203498       -0.0715760237
 O          0.0103278799       -2.2372402056        1.4131827702
 H          5.8768025642       -1.2104283086        1.2239629205
 H          7.5587847020       -1.5510270618        0.8325673375
 H          7.1476144803       -0.1191287665        1.7779567161
 H          7.6981286486        0.4024035790       -0.6222605121
 H          6.3371976484       -0.5876532425       -1.1316544016
 H          5.8163013486        1.8342944113       -1.1284604859
 H          6.2071336865        1.9284929451        0.5881906256
 H          4.2941514559        0.4403762437        1.1211783804
 H          3.8057746201        1.9089668523        0.2882789763
 H          3.7129477510        0.6397461653       -1.8672585927
 H          4.0863991451       -0.8475053197       -0.9822634271
 H          2.4749473079       -1.8019953805        0.6094329255
 H         -2.1629954645       -0.2884312795        1.5367072338
 H         -1.8577847180       -2.6148304496       -0.2018498969
 H         -5.7350149615       -1.1009977340        0.6220516324
 H         -4.4926472706       -0.7952758793        1.8321548579
 H         -4.5301094857        1.2521337582        0.7643949358
 H         -4.9473633654        0.5756485897       -0.8035728280
 H         -2.7821991082        0.1336580745       -1.4053634241
 H          1.5292013107        1.7635888656       -1.5513897203
 H         -2.4368799297        3.7721480002       -1.3863336328
 H         -3.1777075539        2.4152399456       -2.2328322963
 H         -3.9588206749        3.0897093005       -0.7933436136
 H         -2.9552582728        2.5172965005        1.5620055710
 H         -1.3011308426        1.8880515057        1.5912593986
 H         -1.6211746933        3.4906052688        0.9344192370
 H         -5.0811632050       -3.6916942153        0.7986113166
 H         -5.2585010031       -3.1704314235       -0.8739367568
 H         -3.8238106237       -4.0836841067       -0.3835388789
 H          0.7733046144       -2.7782197334        1.6485519915
  53
        -68.44371289
 C          6.1135581981        0.3844582193       -2.8494418806
 C          6.4655617651       -0.3503790075       -1.5612089279
 C          5.7831948754        0.2390583865       -0.3262488884
 C          4.2694035687        0.0420394247       -0.3207171003
 C          3.6362658406        0.5545032073        0.9780977041
 C          2.1485276176        0.3533111602        0.9570719055
 C          1.5941881914       -0.8262680122        1.4220519318
 C          0.2187324282       -1.0432821951        1.3915334653
 C         -0.6249852324       -0.0451110152        0.9159349284
 C         -2.1358247049       -0.0391034207        0.8332896185
 C         -2.8725501780       -1.2271745285        1.3689847986
 C         -3.7546114170       -1.9384088441        0.6756915877
 C         -4.0961290800       -1.5850344441       -0.7455737815
 C         -3.8726188043       -0.0938392499       -0.9936225180
 C         -2.4259433989        0.2424285855       -0.6515888038
 C         -1.9896748382        1.6896761229       -0.9603285147
 O         -0.8442371633        2.0764509820       -0.1755623843
 C         -0.0522876270        1.1054305674        0.3631826404
 C          1.3176574131        1.3134477296        0.3973959229
 C         -1.5840763179        1.8128766069       -2.4345896522
 C         -3.0697165627        2.7230115324       -0.6327531905
 C         -4.4821996502       -3.1093514910        1.2601273354
 O         -0.2206059886       -2.2527520341        1.8361374420
 H          6.6817953607       -0.0219074583       -3.6833391564
 H          5.0563381895        0.2837315335       -3.0798298882
 H          6.3478047484        1.4431018372       -2.7591494234
 H          6.1889717712       -1.4028829184       -1.6568402194
 H          7.5477079411       -0.3056375948       -1.4153395345
 H          6.0095995191        1.3063265960       -0.2653550934
 H          6.2011976952       -0.2372995629        0.5643789410
 H          3.8190924554        0.5724111033       -1.1608821344
 H          4.0388280970       -1.0196816450       -0.4336938163
 H          4.0701758749        0.0185696457        1.8244059397
 H          3.8641685482        1.6161733024        1.0916642120
 H          2.2169006208       -1.6113786610        1.8211759667
 H         -2.4700250124        0.8318661945        1.4206506994
 H         -2.7282389391       -1.4273107899        2.4249176823
 H         -3.4785628834       -2.1726152193       -1.4325680643
 H         -5.1382799824       -1.8456745917       -0.9429282787
 H         -4.5537993010        0.4757879465       -0.3604190430
 H         -4.0856113214        0.1468650623       -2.0364621073
 H         -1.7869621624       -0.4274516284       -1.2417353602
 H          1.7176782534        2.2279582933       -0.0110847823
 H         -0.7308211833        1.1693803536       -2.6395180120
 H         -2.4079537412        1.5263689537       -3.0825686136
 H         -1.3007353500        2.8389667475       -2.6534240961
 H         -3.4477745599        2.5832770498        0.3768121586
 H         -2.6281313168        3.7142941340       -0.6937509636
 H         -3.8930312056        2.6581332718       -1.3371186152
 H         -4.1386166762       -3.3265226537        2.2685193238
 H         -5.5532279462       -2.9101466800        1.2933889032
 H         -4.3306462459       -3.9923340648        0.6395331497
 H         -1.1736717688       -2.3243813194        1.6776293707
  53
        -68.44368366
 C          4.5535504232        0.2771930271        2.1368348221
 C          5.3783509435        1.0314076940        1.0998801471
 C          4.5097244483        1.7389911120        0.0488255557
 C          4.4801686090        1.0372784566       -1.3098471268
 C          3.8181045097       -0.3429496292       -1.2933816138
 C          2.4001602314       -0.3565237417       -0.7897421226
 C          1.9725472625       -1.3825189704        0.0429714085
 C          0.6625728510       -1.4464874864        0.4947554939
 C         -0.2784885233       -0.4885531554        0.1094086759
 C         -1.7267244388       -0.5433469403        0.5334932596
 C         -2.3758176359       -1.8928866984        0.3751002186
 C         -3.6676157509       -2.0486507006        0.1238530880
 C         -4.6105541360       -0.8916195855       -0.0732772532
 C         -3.9719214825        0.4569211087        0.2599033804
 C         -2.5452254554        0.4657952489       -0.2781846779
 C         -1.8374945306        1.8263453016       -0.3325260673
 O         -0.5968051453        1.6391663243       -1.0227374131
 C          0.1763883754        0.5794997926       -0.6662193286
 C          1.4899100920        0.6259346697       -1.1292213292
 C         -2.6064903099        2.8363414054       -1.1870237455
 C         -1.5603182579        2.4230075384        1.0510355880
 C         -4.2962063388       -3.4033987233       -0.0141356253
 O          0.2840699355       -2.4469011017        1.3469658737
 H          5.2036823757       -0.2546716037        2.8291058946
 H          3.9409514661        0.9709972805        2.7088308949
 H          3.8916616647       -0.4388748049        1.6591896720
 H          5.9939307025        1.7681660003        1.6207996332
 H          6.0610464656        0.3384311146        0.6035145032
 H          4.8908928966        2.7499457853       -0.1122577514
 H          3.4888258477        1.8307028276        0.4230208083
 H          3.9563007712        1.6789226065       -2.0203646600
 H          5.5044898334        0.9216480120       -1.6740932913
 H          3.8221004971       -0.7339329948       -2.3165498515
 H          4.4174039678       -1.0248725477       -0.6871184831
 H          2.6667828802       -2.1574242040        0.3463752955
 H         -1.7771056091       -0.2864863702        1.6027165137
 H         -1.7441436878       -2.7546956964        0.5110182372
 H         -4.9375295948       -0.8919194021       -1.1192315078
 H         -5.5047140467       -1.0434098695        0.5378052037
 H         -3.9574842722        0.5995457440        1.3421419673
 H         -4.5665138858        1.2582141487       -0.1800284586
 H         -2.5730169407        0.1049349462       -1.3150075368
 H          1.7655314592        1.4610823985       -1.7514353466
 H         -2.9313771423        2.3773436702       -2.1170892559
 H         -3.4700441283        3.2164435303       -0.6503800906
 H         -1.9475747304        3.6668579373       -1.4267175814
 H         -0.8531945423        1.8071474166        1.6009407900
 H         -1.1277110509        3.4144079186        0.9369079952
 H         -2.4824860823        2.5044406131        1.6191681138
 H         -5.0613346924       -3.5458530578        0.7491463177
 H         -4.7786213377       -3.5004276147       -0.9867987242
 H         -3.5533895708       -4.1898160035        0.0878480426
 H          1.0483801215       -3.0046479510        1.5350154474
  53
        -68.44366687
 C          2.9967074654       -0.2252144170       -2.9509148502
 C          3.3833756622       -0.5453534565       -1.5122071343
 C          4.4293265870        0.4343659009       -0.9814496000
 C          4.7413296516        0.2437805591        0.5066276712
 C          3.8631110050        1.1009480456        1.4314354464
 C          2.4045811895        0.7742703057        1.3017989321
 C          1.8832415700       -0.3612445361        1.9029021953
 C          0.5469475144       -0.7149971409        1.7559539874
 C         -0.3094826040        0.0670161068        0.9803757214
 C         -1.7781704483       -0.1697770316        0.7035278161
 C         -2.3156344724       -1.5201641814        1.0705991627
 C         -3.0574683897       -2.2788169125        0.2769940719
 C         -3.4567461598       -1.8373958330       -1.1042045327
 C         -3.3717444531       -0.3197404222       -1.2285870382
 C         -1.9828710107        0.1344828669       -0.7900891904
 C         -1.6890970271        1.6158653700       -1.0740189855
 O         -0.5159593461        2.0624438712       -0.3735693096
 C          0.2255958772        1.2076702010        0.3731393920
 C          1.5599104932        1.5636172143        0.5440668833
 C         -1.3791289339        1.8253336748       -2.5627701603
 C         -2.8280134934        2.5495963000       -0.6529688661
 C         -3.5698684602       -3.6217273179        0.7021546900
 O          0.0838035885       -1.8328344743        2.3907759484
 H          3.8704606317       -0.2485980764       -3.5993301795
 H          2.2738282257       -0.9476912662       -3.3235113093
 H          2.5530723767        0.7664962166       -3.0101589258
 H          2.4923408969       -0.5073116040       -0.8853607090
 H          3.7852260075       -1.5604970521       -1.4609102381
 H          4.0807826833        1.4551790367       -1.1479234813
 H          5.3465544224        0.3045886809       -1.5616906712
 H          4.6232797943       -0.8097455903        0.7678234004
 H          5.7826825058        0.5156526951        0.6949613666
 H          4.1837445526        0.9343687152        2.4630224071
 H          4.0230500953        2.1539822417        1.1935171521
 H          2.5273030023       -0.9914773815        2.5037802325
 H         -2.3370547474        0.5716796886        1.2974398407
 H         -2.0873220995       -1.8531083482        2.0698339344
 H         -2.8004271466       -2.3089731831       -1.8433234843
 H         -4.4751324899       -2.1738406377       -1.3151779539
 H         -4.1287706309        0.1320904923       -0.5858801974
 H         -3.5701182102       -0.0193377347       -2.2588545985
 H         -1.2439662169       -0.4589703994       -1.3439712123
 H          1.9132886011        2.4615966561        0.0631024286
 H         -0.5230090423        1.2199379384       -2.8526764357
 H         -2.2308856955        1.5522873720       -3.1785359204
 H         -1.1366851232        2.8700564755       -2.7387351976
 H         -3.1300342489        2.3596648374        0.3738055333
 H         -2.4765400058        3.5764028030       -0.7177493762
 H         -3.6866140153        2.4291547063       -1.3060805056
 H         -4.6592223223       -3.6157294654        0.7503648632
 H         -3.2753090761       -4.3821321426       -0.0209085343
 H         -3.1789294761       -3.8964843293        1.6779750323
 H          0.8181735704       -2.2505971366        2.8572276569
  53
        -68.44362757
 C          2.9255863289        0.1177056996       -2.3903028309
 C          3.7064386629       -0.7316441387       -1.3946116901
 C          4.9028135948       -0.0029094633       -0.7807451847
 C          4.5755948782        1.2549988306        0.0256092849
 C          3.8508971513        0.9926559681        1.3529223269
 C          2.3985723545        0.6391053071        1.1989260538
 C          1.9178917279       -0.5894303426        1.6180280046
 C          0.5738622198       -0.9310351405        1.4822942795
 C         -0.3193857065       -0.0106407534        0.9460948383
 C         -1.8101235430       -0.1477130285        0.7284917138
 C         -2.4732162282       -1.4092831221        1.1864003797
 C         -3.2160128258       -2.1906549547        0.4103846179
 C         -3.4600300264       -1.8494275708       -1.0337477421
 C         -3.3604574528       -0.3400244944       -1.2506789358
 C         -1.9904079421        0.1282588456       -0.7748495523
 C         -1.6699055998        1.6156559196       -1.0320906513
 O         -0.6532463376        2.1009580738       -0.1325678646
 C          0.1837481752        1.2002781575        0.4587588921
 C          1.5195554004        1.5363360125        0.6069637323
 C         -1.1328291127        1.7973166375       -2.4574317143
 C         -2.8729370514        2.5346048749       -0.8100513528
 C         -3.8768176968       -3.4348353518        0.9176735529
 O          0.2176934064       -2.1820314269        1.8842189871
 H          2.1838785891       -0.4929290420       -2.9016487551
 H          2.4054307993        0.9257242400       -1.8825395595
 H          3.5913487176        0.5446414564       -3.1381023621
 H          3.0339858997       -1.0678102013       -0.6059361697
 H          4.0851367053       -1.6190581714       -1.9092631425
 H          5.5826441538        0.2824309245       -1.5891590379
 H          5.4402465291       -0.7024030784       -0.1350370683
 H          5.5213480102        1.7537732085        0.2549046151
 H          3.9870671970        1.9399843674       -0.5838441961
 H          4.3665888627        0.1951073216        1.8908778404
 H          3.9175732905        1.9013841543        1.9583956354
 H          2.5772944866       -1.3241298462        2.0537887658
 H         -2.2783443099        0.6782478144        1.2887691187
 H         -2.4061095344       -1.6114771716        2.2497051512
 H         -2.7288111180       -2.3645483141       -1.6650626693
 H         -4.4498569359       -2.2056755808       -1.3274902805
 H         -4.1486258676        0.1518685601       -0.6794622457
 H         -3.4996881196       -0.1050479037       -2.3072015755
 H         -1.2385131525       -0.4678998579       -1.3083240334
 H          1.8536530897        2.5007743223        0.2579306645
 H         -1.8581286023        1.4449302400       -3.1858117709
 H         -0.9270124679        2.8483801596       -2.6420746662
 H         -0.2071050059        1.2386905217       -2.5802659877
 H         -3.6133015406        2.3980566714       -1.5919552037
 H         -3.3317524383        2.3464596513        0.1573176768
 H         -2.5271987428        3.5649522878       -0.8251600796
 H         -4.9606767480       -3.3392945568        0.8544230634
 H         -3.5854220217       -4.2893548123        0.3072407659
 H         -3.6062930806       -3.6341781958        1.9516882962
 H         -0.7084403086       -2.3414650381        1.6490419321
  53
        -68.44362268
 C          7.1351657799       -2.1263258118        0.1757614937
 C          6.4063692344       -0.8636048124        0.6191756269
 C          5.3485586793       -0.4308608456       -0.3935672890
 C          4.6327692985        0.8490683911        0.0378419226
 C          3.4911859973        1.2501278008       -0.9074987350
 C          2.1156808833        0.8155085285       -0.4744687543
 C          1.8850398177       -0.3724403911        0.2041693579
 C          0.5995496952       -0.7584422724        0.5567295266
 C         -0.5095865278        0.0200600450        0.2188490401
 C         -1.9280636769       -0.3891598995        0.5354855365
 C         -2.2645911005       -1.8129240379        0.1790907765
 C         -3.4811872983       -2.2012698691       -0.1746682756
 C         -4.6417383319       -1.2503707139       -0.2999843654
 C         -4.3226677105        0.1479381835        0.2296174211
 C         -2.9103334949        0.5228824862       -0.2062763689
 C         -2.5102500075        1.9966260449       -0.0533244087
 O         -1.2307340616        2.1629886892       -0.6749180152
 C         -0.2634983009        1.2507789547       -0.3930084214
 C          1.0295562090        1.6265731392       -0.7491532241
 C         -3.4426879338        2.9253748156       -0.8341225396
 C         -2.4258852174        2.4550250613        1.4060400653
 C         -3.7978335329       -3.6286104443       -0.5095852573
 O          0.4093850890       -1.9141851910        1.2640841602
 H          7.6369158697       -1.9623569949       -0.7754639222
 H          7.8814160294       -2.4173897631        0.9114379355
 H          6.4344768188       -2.9499005057        0.0535849118
 H          5.9300560696       -1.0402150505        1.5869270249
 H          7.1290452979       -0.0551684947        0.7520756001
 H          4.6274320374       -1.2394119364       -0.5284748923
 H          5.8276497935       -0.2617543806       -1.3612542268
 H          4.2413455444        0.7319699229        1.0504864796
 H          5.3696663653        1.6547005928        0.0699980873
 H          3.4766705277        2.3358925166       -1.0186098426
 H          3.6885556196        0.8328484564       -1.8999762919
 H          2.7072404986       -1.0176257527        0.4783713679
 H         -2.0760286852       -0.2868921159        1.6214918443
 H         -1.4683258615       -2.5341133333        0.2572114468
 H         -4.9170479384       -1.1853579745       -1.3587139225
 H         -5.5070783130       -1.6616841250        0.2273075308
 H         -4.3838201238        0.1509654317        1.3195871387
 H         -5.0571794013        0.8571439721       -0.1533574531
 H         -2.8170420711        0.3004955255       -1.2776122817
 H          1.1579183093        2.5794422023       -1.2382028890
 H         -3.6226625865        2.5318047993       -1.8311078561
 H         -4.3891405704        3.0453101583       -0.3163222895
 H         -2.9682958982        3.8985527867       -0.9304492108
 H         -2.2144012589        3.5214259470        1.4381061898
 H         -3.3660535472        2.2669004687        1.9164592358
 H         -1.6246743639        1.9362745812        1.9261926216
 H         -4.2089510116       -3.6998866589       -1.5166348336
 H         -2.9079929318       -4.2493672220       -0.4503122745
 H         -4.5442680471       -4.0231815311        0.1800461266
 H          1.2677209827       -2.3180436577        1.4400564493
  53
        -68.44355930
 C          3.8423806374       -0.8081747531        2.0503804229
 C          4.0480715976        0.6524202480        1.6677064172
 C          5.1316237854        0.8552234903        0.6076658422
 C          4.8736355850        0.1851378547       -0.7426058043
 C          3.7297831763        0.8087882278       -1.5537963394
 C          2.3614490138        0.4452448847       -1.0508519006
 C          1.9452779407       -0.8757625130       -1.0607940456
 C          0.6970555061       -1.2488788124       -0.5704148679
 C         -0.1488677176       -0.2836997555       -0.0341901531
 C         -1.5173483039       -0.4596784475        0.5858482715
 C         -2.0529847582       -1.8514762581        0.7167775829
 C         -3.2288393529       -2.2502848826        0.2447358929
 C         -4.1442180658       -1.2978092041       -0.4738394435
 C         -3.8925090649        0.1369694008       -0.0121140246
 C         -2.4229332963        0.4690950259       -0.2421513559
 C         -2.0171376361        1.9275891631        0.0554317857
 O         -0.6042764352        2.0416211905        0.3169474725
 C          0.2313964120        1.0588992842       -0.1255609972
 C          1.4788066499        1.4215081382       -0.6106822565
 C         -2.3204421551        2.8149645298       -1.1584788309
 C         -2.7036712300        2.4980165308        1.2983250521
 C         -3.7320550871       -3.6501293038        0.4156501335
 O          0.3752160546       -2.5690610540       -0.6575303309
 H          3.3973649084       -1.3647168380        1.2300463630
 H          4.7897174499       -1.2730677415        2.3173542463
 H          3.1723188224       -0.8797660830        2.9043248149
 H          3.1034182794        1.0666952813        1.3166413804
 H          4.3450069899        1.2122635093        2.5588830694
 H          6.0752348184        0.4667391723        1.0021695305
 H          5.2635653198        1.9284791849        0.4461867533
 H          5.7893297340        0.2712721019       -1.3341583913
 H          4.6793572966       -0.8767321895       -0.5953836479
 H          3.8427935163        1.8945107826       -1.5571491083
 H          3.8196079720        0.4600842669       -2.5868750099
 H          2.5771071302       -1.6537660111       -1.4601924367
 H         -1.4452464363       -0.0501471350        1.6067867270
 H         -1.4618444311       -2.5220670893        1.3305423696
 H         -3.9842523734       -1.3739150834       -1.5542490766
 H         -5.1820458297       -1.5773350039       -0.2795112653
 H         -4.1370367125        0.2152612651        1.0478558006
 H         -4.5322234255        0.8250059435       -0.5672560235
 H         -2.2068613711        0.2764603489       -1.3012032268
 H          1.7447197656        2.4668964104       -0.6324768494
 H         -1.7328148636        2.4872310707       -2.0137340367
 H         -3.3755914236        2.7655978001       -1.4133455430
 H         -2.0570338324        3.8455022336       -0.9356735162
 H         -2.5898386504        1.8283170986        2.1470087956
 H         -2.2314893605        3.4443218633        1.5491702819
 H         -3.7596888092        2.6673760026        1.1130617171
 H         -2.9888010030       -4.2829487257        0.8943982197
 H         -4.6360898212       -3.6545481483        1.0244211589
 H         -3.9859637161       -4.0780580507       -0.5539625294
 H         -0.5451521553       -2.6922914035       -0.3813926382
  53
        -68.44342765
 C          6.5137923497        1.9142313280        0.0272439400
 C          5.0259228491        1.8966288295        0.3585982494
 C          4.5522011308        0.5671537372        0.9479295057
 C          4.6468498402       -0.6285379337       -0.0002042136
 C          3.6876003392       -0.5429472348       -1.1951559120
 C          2.2556930640       -0.5136784164       -0.7436443315
 C          1.6471323317       -1.6754957846       -0.2989857651
 C          0.3395162354       -1.6744682011        0.1781668515
 C         -0.3672542646       -0.4779869377        0.2461090939
 C         -1.7686927934       -0.2311121823        0.7599456092
 C         -2.5180772107       -1.3913708038        1.3372310691
 C         -3.7232496863       -1.7804433482        0.9364007139
 C         -4.4524348730       -1.0538282105       -0.1598645357
 C         -3.9991404888        0.4038888292       -0.2286981699
 C         -2.4883264631        0.4325449974       -0.4274691588
 C         -1.8728202295        1.8310570743       -0.6420110073
 O         -0.4709505635        1.8498188959       -0.3073676526
 C          0.2190448702        0.6732104331       -0.2889681962
 C          1.5228890582        0.6638402586       -0.7610189514
 C         -1.9866479784        2.2336695654       -2.1178118935
 C         -2.5106903748        2.9072736464        0.2390923446
 C         -4.4434468154       -2.9371582682        1.5571763419
 O         -0.1787211098       -2.8774680617        0.5497908659
 H          7.1017187296        1.6420562434        0.9015241448
 H          6.7462298003        1.2172694681       -0.7738922632
 H          6.8175406725        2.9085377759       -0.2933646630
 H          4.8187229369        2.6831178624        1.0884828426
 H          4.4516823261        2.1298227502       -0.5387510963
 H          3.5126467621        0.6752415011        1.2655094866
 H          5.1498993720        0.3502871640        1.8372252592
 H          5.6686289067       -0.7291379791       -0.3697219059
 H          4.4103990168       -1.5320445931        0.5661683553
 H          3.9097904474        0.3464623160       -1.7850240687
 H          3.8502665548       -1.4176094866       -1.8295674881
 H          2.1721068718       -2.6176147980       -0.3193296784
 H         -1.6718415762        0.5159502483        1.5648573497
 H         -2.0611467161       -1.8562011359        2.2038368130
 H         -4.2655935899       -1.5467447879       -1.1194289800
 H         -5.5275919634       -1.1034832689        0.0260173819
 H         -4.2680932434        0.9020593550        0.7034841544
 H         -4.5034566250        0.9127861053       -1.0518091076
 H         -2.2653008576       -0.1662477529       -1.3202317663
 H          1.9446121325        1.5818845518       -1.1381080409
 H         -1.5758757514        3.2296950332       -2.2601292727
 H         -1.4234532975        1.5378786925       -2.7365691924
 H         -3.0257880192        2.2296375484       -2.4354948861
 H         -2.5355161444        2.5931517231        1.2794917721
 H         -1.9074554103        3.8089920887        0.1728816023
 H         -3.5195361721        3.1309002197       -0.0931561339
 H         -5.3597064862       -2.5966819830        2.0393107684
 H         -4.7235335310       -3.6592478493        0.7904453116
 H         -3.8258818470       -3.4362325937        2.2998890713
 H         -1.1168558901       -2.7681833635        0.7654969975
  53
        -68.44319159
 C          6.2305496862        2.3445270216       -0.5305726288
 C          6.4889985203        0.8658370344       -0.7946801891
 C          5.9633385837       -0.0466585289        0.3149517476
 C          4.4524692448        0.0160439710        0.5399804682
 C          3.6370592838       -0.4396866619       -0.6756860421
 C          2.1735566945       -0.4360806118       -0.3423631322
 C          1.5633281169       -1.5697756732        0.1645084501
 C          0.2205848442       -1.5673098246        0.5348900357
 C         -0.5193395336       -0.3940664051        0.4333134167
 C         -1.9645709789       -0.1476932047        0.8075624678
 C         -2.7307593484       -1.2749488437        1.4268057741
 C         -3.8875362969       -1.7381309968        0.9665150326
 C         -4.5396965883       -1.1377519248       -0.2482495690
 C         -4.1199583202        0.3222501021       -0.4133849526
 C         -2.5990262187        0.3831082681       -0.4902221217
 C         -2.0039607463        1.7765278973       -0.7813291847
 O         -0.6357073236        1.8707596692       -0.3379734937
 C          0.0798842488        0.7235639940       -0.1574687739
 C          1.4163327761        0.7124832217       -0.5241810960
 C         -2.0046473570        2.0424740095       -2.2920587608
 C         -2.7401174876        2.9052067117       -0.0563470157
 C         -4.6282433857       -2.8571254055        1.6307519906
 O         -0.2948321250       -2.7471876553        0.9772532853
 H          5.1665309519        2.5647731043       -0.5463702847
 H          6.6274143055        2.6326037394        0.4407095920
 H          6.7127952194        2.9536929446       -1.2921515517
 H          6.0419752356        0.5826690549       -1.7490885718
 H          7.5668095065        0.7060803124       -0.8821619787
 H          6.4614839232        0.2205350040        1.2505936730
 H          6.2408503523       -1.0769584311        0.0773991473
 H          4.2011825071       -0.6300057836        1.3846666454
 H          4.1554095517        1.0303559676        0.8094030652
 H          3.8200926300        0.2335838532       -1.5136858304
 H          3.9531026175       -1.4445738074       -0.9623271566
 H          2.1127029883       -2.4911264243        0.2776789225
 H         -1.9536621622        0.6712604320        1.5454482364
 H         -2.3376570836       -1.6437533759        2.3677309391
 H         -4.2593073939       -1.7080523197       -1.1397322003
 H         -5.6251027288       -1.2065564684       -0.1475734408
 H         -4.4791412292        0.8924485392        0.4441286359
 H         -4.5660644475        0.7385958341       -1.3180795874
 H         -2.2864512686       -0.2851739798       -1.3032382772
 H          1.8471878005        1.6035899934       -0.9527318946
 H         -1.6089416723        3.0348957686       -2.4909976186
 H         -1.3741885665        1.3133797032       -2.7971325771
 H         -3.0131933241        1.9760480687       -2.6909960535
 H         -3.7230755567        3.0653536103       -0.4879885041
 H         -2.8436566223        2.6839436637        1.0029088317
 H         -2.1564987319        3.8167662371       -0.1554628077
 H         -5.5905300090       -2.5049461775        2.0020692843
 H         -4.8237092011       -3.6544589749        0.9139553120
 H         -4.0635797086       -3.2663044191        2.4648990776
 H         -1.2499829688       -2.6498396695        1.1069035179
  53
        -68.44315320
 C          8.0914998617        1.1198030754       -1.2614889514
 C          6.5781263680        1.2733723710       -1.3506189753
 C          5.8511601188        0.2741087835       -0.4539025575
 C          4.3337989395        0.4251650937       -0.5385457996
 C          3.6233486942       -0.5925231552        0.3491612858
 C          2.1249506193       -0.4542927443        0.4236326829
 C          1.4485478248       -1.1278390812        1.4364047992
 C          0.0683411956       -1.0730036911        1.5349703639
 C         -0.6860477941       -0.3446165024        0.6118135361
 C         -2.1882195367       -0.3297538678        0.6643189433
 C         -2.8163765709       -1.6933194148        0.7348441082
 C         -4.1357827843       -1.7719833437        0.6243531332
 C         -4.9033239039       -0.4833733685        0.5179791103
 C         -4.2724096477        0.4959385807       -0.4941637167
 C         -2.7551135224        0.3155027461       -0.6122587059
 C         -1.9658887972        1.5850914679       -0.9710074578
 O         -0.6161591363        1.1990118353       -1.2541910484
 C         -0.0000837336        0.3825676019       -0.3578148819
 C          1.3894337320        0.3102345912       -0.4601036322
 C         -2.4790988958        2.2071581683       -2.2704333997
 C         -1.9538185751        2.6316603209        0.1479599136
 C         -4.9097009161       -3.0511097019        0.6252732696
 O         -0.5895640295       -1.7167444545        2.5444696476
 H          8.5892466995        1.8393216285       -1.9075182497
 H          8.4319903549        1.2820475549       -0.2409232350
 H          8.3919274412        0.1195762642       -1.5664202332
 H          6.2984053378        2.2883617418       -1.0591195883
 H          6.2591881258        1.1273221511       -2.3851981584
 H          6.1738473302        0.4193991842        0.5801692710
 H          6.1307986181       -0.7409880253       -0.7470795400
 H          4.0533596849        1.4342501170       -0.2291850528
 H          4.0225967562        0.2898565080       -1.5758312841
 H          3.8557023481       -1.6003625417       -0.0114408163
 H          4.0264864267       -0.5188855263        1.3636322521
 H          2.0078098864       -1.7068466614        2.1609654740
 H         -2.5148671862        0.2466705647        1.5411894016
 H         -2.1853003116       -2.5619040241        0.8155324139
 H         -5.9421267463       -0.6736387017        0.2453270704
 H         -4.9061222527       -0.0101616349        1.5053910047
 H         -4.5132250622        1.5138248944       -0.1844480731
 H         -4.7246302051        0.3381578531       -1.4741986063
 H         -2.5548406484       -0.3930657874       -1.4264593468
 H          1.8559269853        0.8790111486       -1.2460690609
 H         -1.7929525693        2.9868931243       -2.5906027693
 H         -2.5288274332        1.4529692789       -3.0513756811
 H         -3.4647700516        2.6376322061       -2.1251908371
 H         -2.9645583567        2.9037592855        0.4371276489
 H         -1.4249841744        2.2521189357        1.0186430278
 H         -1.4378543160        3.5235654404       -0.2000954272
 H         -4.2471517731       -3.9035725144        0.7498606869
 H         -5.6392797860       -3.0524248001        1.4351745130
 H         -5.4544991437       -3.1640195341       -0.3123826690
 H          0.0546587048       -2.1678807662        3.1027498361
  53
        -68.44299100
 C          5.9611887820       -1.2016976842        1.8421058908
 C          6.5543692379       -0.6364137864        0.5563890034
 C          5.5031197387       -0.3790152422       -0.5245117255
 C          4.6249303730        0.8368075050       -0.2285936728
 C          3.5112259434        1.0372456429       -1.2728497126
 C          2.1437372149        0.6529173097       -0.7772412718
 C          1.9207503611       -0.5609310692       -0.1410568167
 C          0.6541145422       -0.9188106634        0.2947674059
 C         -0.4463971195       -0.0840669966        0.0819263176
 C         -1.8523739123       -0.4600159316        0.4847198943
 C         -2.2656387669       -1.8533663765        0.0904679844
 C         -3.5172427522       -2.1840055022       -0.1926952489
 C         -4.6481294403       -1.1902603550       -0.1925256389
 C         -4.2421406193        0.1691202608        0.3771998708
 C         -2.8512667276        0.5184741531       -0.1412062273
 C         -2.3894417170        1.9693578170        0.0508936824
 O         -1.1504543204        2.1248354749       -0.6503322744
 C         -0.2007050746        1.1667132731       -0.4870248240
 C          1.0757497509        1.5164272344       -0.9249828654
 C         -3.3397467739        2.9642186862       -0.6192272512
 C         -2.1891788861        2.3538961610        1.5202489302
 C         -3.9078326840       -3.5827546807       -0.5674170949
 O          0.4737464040       -2.1006881954        0.9602787904
 H          6.7468319758       -1.3902916092        2.5702341826
 H          5.2499674825       -0.5087551010        2.2842408293
 H          5.4493118588       -2.1414749501        1.6433165240
 H          7.0791371587        0.2958409762        0.7766732813
 H          7.2902469573       -1.3457509655        0.1698605951
 H          4.8830725697       -1.2708377504       -0.6368877444
 H          6.0106749328       -0.2146861086       -1.4786314489
 H          4.1709045235        0.7390324353        0.7580645266
 H          5.2648056878        1.7212752471       -0.2048229950
 H          3.4804057855        2.0819205127       -1.5848541441
 H          3.7423902463        0.4429517708       -2.1615442355
 H          2.7408487288       -1.2446699914        0.0286923076
 H         -1.9176312915       -0.4044225843        1.5821699967
 H         -1.4931024251       -2.6038579275        0.0795615473
 H         -4.9929274223       -1.0648347276       -1.2251702441
 H         -5.4896940965       -1.5974863483        0.3748756407
 H         -4.2263961224        0.1206336558        1.4676954518
 H         -4.9755125600        0.9200320237        0.0814697529
 H         -2.8414776815        0.3456670861       -1.2256278276
 H          1.2031049927        2.4881958113       -1.3753626345
 H         -2.8389361454        3.9251519085       -0.7039002191
 H         -3.6013475230        2.6251558120       -1.6181655092
 H         -4.2437071036        3.0894990593       -0.0315230554
 H         -1.3735485074        1.7846621604        1.9588070934
 H         -1.9376746480        3.4099938223        1.5862114917
 H         -3.0984868994        2.1723733497        2.0859541161
 H         -4.3889067161       -3.5932057059       -1.5455088518
 H         -3.0392603637       -4.2348876068       -0.5979621586
 H         -4.6194077858       -3.9839796469        0.1543938086
 H          1.3271566197       -2.5413926828        1.0505637638
  53
        -68.44295969
 C          7.3558914665       -0.2391112225        1.3701463460
 C          6.5267419667        0.1374463020        0.1483493358
 C          5.3208235936       -0.7844234621       -0.0228393767
 C          4.4529878719       -0.3985154703       -1.2243747916
 C          3.5420817988        0.8081690854       -0.9629599944
 C          2.1398440618        0.4695979726       -0.5278544744
 C          1.8344942821       -0.6661417575        0.2078411357
 C          0.5281297342       -0.9449708451        0.5850906305
 C         -0.5263551468       -0.1032661778        0.2250706712
 C         -1.9674110715       -0.3974179618        0.5672082679
 C         -2.4063916195       -1.8078834212        0.2751758264
 C         -3.6496445705       -2.1244310093       -0.0567553987
 C         -4.7410255620       -1.1002978816       -0.2200605748
 C         -4.3211128365        0.2929283585        0.2489111182
 C         -2.8891163273        0.5492206495       -0.2082625998
 C         -2.3863578639        1.9965063684       -0.1193467427
 O         -1.1029090298        2.0473303425       -0.7526169852
 C         -0.2000509915        1.0808846940       -0.4394543161
 C          1.1109600760        1.3443620080       -0.8278029597
 C         -3.2574636245        2.9546309694       -0.9347759716
 C         -2.2601142507        2.5085939844        1.3190135886
 C         -4.0681568923       -3.5391589134       -0.3269327295
 O          0.2645920894       -2.0544525196        1.3413837374
 H          8.2143483702        0.4211051944        1.4698492597
 H          6.7579865154       -0.1626161950        2.2760753185
 H          7.7179933258       -1.2617370062        1.2855044779
 H          6.1893982289        1.1711117851        0.2483908694
 H          7.1521428137        0.0801602864       -0.7456856172
 H          4.7252773592       -0.7571698843        0.8915934478
 H          5.6821689246       -1.8077045461       -0.1549227723
 H          5.1162721123       -0.1715727949       -2.0619599735
 H          3.8369450391       -1.2479598470       -1.5255060406
 H          3.9950031288        1.4431531337       -0.1961500947
 H          3.4706072925        1.4122856948       -1.8694954017
 H          2.6114706330       -1.3577312665        0.5009152972
 H         -2.0985332464       -0.2382371243        1.6485324409
 H         -1.6626057680       -2.5795851372        0.3823565054
 H         -5.0166588558       -1.0607778276       -1.2799693293
 H         -5.6303885502       -1.4266992038        0.3262879548
 H         -4.3741637348        0.3455910156        1.3380455721
 H         -5.0068058050        1.0354519691       -0.1605268140
 H         -2.8191878857        0.2761833070       -1.2696330665
 H          1.3017344288        2.2615475983       -1.3627193481
 H         -2.7171020260        3.8873359646       -1.0742256782
 H         -3.4715429334        2.5332008455       -1.9134592963
 H         -4.1894939649        3.1620964706       -0.4185264055
 H         -3.2074911832        2.4080544998        1.8407194986
 H         -1.4932629761        1.9574544765        1.8573323255
 H         -1.9747758117        3.5580514219        1.3050827630
 H         -3.2240150329       -4.2180922778       -0.2423400511
 H         -4.8365897472       -3.8489379409        0.3814862287
 H         -4.4889572994       -3.6257100772       -1.3287342946
 H          1.0937225451       -2.5127863796        1.5237695924
  53
        -68.44295499
 C          5.8843480511       -1.4562965161        1.6890800020
 C          6.4989021944       -0.8061204709        0.4544071736
 C          5.4554324049       -0.3928444153       -0.5850481163
 C          4.6592637475        0.8457835666       -0.1724929819
 C          3.5208860416        1.1781002745       -1.1512301519
 C          2.1559234386        0.7512612870       -0.6813842068
 C          1.9431738568       -0.4699354851       -0.0567475620
 C          0.6735306202       -0.8572687983        0.3455284361
 C         -0.4393249110       -0.0459000935        0.1107588178
 C         -1.8453680593       -0.4528368079        0.4814466898
 C         -2.2223536853       -1.8515176773        0.0703778427
 C         -3.4615863080       -2.2052599110       -0.2381758996
 C         -4.6120968815       -1.2343242867       -0.2530585511
 C         -4.2442385277        0.1297654145        0.3312723517
 C         -2.8509577294        0.5094786469       -0.1585134353
 C         -2.4211379543        1.9679179096        0.0501452421
 O         -1.1728266088        2.1512811814       -0.6274144982
 C         -0.2067675660        1.2125933283       -0.4469036005
 C          1.0716179537        1.5912112273       -0.8520961232
 C         -3.3782780010        2.9481717487       -0.6315545045
 C         -2.2552196882        2.3473248577        1.5251151578
 C         -3.8173025353       -3.6090580946       -0.6284683753
 O          0.5032001495       -2.0466097574        1.0002841652
 H          5.3277100851       -2.3494113714        1.4107182126
 H          6.6626947287       -1.7468662865        2.3910021411
 H          5.2089686746       -0.7730963148        2.1979431588
 H          7.0749620468        0.0721226174        0.7541329057
 H          7.1924917354       -1.5149131346       -0.0043404976
 H          4.7805087734       -1.2318000198       -0.7658503854
 H          5.9624658531       -0.1777818206       -1.5292444356
 H          4.2401506155        0.7099252812        0.8250153301
 H          5.3496634871        1.6903979138       -0.1206219067
 H          3.4940933842        2.2538157412       -1.3318516938
 H          3.7247632910        0.6982361838       -2.1132821074
 H          2.7707557376       -1.1383775595        0.1333935353
 H         -1.9341849594       -0.4058109525        1.5776482194
 H         -1.4345681239       -2.5860884511        0.0694398029
 H         -4.9404938536       -1.1098907615       -1.2911281109
 H         -5.4555338393       -1.6616484754        0.2965781077
 H         -4.2483917742        0.0756368044        1.4216206064
 H         -4.9867341650        0.8675378478        0.0253882212
 H         -2.8171107886        0.3430749619       -1.2434244948
 H          1.1887023595        2.5678518318       -1.2948184322
 H         -4.2950286269        3.0522594347       -0.0597409208
 H         -2.8948138149        3.9190859887       -0.7015656824
 H         -3.6149936984        2.6102275801       -1.6370893273
 H         -2.0257171249        3.4077131686        1.6017182899
 H         -3.1709166082        2.1446100216        2.0730593655
 H         -1.4366573594        1.7915030980        1.9752587709
 H         -2.9353246922       -4.2433446963       -0.6481029552
 H         -4.5328045107       -4.0292001997        0.0785534574
 H         -4.2813910697       -3.6227229411       -1.6146801518
 H          1.3636948243       -2.4690716790        1.1091752323
  53
        -68.44294540
 C          8.4160825522       -0.3523396547       -0.3041677047
 C          7.0107247694       -0.7657243482        0.1149330780
 C          5.9481117715        0.1667582034       -0.4618843076
 C          4.5370334333       -0.2426718040       -0.0452614120
 C          3.4896778765        0.6979728917       -0.6335728269
 C          2.0570965199        0.3952862550       -0.2761979601
 C          1.6781206841       -0.6885076236        0.5014389640
 C          0.3386848805       -0.9286288268        0.7785337671
 C         -0.6631057301       -0.0992340482        0.2752561202
 C         -2.1182825927       -0.3918851608        0.5128295124
 C         -2.5291797088       -1.7965117545        0.1705130076
 C         -3.8230116338       -2.0867021331        0.2026300557
 C         -4.7670161024       -1.0081459955        0.6569957112
 C         -4.4720385884        0.3517557347       -0.0102267482
 C         -2.9915542354        0.5157896785       -0.3709259628
 C         -2.4639255759        1.9596115914       -0.3494095350
 O         -1.1486372476        1.9560835108       -0.9162189775
 C         -0.2723714713        1.0266955434       -0.4501421862
 C          1.0705569915        1.2545204058       -0.7327629945
 C         -3.2867409954        2.8633524151       -1.2686632648
 C         -2.3917884490        2.5613388042        1.0578304812
 C         -4.4002233290       -3.4183416464       -0.1559975187
 O         -0.0297838937       -1.9833828718        1.5653519790
 H          8.5113417484       -0.3699591188       -1.3877585656
 H          8.6359382095        0.6555468878        0.0413526220
 H          9.1567923942       -1.0285378104        0.1164776162
 H          6.8171662855       -1.7863456616       -0.2237299851
 H          6.9415111723       -0.7606864456        1.2053596796
 H          6.0192517423        0.1613893611       -1.5522809030
 H          6.1437780367        1.1871628217       -0.1234432191
 H          4.3486515334       -1.2627041106       -0.3876012153
 H          4.4706886344       -0.2297475132        1.0450688744
 H          3.7123666351        1.7199576792       -0.3124890015
 H          3.5760647762        0.6845935277       -1.7245173232
 H          2.4168999810       -1.3651501666        0.9061640177
 H         -2.3564618324       -0.2105252710        1.5703191103
 H         -1.7804545882       -2.5045575220       -0.1413231314
 H         -5.8018744443       -1.2940779666        0.4647762969
 H         -4.6548018744       -0.8962630518        1.7404326857
 H         -4.7899357378        1.1444149835        0.6684495100
 H         -5.0693486600        0.4417211313       -0.9184845936
 H         -2.8474661231        0.1671892256       -1.4018585242
 H          1.3262593107        2.1263388736       -1.3143760949
 H         -2.7842031955        3.8213130239       -1.3735907089
 H         -3.3746347158        2.4131674404       -2.2539139131
 H         -4.2787823191        3.0244021481       -0.8588510013
 H         -2.0752033457        3.5995728249        0.9886211455
 H         -3.3605340619        2.5239387925        1.5471749592
 H         -1.6661512283        2.0254894213        1.6645083648
 H         -4.9614157524       -3.8271614104        0.6843316563
 H         -5.0871157614       -3.3186126856       -0.9967941262
 H         -3.6152541389       -4.1195710532       -0.4267029865
 H          0.7609898412       -2.4604211289        1.8436545130
  53
        -68.44292277
 C          5.6784218625       -2.4660243225       -0.0284138277
 C          6.4083764635       -1.1295148223        0.0474053685
 C          5.4799485986        0.0412284437        0.3752770179
 C          4.5919565380        0.4466100663       -0.8019266809
 C          3.5685527500        1.5312466572       -0.4331348331
 C          2.1824686899        1.0162400104       -0.1472188697
 C          1.9581036345       -0.1891640851        0.5025246741
 C          0.6696841427       -0.6438490233        0.7438757773
 C         -0.4462709928        0.0864611228        0.3286658743
 C         -1.8639003579       -0.3953921729        0.5246522845
 C         -2.1001865264       -1.8291596800        0.1298338773
 C         -3.2630085348       -2.2715167103       -0.3265080316
 C         -4.4544743719       -1.3763009484       -0.5400902551
 C         -4.2495438978        0.0283084420        0.0277267517
 C         -2.8266321600        0.4776570137       -0.2865090612
 C         -2.5151792554        1.9670360496       -0.0863852402
 O         -1.1986383763        2.2053997108       -0.5969057626
 C         -0.2133553708        1.3370938412       -0.2468819563
 C          1.0836231155        1.7774789000       -0.5006787488
 C         -3.4251783854        2.8593690554       -0.9333872899
 C         -2.5754473990        2.4088435209        1.3792797717
 C         -3.4804803469       -3.7084090558       -0.6975399292
 O          0.4820400893       -1.8194834658        1.4185227629
 H          5.1949062702       -2.6893168806        0.9209968919
 H          4.9209551380       -2.4564192715       -0.8080857501
 H          6.3792616451       -3.2680670414       -0.2486744148
 H          7.1786337859       -1.1960387715        0.8195708478
 H          6.9101409803       -0.9346036255       -0.9030185341
 H          6.0869654552        0.9040929809        0.6615484142
 H          4.8659072195       -0.2205571782        1.2392153107
 H          5.2384386331        0.8181922820       -1.6000254380
 H          4.0622083728       -0.4220507464       -1.1939881910
 H          3.9270328875        2.0773841170        0.4450992920
 H          3.4937744114        2.2548541619       -1.2467340061
 H          2.7881001403       -0.7969097117        0.8330711674
 H         -2.1041060536       -0.3142590118        1.5958929953
 H         -1.2788795422       -2.5122689292        0.2678853274
 H         -4.6434867722       -1.3102870222       -1.6175243714
 H         -5.3394604732       -1.8358692969       -0.0910979128
 H         -4.3997485821        0.0130900925        1.1089294346
 H         -4.9844844055        0.7062819864       -0.4074461549
 H         -2.6349691540        0.2751581974       -1.3486746168
 H          1.2036516804        2.7396726109       -0.9733555265
 H         -4.4159790385        2.9259540972       -0.4950709743
 H         -2.9935208834        3.8557623563       -0.9808778860
 H         -3.5022484384        2.4708512853       -1.9455110563
 H         -1.7954033893        1.9227811149        1.9597122289
 H         -2.4207472720        3.4837605292        1.4391495247
 H         -3.5442869623        2.1680533337        1.8072451426
 H         -4.2611319924       -4.1464049399       -0.0754036280
 H         -3.8029504784       -3.7876727654       -1.7357696427
 H         -2.5692550729       -4.2861711558       -0.5692298331
 H          1.3431697987       -2.1863514100        1.6522272106
  53
        -68.44261850
 C          7.0257326492       -0.5992015239       -1.0959451251
 C          6.7012063589        0.0307207681        0.2546935510
 C          5.7927019461        1.2637972436        0.1461541400
 C          4.3167564877        0.9835430293        0.4317412568
 C          3.6561496710        0.0395997203       -0.5789111701
 C          2.1877137050       -0.0825050132       -0.2909891751
 C          1.7271637599       -1.0287664853        0.6109803087
 C          0.3737720067       -1.1306289095        0.8997802274
 C         -0.5549643380       -0.2903012795        0.2799301402
 C         -2.0353226398       -0.4338576526        0.5259831401
 C         -2.5655708295       -1.8310572399        0.3313991087
 C         -3.8804836340       -2.0063767324        0.3952761824
 C         -4.7194751879       -0.8071035178        0.7339491970
 C         -4.3182646476        0.4329310665       -0.0947787860
 C         -2.8314086344        0.4320559835       -0.4675993051
 C         -2.1830373487        1.8187683284       -0.6123143121
 O         -0.8773040348        1.6337417308       -1.1650454116
 C         -0.0757561282        0.7037194263       -0.5742020610
 C          1.2817854775        0.7916931406       -0.8656430108
 C         -2.9316236042        2.6711470709       -1.6377116041
 C         -2.0573249157        2.5755871461        0.7144346606
 C         -4.5699564606       -3.3113310543        0.1662381433
 O          0.0025940098       -2.0694616558        1.8172557552
 H          6.1231279082       -0.9080485435       -1.6154403175
 H          7.5554462255        0.1120099015       -1.7266772082
 H          7.6603080890       -1.4731945111       -0.9628145858
 H          6.2288150595       -0.7119873886        0.9005629067
 H          7.6422887225        0.3180405032        0.7292621224
 H          5.8905809529        1.6983800785       -0.8509055926
 H          6.1270433942        2.0178763234        0.8626055160
 H          4.2150918234        0.5577091030        1.4326000003
 H          3.7731473035        1.9316688941        0.4231803115
 H          3.8036257991        0.4338958343       -1.5861298879
 H          4.1198752455       -0.9449333332       -0.5153133312
 H          2.4061216805       -1.7053410162        1.1051698579
 H         -2.2781097044       -0.0969750255        1.5468928660
 H         -1.8917377367       -2.6236677647        0.0428384457
 H         -5.7779392999       -1.0218237695        0.5850633071
 H         -4.5799703739       -0.5780647982        1.7957784240
 H         -4.5672276601        1.3254309950        0.4805399620
 H         -4.9121263435        0.4575885667       -1.0089210371
 H         -2.7195044282       -0.0464273198       -1.4489893897
 H          1.6069177663        1.5620069884       -1.5469182853
 H         -3.9043793999        2.9641926171       -1.2555512376
 H         -2.3497798359        3.5630802903       -1.8541909204
 H         -3.0617836940        2.1150813320       -2.5623495831
 H         -1.6692380279        3.5729858834        0.5219929626
 H         -3.0216451202        2.6660077030        1.2059108296
 H         -1.3637074836        2.0675191768        1.3800413635
 H         -5.1617006408       -3.5859750979        1.0395198475
 H         -5.2491516817       -3.2326563565       -0.6824916965
 H         -3.8509420176       -4.1016563981       -0.0337669326
 H         -0.9578807263       -2.0669271781        1.9151159021
  53
        -68.44231428
 C          6.5022567510        0.4116801854       -2.6751627476
 C          6.7001287628        1.0515181364       -1.3058778204
 C          5.9232639782        0.3462790808       -0.1935170770
 C          4.4082538510        0.4825119436       -0.3360607845
 C          3.6864997930       -0.1305287703        0.8599306851
 C          2.1815841661       -0.1250515261        0.7829024110
 C          1.4701035363       -0.7945192072        1.7745044445
 C          0.0863920256       -0.8390763327        1.7567237440
 C         -0.6357008574       -0.2222458314        0.7317382789
 C         -2.1338432434       -0.3207676964        0.6584777021
 C         -2.6659589291       -1.7226644120        0.7604237625
 C         -3.9617379015       -1.9084372161        0.5466696204
 C         -4.8076442288       -0.6904241492        0.2981478510
 C         -4.1632853074        0.2762855588       -0.7175509193
 C         -2.6323446976        0.2078321204       -0.6978347702
 C         -1.9091990008        1.5134050201       -1.0666411172
 O         -0.5153421715        1.2187136276       -1.2122806523
 C          0.0775249577        0.5024960647       -0.2195833438
 C          1.4723636566        0.5342916748       -0.2009490883
 C         -2.3504773388        2.0215289388       -2.4399603885
 C         -2.0714228443        2.6174733990       -0.0167219845
 C         -4.6389772900       -3.2411152598        0.5628195779
 O         -0.6085804295       -1.4764498753        2.7452293457
 H          5.4706070279        0.5035297439       -3.0039260601
 H          7.1368796466        0.8967418272       -3.4136249111
 H          6.7611327833       -0.6445834207       -2.6422607308
 H          7.7639310987        1.0274199841       -1.0565483759
 H          6.3956061812        2.0998496636       -1.3483663875
 H          6.2260360293        0.7726976422        0.7667266695
 H          6.1932960074       -0.7126702400       -0.1831924363
 H          4.1536350912        1.5412043203       -0.4148925263
 H          4.0776989276       -0.0193894914       -1.2459171027
 H          4.0177955288       -1.1669760431        0.9785569003
 H          3.9858408371        0.4025091354        1.7687000468
 H          2.0056554104       -1.2896498904        2.5751884981
 H         -2.5764419677        0.2760840567        1.4682783433
 H         -1.9834994542       -2.5343752236        0.9463082275
 H         -5.8026705936       -0.9745535965       -0.0465603852
 H         -4.9296473709       -0.1644440254        1.2507258691
 H         -4.5034613260        1.2881730614       -0.4932079245
 H         -4.5155630807        0.0290698093       -1.7198655540
 H         -2.3106463891       -0.5265013671       -1.4477437268
 H          1.9619518802        1.0972431771       -0.9769472699
 H         -1.6971176830        2.8330975454       -2.7493213096
 H         -2.2770937217        1.2240092923       -3.1745709023
 H         -3.3736001642        2.3819302283       -2.4039418335
 H         -1.5944236081        2.3285982685        0.9164214274
 H         -1.5935096700        3.5265619142       -0.3746413281
 H         -3.1207021383        2.8254541654        0.1703972843
 H         -3.9300614060       -4.0320585202        0.7932141249
 H         -5.4334846027       -3.2536776426        1.3090498836
 H         -5.0915548025       -3.4469926811       -0.4075286247
 H          0.0155926087       -1.8452995221        3.3812861562
  53
        -68.44230607
 C          6.5534407373        0.6180156740       -2.6322072741
 C          6.7064446779        1.1679452008       -1.2188478121
 C          5.9289501178        0.3673580788       -0.1735053846
 C          4.4135433971        0.4842370588       -0.3285365746
 C          3.6885243705       -0.2457370078        0.7975107228
 C          2.1832849949       -0.2075259886        0.7363279729
 C          1.4697361001       -0.8575093756        1.7395318582
 C          0.0854611535       -0.8776735551        1.7356658712
 C         -0.6358214553       -0.2538012354        0.7143321957
 C         -2.1363874696       -0.3218564286        0.6593215273
 C         -2.6966828596       -1.7113106625        0.7783243133
 C         -3.9989181779       -1.8705125461        0.5828611298
 C         -4.8212128199       -0.6360004076        0.3361317378
 C         -4.1695774012        0.3077478235       -0.6963326319
 C         -2.6402178500        0.2075258952       -0.6947284745
 C         -1.8947768206        1.4951982382       -1.0815528603
 O         -0.5090993589        1.1707800312       -1.2412007464
 C          0.0807634924        0.4504298604       -0.2496535388
 C          1.4762234150        0.4562517175       -0.2459513975
 C         -2.3416969409        2.0024357193       -2.4533097180
 C         -2.0218227065        2.6097510881       -0.0379929839
 C         -4.7047870868       -3.1880605542        0.6178391850
 O         -0.6107589757       -1.4955462224        2.7355635488
 H          5.5256502875        0.7012657428       -2.9750309728
 H          7.1859701333        1.1714396250       -3.3228026509
 H          6.8446079503       -0.4297818728       -2.6659965805
 H          7.7655214523        1.1556508203       -0.9494423325
 H          6.3729164546        2.2079896497       -1.1962261314
 H          6.2095792396        0.7271708058        0.8201229385
 H          6.2205105855       -0.6839681904       -0.2372036789
 H          4.1352303779        1.5400060789       -0.3179401075
 H          4.1091305079        0.0576355266       -1.2846020013
 H          4.0027504404       -1.2945616904        0.7983599627
 H          4.0029176533        0.1783193983        1.7568832504
 H          2.0044753561       -1.3562637896        2.5384980439
 H         -2.5565633696        0.2899647054        1.4699264553
 H         -2.0293126334       -2.5361511500        0.9613486748
 H         -5.8269911274       -0.9005944671        0.0074472512
 H         -4.9182060740       -0.0996913523        1.2858395366
 H         -4.4859039209        1.3284651706       -0.4772432762
 H         -4.5394246832        0.0587906533       -1.6918830572
 H         -2.3430592602       -0.5386137217       -1.4431139652
 H          1.9675768640        1.0037864749       -1.0318078219
 H         -1.6758283620        2.7984135221       -2.7761137974
 H         -2.2930994236        1.1984074082       -3.1828376622
 H         -3.3568231490        2.3836635224       -2.4080113448
 H         -1.5396542186        2.3176887437        0.8914495464
 H         -1.5297378776        3.5062007763       -0.4082861139
 H         -3.0643027197        2.8404567633        0.1600032809
 H         -5.1759994698       -3.3903078263       -0.3444014493
 H         -4.0102219552       -3.9930906558        0.8433828196
 H         -5.4885934347       -3.1783886306        1.3754011384
 H          0.0131431004       -1.8719342891        3.3674742570
  53
        -68.44229237
 C          6.6324881190        1.8406933322       -1.9860993677
 C          6.6667777268        0.3570884247       -1.6375913921
 C          5.9106379405        0.0218597132       -0.3514404952
 C          4.3995965638        0.2102394308       -0.4732763142
 C          3.6868203236       -0.2078941062        0.8098896411
 C          2.1816582859       -0.1926973636        0.7452888771
 C          1.4695536501       -0.8585430529        1.7382787632
 C          0.0849060767       -0.8825804055        1.7327235683
 C         -0.6371556446       -0.2491686228        0.7181813831
 C         -2.1371929980       -0.3250464375        0.6581946430
 C         -2.6897736341       -1.7191799782        0.7578232798
 C         -3.9904837889       -1.8834669235        0.5566090245
 C         -4.8192362834       -0.6507901010        0.3232327010
 C         -4.1702512471        0.3098821901       -0.6952162605
 C         -2.6403241938        0.2187539773       -0.6903881029
 C         -1.9014493763        1.5156885769       -1.0584693892
 O         -0.5134212835        1.2015579318       -1.2185327059
 C          0.0780422872        0.4711425338       -0.2354118481
 C          1.4729735569        0.4832856379       -0.2281684451
 C         -2.3476775942        2.0380515462       -2.4248265393
 C         -2.0379680366        2.6158480454       -0.0007893266
 C         -4.6886535012       -3.2053331129        0.5728653570
 O         -0.6101769448       -1.5165902079        2.7232798939
 H          7.2508284763        2.0375340903       -2.8590955998
 H          5.6203299954        2.1669950060       -2.2095979767
 H          7.0117316521        2.4348769020       -1.1572101869
 H          6.2438992109       -0.2194050266       -2.4635606993
 H          7.7083894727        0.0482410026       -1.5189616833
 H          6.2894251913        0.6471606467        0.4610120840
 H          6.1157595070       -1.0193743338       -0.0885062838
 H          4.1821742548        1.2574157624       -0.6825127084
 H          4.0267545961       -0.3903400024       -1.3057491638
 H          4.0071373821       -1.2185302984        1.0802823539
 H          4.0039924128        0.4530875156        1.6238220490
 H          2.0041981284       -1.3669488016        2.5312058431
 H         -2.5630566212        0.2740192103        1.4753260811
 H         -2.0181862117       -2.5423974832        0.9322355477
 H         -5.8225098376       -0.9170410636       -0.0117002507
 H         -4.9221187678       -0.1272518819        1.2794172840
 H         -4.4933438664        1.3258681712       -0.4642984974
 H         -4.5355795382        0.0713986881       -1.6949552609
 H         -2.3365320483       -0.5158213800       -1.4474674617
 H          1.9647379158        1.0436941137       -1.0047283352
 H         -3.3651068535        2.4128957913       -2.3773990528
 H         -1.6855590216        2.8419435105       -2.7355330818
 H         -2.2925004483        1.2438268342       -3.1645741503
 H         -1.5563542955        2.3148650414        0.9261326096
 H         -1.5505311073        3.5201004140       -0.3580489574
 H         -3.0823377417        2.8376760668        0.1975215659
 H         -3.9898632443       -4.0088981225        0.7900501209
 H         -5.4743209859       -3.2099457948        1.3285054889
 H         -5.1560672379       -3.3980926019       -0.3931144286
 H          0.0143254531       -1.8986629420        3.3511645254
  53
        -68.44224643
 C          5.4185489222        1.2928872594       -1.9690447753
 C          5.4003649410       -0.2289979888       -1.8990606166
 C          4.3469003485       -0.7981455300       -0.9467259902
 C          4.5861716670       -0.4721831774        0.5325954008
 C          3.8004861558        0.7482541707        1.0357056579
 C          2.3188150281        0.5193133517        0.9536763427
 C          1.6885369826       -0.3178543504        1.8657182778
 C          0.3309524971       -0.5777775575        1.7688805829
 C         -0.4352018558       -0.0156457148        0.7446466250
 C         -1.8940834053       -0.3433154674        0.5900932835
 C         -2.1981029499       -1.8152135548        0.5782389026
 C         -3.4384203666       -2.1869869921        0.2907245573
 C         -4.4580116025       -1.1025033159        0.0781344674
 C         -3.9384509537        0.0210891742       -0.8433119025
 C         -2.4181479336        0.1927380070       -0.7536099910
 C         -1.8997157548        1.6179782225       -1.0053087210
 O         -0.4720287009        1.5560916351       -1.1005933434
 C          0.1883003659        0.8775209451       -0.1246161017
 C          1.5568000693        1.1244840844       -0.0274266327
 C         -2.3633109362        2.1438442853       -2.3644451762
 C         -2.2762995504        2.6080165284        0.1016773931
 C         -3.8939699115       -3.6073346533        0.1905579023
 O         -0.2973174285       -1.3784546411        2.6803121891
 H          6.1038333333        1.6247909483       -2.7466799534
 H          4.4269542740        1.6739666257       -2.2025969252
 H          5.7470811716        1.7235611079       -1.0268287501
 H          5.2009841560       -0.6224821902       -2.8991720502
 H          6.3882071117       -0.5876429393       -1.5980736641
 H          4.3455534303       -1.8838485603       -1.0704818181
 H          3.3589062842       -0.4388522717       -1.2396316966
 H          4.2914631797       -1.3321186945        1.1379445410
 H          5.6521551047       -0.3044363587        0.7016543982
 H          4.0822371168        0.9335187750        2.0758307397
 H          4.0632755653        1.6281583928        0.4510404059
 H          2.2599343099       -0.7704437017        2.6663401577
 H         -2.4578886673        0.1188137793        1.4125915969
 H         -1.4019716074       -2.5204987220        0.7454756513
 H         -5.3812000718       -1.5146463418       -0.3310825369
 H         -4.6982592032       -0.6691794222        1.0545927348
 H         -4.4443472609        0.9491573142       -0.5736522440
 H         -4.2081015100       -0.2088545843       -1.8749298860
 H         -1.9549280870       -0.4286127859       -1.5311285522
 H          1.9983813165        1.8129397217       -0.7307597095
 H         -1.8371529212        3.0676346889       -2.5904262592
 H         -2.1348726630        1.4204262086       -3.1426754518
 H         -3.4316045449        2.3353112443       -2.3562413188
 H         -3.3518179564        2.6361085212        0.2490843635
 H         -1.7963773943        2.3337023523        1.0377329429
 H         -1.9355235969        3.6031098756       -0.1751062619
 H         -4.2719630645       -3.8134282673       -0.8111208815
 H         -3.0767776741       -4.2913750015        0.4038161060
 H         -4.7031121635       -3.7966278152        0.8960200806
 H          0.3485117810       -1.6866900757        3.3269190808
  53
        -68.44221066
 C          5.4789395428        1.7965199906       -1.6896627838
 C          5.4781772385        2.1717826567       -0.2129955122
 C          4.4313125837        1.4288549739        0.6193835327
 C          4.6649170056       -0.0828286638        0.7295977927
 C          3.8573704652       -0.9124560005       -0.2802157042
 C          2.3789835770       -0.7698074594       -0.0581475703
 C          1.7719284855       -1.3871737044        1.0282379789
 C          0.4111424151       -1.2519129561        1.2515641142
 C         -0.3863179998       -0.5002611625        0.3849265305
 C         -1.8743104998       -0.4051369103        0.5762554455
 C         -2.5615035388       -1.7324636696        0.7351551132
 C         -3.8877151715       -1.7433328345        0.7505346718
 C         -4.5954599865       -0.4180952110        0.6889306588
 C         -4.0140459314        0.5098047658       -0.3985005516
 C         -2.5265565311        0.2458986809       -0.6559120094
 C         -1.7111213721        1.4642077807       -1.1183277016
 O         -0.4166482343        1.0003456059       -1.5188531769
 C          0.2389059949        0.1695685714       -0.6650840723
 C          1.6059412195        0.0164132753       -0.8910806402
 C         -2.3137705626        2.0881497912       -2.3777585535
 C         -1.5369205885        2.5298219707       -0.0312598574
 C         -4.7219796203       -2.9797715246        0.8514240824
 O         -0.1847240055       -1.8407134058        2.3308066057
 H          6.1629719160        2.4397270659       -2.2399475355
 H          5.7993424999        0.7677071186       -1.8312188775
 H          4.4839503210        1.9155433783       -2.1126844822
 H          6.4699121473        1.9840075551        0.2067618955
 H          5.2839920027        3.2438803285       -0.1244512317
 H          3.4388870199        1.6105207075        0.2033530405
 H          4.4445854355        1.8600747299        1.6233832007
 H          5.7276559951       -0.2980828292        0.5983566120
 H          4.3873157765       -0.4132759259        1.7328263721
 H          4.1008180151       -0.6041748688       -1.2955485404
 H          4.1401723407       -1.9624090513       -0.1659941462
 H          2.3642249408       -1.9863496001        1.7082716854
 H         -2.0872739834        0.2029515397        1.4666385082
 H         -1.9708296528       -2.6317816519        0.7746314202
 H         -5.6636289234       -0.5580186200        0.5187915654
 H         -4.4809842152        0.0709322395        1.6618734166
 H         -4.1705212973        1.5439128111       -0.0884029452
 H         -4.5655090730        0.3613514010       -1.3278403728
 H         -2.4424145903       -0.4876270012       -1.4683571433
 H          2.0400752810        0.5295861577       -1.7347878019
 H         -2.4769347465        1.3230241787       -3.1321413734
 H         -3.2575410478        2.5733991737       -2.1500689463
 H         -1.6224726744        2.8239280136       -2.7802748277
 H         -1.0087907728        3.3847506731       -0.4474776742
 H         -2.4997835669        2.8637105559        0.3437966950
 H         -0.9499390927        2.1383191227        0.7957909664
 H         -5.3595972210       -3.0783697366       -0.0274198713
 H         -4.0948022783       -3.8638991044        0.9296589048
 H         -5.3692356752       -2.9301638757        1.7270702114
 H          0.4829153614       -2.3171565679        2.8382034918
  53
        -68.44203110
 C          7.1540274093       -1.7739282785       -0.4430503629
 C          7.1207428872       -0.3766430402        0.1654280471
 C          5.9978321625        0.4980308671       -0.3934389514
 C          4.6027193864        0.0162062123        0.0010780221
 C          3.5299339067        0.9848800896       -0.4879775525
 C          2.1053785315        0.5979287390       -0.1835967601
 C          1.7608832536       -0.5285228313        0.5481912310
 C          0.4284751600       -0.8411595196        0.7838122684
 C         -0.6000544188       -0.0425026449        0.2848494750
 C         -2.0446741170       -0.4100555864        0.4788332297
 C         -2.3823899853       -1.8194096717        0.0805805841
 C         -3.6616976203       -2.1695491738        0.0744921417
 C         -4.6638229578       -1.1514622877        0.5436240035
 C         -4.4190695880        0.2422360750       -0.0721416674
 C         -2.9405725696        0.4866226386       -0.3934449818
 C         -2.4814832820        1.9515312625       -0.3112115403
 O         -1.1558684608        2.0281276679       -0.8479073526
 C         -0.2470801765        1.1249177263       -0.3927628786
 C          1.0894215184        1.4246335092       -0.6357189905
 C         -3.3260985276        2.8479772463       -1.2177365961
 C         -2.4672726747        2.5065147803        1.1168576874
 C         -4.1690320224       -3.5130278740       -0.3411281052
 O          0.0928764984       -1.9390196596        1.5251790006
 H          6.2587061980       -2.3342985186       -0.1868668424
 H          7.2248227820       -1.7147677933       -1.5270998305
 H          8.0152331603       -2.3261131153       -0.0733841364
 H          7.0107929907       -0.4551362164        1.2497429952
 H          8.0759906994        0.1154402137       -0.0334161226
 H          6.0755483106        0.5295659134       -1.4828419986
 H          6.1339579330        1.5177140899       -0.0237815101
 H          4.4212405630       -0.9685050898       -0.4317564658
 H          4.5531927068       -0.0685958758        1.0890877017
 H          3.7157720292        1.9708207365       -0.0505037841
 H          3.6251510862        1.0985421115       -1.5720952713
 H          2.5216008735       -1.1826797713        0.9493034611
 H         -2.3134027698       -0.2764311983        1.5361342231
 H         -1.5952288457       -2.4811747449       -0.2381676958
 H         -5.6802082070       -1.4778230888        0.3198695350
 H         -4.5786396707       -1.0711758645        1.6323151647
 H         -4.7883166697        0.9961436064        0.6244843775
 H         -5.0005107696        0.3348006567       -0.9903992227
 H         -2.7585563952        0.1811052913       -1.4320232398
 H          1.3164568008        2.3270822664       -1.1814292172
 H         -2.8667960826        3.8311095039       -1.2786975815
 H         -3.3720646656        2.4289068334       -2.2194083520
 H         -4.3330005184        2.9488430480       -0.8253318618
 H         -1.7300402390        1.9839784180        1.7212019029
 H         -2.1984440034        3.5600720095        1.0899282776
 H         -3.4432013347        2.4072317456        1.5827724616
 H         -4.7280987858       -3.9755352977        0.4723564412
 H         -4.8421698524       -3.4158442185       -1.1932686027
 H         -3.3470238649       -4.1681203329       -0.6174469923
 H          0.8988881070       -2.3875854517        1.8070418535
  53
        -68.44202952
 C          7.3065816088       -0.7392735544        1.2033733008
 C          7.0973797699       -0.6204002913       -0.3018803824
 C          5.9829503799        0.3555963154       -0.6811014288
 C          4.5928677620       -0.1222419645       -0.2645042616
 C          3.5117480057        0.8274152754       -0.7722278775
 C          2.0958545165        0.4751225445       -0.3944599969
 C          1.7559516119       -0.6777530759        0.2972454585
 C          0.4294566002       -0.9616803932        0.5943096122
 C         -0.5987109752       -0.1078920192        0.1959790339
 C         -2.0416663734       -0.4430550031        0.4512171256
 C         -2.4440136869       -1.8201943564        0.0033992459
 C         -3.7321296004       -2.1330160886        0.0500895874
 C         -4.6756005869       -1.1115547454        0.6222034612
 C         -4.4206460007        0.3033558286        0.0615044896
 C         -2.9539568124        0.5220053101       -0.3259507096
 C         -2.4464237473        1.9673423809       -0.1956794624
 O         -1.1487652006        2.0344244623       -0.7979612867
 C         -0.2460951319        1.0824158683       -0.4407407027
 C          1.0840545866        1.3551521069       -0.7433773441
 C         -3.3090907668        2.9322859281       -1.0102664862
 C         -2.3410471565        2.4478124812        1.2554048656
 C         -4.3023182104       -3.4389070171       -0.4022407380
 O          0.1003244762       -2.0860168014        1.2979199436
 H          7.4966874279        0.2393283222        1.6390001443
 H          6.4330605622       -1.1676154557        1.6877153287
 H          8.1591082749       -1.3803504234        1.4165015275
 H          8.0289137594       -0.2789727538       -0.7597865670
 H          6.8694658882       -1.6056419923       -0.7156011068
 H          5.9955814646        0.4940766147       -1.7653439399
 H          6.1847117615        1.3267270545       -0.2227438598
 H          4.4259473905       -1.1213144719       -0.6734418519
 H          4.5380361170       -0.1796109814        0.8235303536
 H          3.7233857652        1.8344308667       -0.4005485350
 H          3.5674664362        0.8766524399       -1.8643655446
 H          2.5157344705       -1.3760677009        0.6175577079
 H         -2.2493727462       -0.3553796977        1.5268970941
 H         -1.6959999825       -2.4872292161       -0.3898942183
 H         -5.7121953105       -1.3971821095        0.4391054600
 H         -4.5298829101       -1.0879107613        1.7071764162
 H         -4.7303454419        1.0319693685        0.8119371993
 H         -5.0457150881        0.4570993979       -0.8190896787
 H         -2.8358468244        0.2651336261       -1.3866883168
 H          1.3094980970        2.2779211880       -1.2546406527
 H         -2.8236693975        3.9040271533       -1.0467696325
 H         -3.4196765541        2.5664143639       -2.0276228287
 H         -4.2907614643        3.0410230427       -0.5602608126
 H         -3.2938340675        2.3513651045        1.7674644294
 H         -1.5892400158        1.8750955031        1.7925213301
 H         -2.0426181084        3.4936359962        1.2666069910
 H         -5.0167864568       -3.2799838734       -1.2103213625
 H         -3.5168503476       -4.1020629247       -0.7550329972
 H         -4.8310002185       -3.9260426719        0.4171666146
 H          0.9056767809       -2.5732551492        1.5084698927
  53
        -68.44198708
 C          6.0782084004       -1.3067256569        0.4431294370
 C          5.7097025145       -1.2045105443       -1.0317992081
 C          4.3727250308       -0.5089108561       -1.2959580101
 C          4.3414445612        0.9747541606       -0.9083634365
 C          3.7363967931        1.2429221886        0.4775175672
 C          2.2905408122        0.8402989899        0.5317233171
 C          1.8924412823       -0.2992356574        1.2172223586
 C          0.5628866291       -0.6950677683        1.2244382725
 C         -0.4048548885        0.0343670387        0.5318309658
 C         -1.8361671467       -0.4216740171        0.4770571879
 C         -2.0120957188       -1.8529743108        0.0533789821
 C         -3.2467778530       -2.2837153062       -0.1686352729
 C         -4.3757417904       -1.3272653678        0.0986537314
 C         -4.1123132862        0.0737584301       -0.4923131329
 C         -2.6181371704        0.4088943197       -0.5553879851
 C         -2.2707090402        1.9005304832       -0.4225575211
 O         -0.8784064280        2.0559397380       -0.7198012112
 C         -0.0101647174        1.2156509074       -0.0963853892
 C          1.3281569477        1.5996745188       -0.1082442954
 C         -2.9951624344        2.7339748023       -1.4805127435
 C         -2.5418382188        2.4676119424        0.9747323560
 C         -3.5904933349       -3.6602569016       -0.6397606507
 O          0.1647422611       -1.8022383952        1.9193252743
 H          6.9810377416       -1.9021530799        0.5646056824
 H          6.2647557403       -0.3239761881        0.8678840300
 H          5.2774448246       -1.7848522917        1.0033511815
 H          6.5018571081       -0.6711213756       -1.5632208714
 H          5.6576889253       -2.2130738188       -1.4503597461
 H          3.5756864995       -1.0360820666       -0.7687384109
 H          4.1631416888       -0.5969634083       -2.3644791969
 H          5.3546434851        1.3812780271       -0.9408467453
 H          3.7451749271        1.5213837509       -1.6412008534
 H          4.2953364271        0.7032962398        1.2412083381
 H          3.8200236448        2.3122810867        0.6870341225
 H          2.6216234944       -0.8865236786        1.7616481955
 H         -2.2938730566       -0.2966671126        1.4684616016
 H         -1.1424618049       -2.4662242711       -0.1106562857
 H         -5.3153962522       -1.7193772695       -0.2923820779
 H         -4.4876583316       -1.2323059941        1.1837415814
 H         -4.6434150529        0.8086414800        0.1141755941
 H         -4.5281913011        0.1211383145       -1.4995969347
 H         -2.2385864459        0.1067994052       -1.5401828484
 H          1.5911247348        2.5121014321       -0.6195858478
 H         -2.5937136034        3.7439782395       -1.4785933430
 H         -2.8375825070        2.3047546531       -2.4664550922
 H         -4.0598241952        2.7734304333       -1.2732858571
 H         -2.3360308606        3.5356028155        0.9749905499
 H         -3.5769619733        2.3117976642        1.2637407035
 H         -1.8930822471        1.9973750470        1.7094230398
 H         -4.2534374283       -4.1505192575        0.0732474012
 H         -4.1093820359       -3.6135020114       -1.5975086983
 H         -2.6943046847       -4.2639491377       -0.7564009311
 H          0.9310435785       -2.1945725563        2.3541404695
  53
        -68.44191599
 C          5.9215868391        1.3480384695       -1.9716265244
 C          6.4145530596        1.5920921035       -0.5508123314
 C          5.9461782790        0.5398363146        0.4560707899
 C          4.4253994556        0.5024488069        0.6595606208
 C          3.7364416455       -0.6182780049       -0.1304433646
 C          2.2486721391       -0.5543526649        0.0612515283
 C          1.6446761064       -1.2164959792        1.1215005379
 C          0.2739810655       -1.1407095845        1.3154083056
 C         -0.5328477999       -0.4046134218        0.4450115562
 C         -2.0275733251       -0.3748252694        0.6026248855
 C         -2.6625632314       -1.7323521569        0.7171827371
 C         -3.9871997551       -1.7977124426        0.7013909357
 C         -4.7473359621       -0.5013334462        0.6512206455
 C         -4.1805927275        0.4727232497       -0.4031415996
 C         -2.6778269716        0.2762116270       -0.6305422405
 C         -1.9034713466        1.5371882774       -1.0468443221
 O         -0.5817881834        1.1364158361       -1.4259378346
 C          0.0886546253        0.3150072551       -0.5748571366
 C          1.4649188509        0.2228119789       -0.7707043576
 C         -2.5022670076        2.1638180453       -2.3068262637
 C         -1.7995624914        2.5842840093        0.0668731561
 C         -4.7718699486       -3.0690187001        0.7566735340
 O         -0.3214379150       -1.7744381617        2.3691443313
 H          6.3603338494        2.0758101094       -2.6512693440
 H          6.2043351760        0.3527884167       -2.3085492749
 H          4.8407578714        1.4427486061       -2.0296215780
 H          7.5076833086        1.6015756145       -0.5533250596
 H          6.0794252857        2.5774802233       -0.2181078396
 H          6.4292487169        0.7585536436        1.4113206021
 H          6.2947087265       -0.4442314572        0.1349134681
 H          4.2001204320        0.3545890886        1.7181217421
 H          3.9909532762        1.4611268746        0.3705719689
 H          3.9728793396       -0.5224102934       -1.1895553496
 H          4.1146413578       -1.5819690492        0.2180589486
 H          2.2463952841       -1.8028581789        1.8044419905
 H         -2.2859213068        0.2040984300        1.5003934945
 H         -2.0361373488       -2.6073542588        0.7512934402
 H         -5.8048960014       -0.6807609609        0.4537392383
 H         -4.6744856844       -0.0292984468        1.6365274326
 H         -4.3872789134        1.4926546027       -0.0760424610
 H         -4.7039795287        0.3214182954       -1.3481226459
 H         -2.5444583125       -0.4347026675       -1.4563499980
 H          1.9003570429        0.7769640951       -1.5871600733
 H         -3.4703304856        2.6048442520       -2.0915391727
 H         -1.8328181867        2.9359944169       -2.6767837647
 H         -2.6161526487        1.4096948466       -3.0810798611
 H         -1.2153670197        2.1990269884        0.8987724219
 H         -1.2986979192        3.4696479570       -0.3181921564
 H         -2.7839604573        2.8690560205        0.4262041056
 H         -4.1107176304       -3.9284414827        0.8303997422
 H         -5.4397473195       -3.0652998885        1.6181416803
 H         -5.3853671095       -3.1738328380       -0.1385144187
 H          0.3534918127       -2.2344332391        2.8820922087
  53
        -68.44191412
 C          5.9128520181        1.3971596076       -1.9470817310
 C          6.4159369936        1.5969463569       -0.5228962903
 C          5.9505668365        0.5159611114        0.4544901682
 C          4.4307273791        0.4767189324        0.6649159236
 C          3.7357463444       -0.6225255512       -0.1495797881
 C          2.2485674838       -0.5572864044        0.0462861629
 C          1.6470142146       -1.2233657083        1.1055496825
 C          0.2770999795       -1.1466235304        1.3042345430
 C         -0.5317434016       -0.4063706651        0.4391511332
 C         -2.0260403665       -0.3755611613        0.6010870611
 C         -2.6621440094       -1.7324816719        0.7164627062
 C         -3.9869462156       -1.7962650384        0.7054991400
 C         -4.7452378173       -0.4987801695        0.6580250067
 C         -4.1815431149        0.4729714652       -0.3999255320
 C         -2.6788660667        0.2775824582       -0.6296793806
 C         -1.9059862730        1.5400053196       -1.0444226501
 O         -0.5845347072        1.1412949058       -1.4263360093
 C          0.0874188684        0.3164949545       -0.5798214742
 C          1.4631241462        0.2241695295       -0.7799119649
 C         -2.5070354432        2.1688378276       -2.3022487177
 C         -1.8013938070        2.5847006590        0.0714871116
 C         -4.7730184209       -3.0665599846        0.7631567902
 O         -0.3154457930       -1.7837430879        2.3575453292
 H          4.8316507821        1.4939781748       -1.9944217790
 H          6.3472086080        2.1454272885       -2.6069677272
 H          6.1926171919        0.4127207524       -2.3166396214
 H          7.5090672451        1.6034762101       -0.5323281109
 H          6.0857891345        2.5727133614       -0.1583652993
 H          6.4397235108        0.7042152471        1.4131079073
 H          6.2944326148       -0.4587813696        0.1014929985
 H          4.2102321768        0.3032662145        1.7205528351
 H          3.9968846967        1.4431032150        0.4018273405
 H          3.9707249302       -0.5028423738       -1.2065697515
 H          4.1107822557       -1.5955526262        0.1757503879
 H          2.2501765810       -1.8135464580        1.7839318116
 H         -2.2813224846        0.2028223666        1.5000810341
 H         -2.0366834766       -2.6082400899        0.7476747830
 H         -5.8039813729       -0.6764314402        0.4654803100
 H         -4.6669315912       -0.0258047620        1.6424430797
 H         -4.3890268940        1.4935604313       -0.0754002026
 H         -4.7065087947        0.3182688302       -1.3434699569
 H         -2.5461389753       -0.4315290259       -1.4571195798
 H          1.8966036252        0.7817956480       -1.5950761956
 H         -3.4751085258        2.6087523386       -2.0847980845
 H         -1.8386569123        2.9422268291       -2.6715601779
 H         -2.6214395881        1.4162233592       -3.0778625313
 H         -1.2135929649        2.1989004175        0.9005867305
 H         -1.3040445064        3.4723218273       -0.3128719744
 H         -2.7854123073        2.8659778062        0.4346123767
 H         -4.1126834287       -3.9267993384        0.8347456557
 H         -5.4381236788       -3.0619894028        1.6267777452
 H         -5.3895002748       -3.1705993696       -0.1300462849
 H          0.3607462826       -2.2463390503        2.8664526752
  53
        -68.44182177
 C          6.5052762017       -1.0547431467        0.6732202357
 C          6.5890352803       -0.7620681590       -0.8196960200
 C          5.7307106650        0.4227469947       -1.2671530623
 C          4.2221800227        0.2094170126       -1.0808849777
 C          3.6663171708        0.8838014078        0.1804459972
 C          2.2016255831        0.5873032991        0.3232258247
 C          1.7741310635       -0.5217883076        1.0409074738
 C          0.4261275535       -0.8351332730        1.1246079096
 C         -0.5323972193       -0.0526520749        0.4771497280
 C         -1.9895677319       -0.4212978605        0.5048792114
 C         -2.2736316240       -1.8432731621        0.1093406654
 C         -3.5420059563       -2.2005231054       -0.0420572186
 C         -4.5959252079       -1.1753884096        0.2727028622
 C         -4.2806120135        0.2016181249       -0.3485151151
 C         -2.7746129935        0.4449402608       -0.4954516043
 C         -2.3311739134        1.9138399876       -0.4009705028
 O         -0.9501433435        1.9809537433       -0.7743612835
 C         -0.1020351301        1.0953924709       -0.1871125929
 C          1.2553956391        1.3965727522       -0.2764668738
 C         -3.0603854506        2.7794160057       -1.4294129652
 C         -2.4913853473        2.5097737178        1.0014093784
 C         -3.9921004063       -3.5581038733       -0.4773101423
 O         -0.0006591363       -1.9091601104        1.8533002194
 H          5.5054041604       -1.3783629235        0.9495077803
 H          7.2017013657       -1.8467338020        0.9410988228
 H          6.7577459423       -0.1681035977        1.2510240684
 H          7.6294391442       -0.5498218045       -1.0790240765
 H          6.2875572203       -1.6516684371       -1.3781111548
 H          5.9377509411        0.5993564564       -2.3250485218
 H          6.0417663417        1.3170455930       -0.7229128090
 H          3.6836271684        0.6160431680       -1.9391633789
 H          4.0034402334       -0.8596002982       -1.0427740322
 H          4.2042005768        0.5276343587        1.0591869382
 H          3.8182032569        1.9619530137        0.1008236850
 H          2.4966616635       -1.1498690120        1.5468980524
 H         -2.3850076367       -0.2592631710        1.5174517177
 H         -1.4523290422       -2.5096059976       -0.0923802579
 H         -5.5768060894       -1.5135722623       -0.0636828896
 H         -4.6439754765       -1.0640897690        1.3609398406
 H         -4.7329841758        0.9727265057        0.2765388796
 H         -4.7466896954        0.2653567635       -1.3326609697
 H         -2.4674686775        0.1104279991       -1.4949157798
 H          1.5458475181        2.2841123485       -0.8159016578
 H         -4.1076813101        2.8865741942       -1.1654223686
 H         -2.5985580852        3.7626705926       -1.4628051004
 H         -2.9835916415        2.3313874021       -2.4165862929
 H         -2.2237695002        3.5636554576        0.9764372843
 H         -3.5163889833        2.4183452231        1.3482813343
 H         -1.8317741034        2.0093254597        1.7058678537
 H         -4.5577766001       -3.4891241951       -1.4067971818
 H         -3.1410794093       -4.2157486419       -0.6336424960
 H         -4.6440012834       -4.0010036447        0.2757363599
 H          0.7633420089       -2.3461957852        2.2476395872
  53
        -68.44181736
 C          6.9425843151        1.4069555520       -0.2043566141
 C          6.3830768457        0.5517501559       -1.3366107620
 C          5.7488497599       -0.7593393126       -0.8506151618
 C          4.2245045152       -0.7154814231       -0.7372095605
 C          3.7065369559        0.2696564097        0.3165077336
 C          2.2143919400        0.1567995294        0.4383568510
 C          1.6455006314       -0.7372475727        1.3353837373
 C          0.2692682583       -0.8882944591        1.4081397286
 C         -0.5767676626       -0.1572689529        0.5713071100
 C         -2.0658337596       -0.3626426471        0.5941282943
 C         -2.4923703764       -1.7985566630        0.4700388834
 C         -3.7870254836       -2.0478421935        0.3251533119
 C         -4.7308243917       -0.8784853212        0.3770329460
 C         -4.2465844382        0.3071602182       -0.4839676212
 C         -2.7190681778        0.3611756262       -0.5961496501
 C         -2.1197935587        1.7663581243       -0.7680385257
 O         -0.7286906131        1.6166366535       -1.0739570706
 C         -0.0021537755        0.7849132012       -0.2809824189
 C          1.3823132188        0.9224698449       -0.3562123761
 C         -2.7164579207        2.4779639048       -1.9831068464
 C         -2.2574616170        2.6446629279        0.4797923764
 C         -4.3701244581       -3.4120594484        0.1409450497
 O         -0.2954796017       -1.7459370668        2.3093080413
 H          7.7267018185        0.8681427773        0.3240221012
 H          7.3702612585        2.3257576377       -0.6006545932
 H          6.1694070014        1.6712043901        0.5115247959
 H          5.6432846371        1.1261068531       -1.8975951302
 H          7.2009966648        0.3221597457       -2.0233190352
 H          6.1753731413       -1.0298714133        0.1177826194
 H          6.0013660430       -1.5591800044       -1.5506852216
 H          3.7951544124       -0.4527480354       -1.7065325840
 H          3.8647604425       -1.7157012870       -0.4820099025
 H          4.1771640048        0.0473590964        1.2767072573
 H          3.9696113314        1.2864732166        0.0252722468
 H          2.2794204334       -1.3224228407        1.9896782101
 H         -2.4724353026        0.0382339869        1.5332225229
 H         -1.7435934620       -2.5718120269        0.4456481434
 H         -5.7319646887       -1.1754988251        0.0621717612
 H         -4.8006322880       -0.5472923712        1.4183706782
 H         -4.6303410073        1.2298087998       -0.0464631334
 H         -4.6717729822        0.2198384278       -1.4846781833
 H         -2.4196196025       -0.1961310178       -1.4933006609
 H          1.7847815276        1.6503004038       -1.0428668502
 H         -2.6581741695        1.8357466026       -2.8579275568
 H         -3.7534936367        2.7414045213       -1.8009666384
 H         -2.1485543680        3.3826355570       -2.1840095761
 H         -1.8736610858        3.6390265652        0.2632651675
 H         -3.2967993473        2.7302031850        0.7826476940
 H         -1.6804190275        2.2304664405        1.3027068792
 H         -5.0907359206       -3.6262070996        0.9303118204
 H         -4.8946567077       -3.4734208200       -0.8129050124
 H         -3.5923733413       -4.1709150517        0.1620174455
 H          0.4035216312       -2.1720110780        2.8192879856
  53
        -68.44177607
 C          7.0286283063       -0.6055886022       -1.0842268570
 C          6.7046209889        0.0585347932        0.2500709516
 C          5.7849189394        1.2803851167        0.1125414500
 C          4.3118382099        0.9956137462        0.4081078411
 C          3.6547188959        0.0248433841       -0.5793380545
 C          2.1854121778       -0.0924813667       -0.2924239554
 C          1.7174486097       -1.0409125537        0.6069852227
 C          0.3646034295       -1.1372343466        0.8946742753
 C         -0.5602646655       -0.2902768037        0.2802083594
 C         -2.0358025525       -0.4319601457        0.5307730659
 C         -2.5611371354       -1.8286785363        0.3508542162
 C         -3.8747026760       -2.0054277113        0.4018603285
 C         -4.7262451391       -0.8063782883        0.7148517110
 C         -4.3181555956        0.4351302506       -0.1058907508
 C         -2.8282085070        0.4329503156       -0.4649610319
 C         -2.1823645089        1.8206336795       -0.6075073971
 O         -0.8699992203        1.6410636416       -1.1520148306
 C         -0.0758005542        0.7045236656       -0.5684212985
 C          1.2836383827        0.7865177505       -0.8619119311
 C         -2.9237851412        2.6730916220       -1.6382076323
 C         -2.0649799498        2.5776653863        0.7194231117
 C         -4.5601959613       -3.3178714376        0.1955736899
 O         -0.0973672032       -2.0550490278        1.7950940449
 H          7.5496486022        0.0926796265       -1.7361281702
 H          7.6714377130       -1.4701268485       -0.9301602473
 H          6.1267554852       -0.9359006532       -1.5916562948
 H          6.2422908894       -0.6703056002        0.9189335159
 H          7.6453065485        0.3670165546        0.7119366337
 H          5.8768630243        1.6904039551       -0.8952976497
 H          6.1141843626        2.0550333891        0.8090305360
 H          4.2164687793        0.5932415936        1.4195888218
 H          3.7610533980        1.9390131958        0.3793635334
 H          3.8025239211        0.3951665867       -1.5953985341
 H          4.1222167466       -0.9566303699       -0.4932132450
 H          2.4122772117       -1.7169491858        1.0893441410
 H         -2.2616015451       -0.1077918939        1.5563753718
 H         -1.8734441138       -2.6278153311        0.1325417190
 H         -5.7810819303       -1.0267321056        0.5464671112
 H         -4.6063781660       -0.5757487531        1.7785330972
 H         -4.5712606633        1.3267089978        0.4694374030
 H         -4.9035537034        0.4641298359       -1.0258181360
 H         -2.7107924738       -0.0462969991       -1.4455993040
 H          1.6128187279        1.5569146201       -1.5411246871
 H         -3.0450278374        2.1177159432       -2.5644625874
 H         -3.9005772795        2.9623941848       -1.2637819148
 H         -2.3432116064        3.5674617516       -1.8487020443
 H         -1.3887382224        2.0598357074        1.3949527404
 H         -1.6626378661        3.5706282772        0.5320303092
 H         -3.0350913149        2.6788584313        1.1968636374
 H         -5.2354760952       -3.2616135626       -0.6585622720
 H         -3.8359960334       -4.1084845589        0.0176420075
 H         -5.1544625025       -3.5771603567        1.0718802059
 H          0.6478083354       -2.5617146142        2.1389118460
  53
        -68.44180784
 C          6.8711248345       -0.0475862612       -1.6223643714
 C          6.4373802319        1.1703275757       -0.8131075636
 C          5.8706551447        0.8106481619        0.5678601572
 C          4.3429548362        0.7903376430        0.6333431299
 C          3.6968264400       -0.2894213744       -0.2417308789
 C          2.2110017356       -0.3130863418       -0.0261966584
 C          1.6556833406       -1.1042076414        0.9704309244
 C          0.2864234944       -1.1119891750        1.1875985397
 C         -0.5673200746       -0.3318384956        0.4046914537
 C         -2.0589637967       -0.3870814802        0.5832863605
 C         -2.6305844501       -1.7771858092        0.5701971718
 C         -3.9510753313       -1.9016703262        0.5649056180
 C         -4.7688966337       -0.6430405905        0.6535859947
 C         -4.2646663471        0.4553032367       -0.3060802209
 C         -2.7586520958        0.3521097623       -0.5706202370
 C         -2.0488002894        1.6827064188       -0.8684533698
 O         -0.7173456012        1.3828617540       -1.3025099358
 C          0.0038081162        0.5131847696       -0.5461648974
 C          1.3793218873        0.5047163201       -0.7675482333
 C         -2.6965113423        2.4033091339       -2.0516435185
 C         -1.9725879406        2.6175657893        0.3430649235
 C         -4.6772051988       -3.2069757253        0.5032601102
 O         -0.2620074621       -1.8739778660        2.1801840019
 H          6.0426298202       -0.7316016476       -1.7828925941
 H          7.2533438378        0.2604872083       -2.5935391253
 H          7.6612329644       -0.5851781205       -1.1017495827
 H          7.3064523394        1.8200062704       -0.6869604485
 H          5.6914666015        1.7358045328       -1.3749947094
 H          6.2197628841        1.5434564522        1.2991595201
 H          6.2580814027       -0.1631858920        0.8751243292
 H          4.0406549622        0.6222809047        1.6703638666
 H          3.9534125917        1.7661692048        0.3349758320
 H          3.9050770421       -0.0806568690       -1.2910018987
 H          4.1250038585       -1.2611007478        0.0137870565
 H          2.2947054599       -1.7261383921        1.5846192421
 H         -2.3274891104        0.0877193251        1.5374231545
 H         -1.9652493499       -2.6214315891        0.5087295400
 H         -5.8206843266       -0.8505268705        0.4530063451
 H         -4.6998968389       -0.2676294761        1.6798416411
 H         -4.5115820929        1.4274056967        0.1229214286
 H         -4.7967020758        0.3733833369       -1.2547651173
 H         -2.6075146020       -0.2663830439       -1.4649234595
 H          1.7764220809        1.1567648798       -1.5293336267
 H         -2.7899832602        1.7254098364       -2.8959393122
 H         -3.6794148749        2.7756984947       -1.7810786399
 H         -2.0686117539        3.2384334492       -2.3509198411
 H         -2.9623419408        2.8183182987        0.7423354902
 H         -1.3563505912        2.1794443126        1.1241508817
 H         -1.5196534290        3.5594900601        0.0420737836
 H         -5.3004825901       -3.2510844217       -0.3902120436
 H         -3.9771575029       -4.0380401435        0.4828635672
 H         -5.3297995517       -3.3191100898        1.3691721686
 H          0.4414839454       -2.3504363958        2.6365866128
  53
        -68.44159756
 C          5.5447551057        2.3328831336       -0.6495636531
 C          5.6684998235        1.6739243701        0.7186163544
 C          4.5952758631        0.6214800616        1.0040937701
 C          4.6688705050       -0.6198044790        0.1062947627
 C          3.7217808634       -0.5702010289       -1.1018357482
 C          2.2848363016       -0.5354305840       -0.6672352914
 C          1.6779132845       -1.6795849674       -0.1774428958
 C          0.3634517259       -1.6660257193        0.2801244022
 C         -0.3523229943       -0.4728090863        0.2831774549
 C         -1.7637398029       -0.2138873386        0.7627858959
 C         -2.5148611028       -1.3531348936        1.3784594602
 C         -3.7096782234       -1.7697979369        0.9742993244
 C         -4.4246995576       -1.0986675435       -0.1657998759
 C         -3.9817032217        0.3584741568       -0.2906863750
 C         -2.4679556289        0.3910353604       -0.4647054111
 C         -1.8596022478        1.7837315318       -0.7303776593
 O         -0.4627311155        1.8270637508       -0.3773700959
 C          0.2339284590        0.6569977869       -0.2953969833
 C          1.5442650768        0.6347253751       -0.7490312138
 C         -1.9545541970        2.1219816049       -2.2235522116
 C         -2.5180062214        2.8916794903        0.0945005003
 C         -4.4319847474       -2.9039566310        1.6330723562
 O         -0.1525136747       -2.8545799164        0.6980538503
 H          4.5462271273        2.7426696487       -0.7845264239
 H          6.2627218065        3.1456878035       -0.7414790656
 H          5.7419887085        1.6197423578       -1.4455866307
 H          6.6558445314        1.2134595068        0.8083593793
 H          5.5982428853        2.4480839756        1.4871880803
 H          3.6068408603        1.0748980514        0.9124397908
 H          4.7112966175        0.3088103927        2.0445696975
 H          5.6933719509       -0.7532430557       -0.2481706593
 H          4.4086178801       -1.5013276016        0.6953971110
 H          3.9383384138        0.3055820880       -1.7116942744
 H          3.8943894469       -1.4618144652       -1.7099565572
 H          2.2089759232       -2.6180043193       -0.1475442634
 H         -1.6853855774        0.5686228730        1.5353132606
 H         -2.0702605785       -1.7747001447        2.2731651411
 H         -4.2165225554       -1.6315734348       -1.0992364308
 H         -5.5026229679       -1.1494955680        0.0029200887
 H         -4.2706962042        0.8946083082        0.6140370408
 H         -4.4754888015        0.8266041753       -1.1438288869
 H         -2.2249798837       -0.2444634525       -1.3263603744
 H          1.9642863321        1.5354990845       -1.1684941475
 H         -2.9888530445        2.0966827866       -2.5556813111
 H         -1.5485998770        3.1140785180       -2.4024898269
 H         -1.3775763374        1.4046182832       -2.8037931274
 H         -3.5232952748        3.0931190240       -0.2618463627
 H         -2.5563937816        2.6220820768        1.1469039056
 H         -1.9203589995        3.7944714697       -0.0013102084
 H         -4.6909198134       -3.6624823779        0.8945892035
 H         -3.8247679343       -3.3632710002        2.4092118198
 H         -5.3603390132       -2.5507298785        2.0817010214
 H         -1.0944907215       -2.7424770709        0.8948058578
  53
        -68.44141207
 C          5.9512186388       -1.3965626130       -0.2900678651
 C          5.5209676090       -0.7631585910       -1.6072207898
 C          4.2050132829        0.0130214266       -1.5258364691
 C          4.2584551526        1.2605695603       -0.6352254861
 C          3.7356377550        1.0298861657        0.7905385320
 C          2.2796305892        0.6612562303        0.7934131460
 C          1.8792334121       -0.6422815270        1.0275143844
 C          0.5331497713       -1.0030849952        1.0178419469
 C         -0.4376161983       -0.0314716053        0.8047067265
 C         -1.9432565059       -0.1791658447        0.7931326311
 C         -2.5181607315       -1.5277083370        1.0965325328
 C         -3.3687868156       -2.1753491334        0.3081460262
 C         -3.8393265392       -1.5771481170       -0.9888741965
 C         -3.7841807187       -0.0513466237       -0.9248672778
 C         -2.3590905702        0.3678797216       -0.5838695904
 C         -2.0919594615        1.8875882440       -0.5978131047
 O         -0.9470544758        2.2312826569        0.2074065643
 C         -0.0233390254        1.2667371868        0.4857545256
 C          1.3167258482        1.6168251827        0.4975500386
 C         -1.7908544494        2.3541930232       -2.0277571028
 C         -3.2494811653        2.7040564446       -0.0191915154
 C         -3.9332894792       -3.5162073419        0.6622918279
 O          0.2519778976       -2.3205418032        1.2161060563
 H          5.1537167343       -2.0180097483        0.1110499362
 H          6.8279076967       -2.0229920567       -0.4433557946
 H          6.2062538011       -0.6364433538        0.4435697551
 H          6.3105130055       -0.0946266951       -1.9602222164
 H          5.4041609939       -1.5532270267       -2.3537118360
 H          3.4134525664       -0.6492416698       -1.1711654041
 H          3.9407255149        0.3175817585       -2.5415520191
 H          5.2859297327        1.6273697627       -0.5834411142
 H          3.6532227705        2.0480195813       -1.0886517755
 H          4.3095113439        0.2422007999        1.2761859021
 H          3.8727766927        1.9529656094        1.3595435806
 H          2.6013097100       -1.4185430520        1.2277759004
 H         -2.3234946184        0.5088730415        1.5660256887
 H         -2.2831317252       -1.9241215663        2.0781340412
 H         -3.2136961938       -1.9373288253       -1.8119561686
 H         -4.8609319827       -1.9070351535       -1.1899952476
 H         -4.4754364232        0.2953103997       -0.1558302715
 H         -4.0896120239        0.3733895447       -1.8825520986
 H         -1.6970722292       -0.0900695479       -1.3304242236
 H          1.5914278232        2.6365348556        0.2787457385
 H         -2.6176671889        2.1128838251       -2.6902819930
 H         -1.6300413865        3.4289481852       -2.0377886369
 H         -0.8887338767        1.8681498746       -2.3940436285
 H         -4.1036780051        2.6920676764       -0.6887966644
 H         -3.5482659061        2.3194701321        0.9526595752
 H         -2.9158778456        3.7301751702        0.1117598762
 H         -3.7348985655       -4.2293902695       -0.1375744861
 H         -3.5028673723       -3.8963126194        1.5855139773
 H         -5.0143397864       -3.4504794508        0.7842544554
 H         -0.6976688121       -2.4665755784        1.0923589498
  53
        -68.44127958
 C          6.4164449500       -1.3922492976       -0.6137341100
 C          6.7466502187       -0.2591027275        0.3497654270
 C          5.8919991883        0.9937311406        0.1481937293
 C          4.3968666113        0.7816913075        0.4220580995
 C          3.5709772277        0.5741720420       -0.8544348826
 C          2.1360004490        0.3085001168       -0.5025713694
 C          1.6984627936       -0.9855316908       -0.2799758412
 C          0.3875228635       -1.2526356960        0.1067137670
 C         -0.4971507193       -0.1993325008        0.3122104620
 C         -1.9405020880       -0.2467615211        0.7635464886
 C         -2.5258956156       -1.5825857453        1.1014147906
 C         -3.6373343637       -2.0724505167        0.5635615300
 C         -4.4214990604       -1.2902100892       -0.4535505304
 C         -4.1977016723        0.2093647734       -0.2629627110
 C         -2.7024680542        0.4909229291       -0.3516350312
 C         -2.3025301655        1.9802858768       -0.3027028032
 O         -0.9359979512        2.1475991992        0.1243136382
 C         -0.0736384940        1.0977156230        0.0033641050
 C          1.2334525126        1.3549968147       -0.3797072777
 C         -2.4139744219        2.5999506660       -1.7014860647
 C         -3.1365499824        2.7915852753        0.6910957944
 C         -4.1958993427       -3.4079441587        0.9461870077
 O          0.0473572244       -2.5626235729        0.2547428248
 H          5.4133798156       -1.7710970800       -0.4382458847
 H          6.4862664903       -1.0500817757       -1.6442977413
 H          7.1155609956       -2.2152331912       -0.4792909447
 H          6.6234776758       -0.6128691440        1.3762242420
 H          7.7966196398        0.0175152670        0.2224506750
 H          6.0267652245        1.3598674106       -0.8719596262
 H          6.2725506725        1.7650123662        0.8218701537
 H          4.2610994182       -0.0794441785        1.0789384876
 H          3.9912263831        1.6509167193        0.9439744278
 H          3.6411807454        1.4720665420       -1.4718050415
 H          3.9726749815       -0.2643741203       -1.4225530170
 H          2.3621333753       -1.8258714012       -0.4105130903
 H         -1.9944565557        0.3641088857        1.6796038665
 H         -2.0417298581       -2.1108564923        1.9152895341
 H         -4.1179061228       -1.5857604111       -1.4630467625
 H         -5.4830149211       -1.5265930797       -0.3520908811
 H         -4.5811104351        0.5024594626        0.7150685339
 H         -4.7386114936        0.7675114711       -1.0289283361
 H         -2.3506821326        0.0865422998       -1.3097679674
 H          1.5279918738        2.3725913550       -0.5819955010
 H         -2.1568681349        3.6549640333       -1.6579739663
 H         -1.7235308595        2.1056609662       -2.3820080428
 H         -3.4252741780        2.4966622293       -2.0853600566
 H         -4.1526722100        2.9174082919        0.3307258960
 H         -3.1570634804        2.3098046985        1.6653549422
 H         -2.6779643801        3.7700730230        0.8078156764
 H         -3.5420032437       -3.9262796795        1.6432087204
 H         -5.1745438860       -3.2888429486        1.4109113522
 H         -4.3258244264       -4.0277242117        0.0592033975
 H         -0.9044095196       -2.6282084658        0.4233736037
  53
        -68.44125367
 C          6.7312886732        1.2839196693       -0.0345597963
 C          6.2552675217        1.0936461661       -1.4695813228
 C          4.7529710852        0.8288266851       -1.5895775244
 C          4.3078747610       -0.4922724766       -0.9464690965
 C          3.7698691048       -0.3506319746        0.4870415662
 C          2.2671749122       -0.3034707468        0.5625600545
 C          1.5986443210       -1.0173970496        1.5476189720
 C          0.2142933414       -1.0012401306        1.6342909639
 C         -0.5554553278       -0.2835611759        0.7155964851
 C         -2.0653391266       -0.2831671180        0.7335484025
 C         -2.6910270770       -1.6464939357        0.8651676251
 C         -3.8714245480       -1.9531787711        0.3468075599
 C         -4.6879312346       -0.9830467040       -0.4649757905
 C         -4.1196492508        0.4361159555       -0.4406264547
 C         -2.6011081569        0.3541770243       -0.5524126718
 C         -1.8610457292        1.6620921378       -0.8636019879
 O         -0.4867878178        1.3346505110       -1.0975780533
 C          0.1267882522        0.4972303894       -0.2195048054
 C          1.5171985941        0.4684371479       -0.3044196304
 C         -2.3375020566        2.2895177251       -2.1755122129
 C         -1.9494047320        2.6935625875        0.2656993166
 C         -4.4831014044       -3.3135807601        0.5038003253
 O         -0.4136129381       -1.6832780543        2.6401141967
 H          6.5777657599        0.3802536895        0.5492008804
 H          7.7930812637        1.5214706999       -0.0191363392
 H          6.1932998336        2.1015554630        0.4410713995
 H          6.4944485962        1.9932598941       -2.0425349343
 H          6.8018660140        0.2627407819       -1.9226024087
 H          4.5030312363        0.8097447130       -2.6530176436
 H          4.2099374502        1.6623230810       -1.1412731720
 H          3.5278934049       -0.9495664848       -1.5577548952
 H          5.1563708442       -1.1794154075       -0.9467490726
 H          4.1169044344       -1.1904262398        1.0930212532
 H          4.1687961379        0.5597943613        0.9398549791
 H          2.1614108997       -1.5986505846        2.2678982290
 H         -2.3939307673        0.3059591772        1.6034402271
 H         -2.1476548933       -2.3764451190        1.4414940057
 H         -4.7201966904       -1.3453528416       -1.4987251596
 H         -5.7183274537       -0.9797158178       -0.0985258580
 H         -4.3932815655        0.9256156440        0.4960134076
 H         -4.5471789138        1.0121133866       -1.2619976785
 H         -2.3594624239       -0.3266263625       -1.3795155481
 H          1.9814926528        1.0734641576       -1.0647693365
 H         -2.4135587430        1.5331315017       -2.9522581280
 H         -3.3012295288        2.7714428797       -2.0443849311
 H         -1.6117866689        3.0340695649       -2.4922859789
 H         -1.4362851314        2.3353883925        1.1545372428
 H         -1.4714610084        3.6178471713       -0.0509358102
 H         -2.9877099152        2.8994892745        0.5092126060
 H         -4.6855763522       -3.7534683943       -0.4727398668
 H         -3.8223572712       -3.9764488494        1.0556293633
 H         -5.4312352063       -3.2436980241        1.0370433574
 H          0.2534430637       -2.1014964259        3.1975136962
  53
        -68.44118724
 C          5.7487866490       -2.4422640202       -0.2474271382
 C          6.4493548122       -1.1153676957        0.0221953046
 C          5.4870239443       -0.0070289871        0.4518047283
 C          4.6005818044        0.4918899147       -0.6891345823
 C          3.5879102983        1.5565553732       -0.2367278262
 C          2.1900216520        1.0337573612       -0.0400987152
 C          1.9467002232       -0.1853662974        0.5738403127
 C          0.6499894535       -0.6516626199        0.7368301587
 C         -0.4435705950        0.0887277999        0.2816876206
 C         -1.8536405070       -0.4326698276        0.3906786321
 C         -2.0504346250       -1.8177004333       -0.1696288742
 C         -3.2914182415       -2.2860932769       -0.2355521724
 C         -4.3842762214       -1.4230635591        0.3281109141
 C         -4.2691108959        0.0419435972       -0.1472325783
 C         -2.8181824182        0.4591116721       -0.4125765575
 C         -2.5012402485        1.9449874645       -0.1750898393
 O         -1.1838033395        2.1946722466       -0.6717444659
 C         -0.1962978556        1.3448574216       -0.2723146005
 C          1.1078510469        1.7967836446       -0.4463801073
 C         -3.4169228329        2.8423232472       -1.0085359589
 C         -2.5608111742        2.3535438438        1.3008565208
 C         -3.6638634590       -3.6101938555       -0.8177345227
 O          0.4999566160       -1.8495346595        1.3736461060
 H          6.4775753944       -3.2110654790       -0.4950000358
 H          5.1958317315       -2.7657595792        0.6319484058
 H          5.0525833327       -2.3569760604       -1.0775659753
 H          7.1876566421       -1.2640698886        0.8141386163
 H          6.9873707005       -0.7984531693       -0.8744662192
 H          6.0694951746        0.8366646982        0.8319859833
 H          4.8685054307       -0.3720430316        1.2735835412
 H          5.2467275147        0.9134391227       -1.4625171587
 H          4.0594795251       -0.3426315537       -1.1350621605
 H          3.9307169887        1.9998232105        0.7030765158
 H          3.5473846295        2.3617048066       -0.9723647689
 H          2.7474788162       -0.8049973162        0.9395288161
 H         -2.1741789463       -0.4234839769        1.4451361766
 H         -1.2115140082       -2.3465397972       -0.5963284217
 H         -5.3647263616       -1.8194453260        0.0630435222
 H         -4.3095993142       -1.4429844129        1.4205609140
 H         -4.7189075829        0.6849010418        0.6102789274
 H         -4.8459546073        0.1651421257       -1.0643062241
 H         -2.5927462012        0.2781380907       -1.4713667950
 H          1.2489837560        2.7648937159       -0.9007535464
 H         -3.4108761147        2.5211336523       -2.0467482679
 H         -4.4334354871        2.8106165710       -0.6292381398
 H         -3.0514717520        3.8648172038       -0.9648817158
 H         -1.7745049254        1.8593245815        1.8662842098
 H         -2.4086495037        3.4272276262        1.3812668480
 H         -3.5238920848        2.1046196564        1.7369404389
 H         -4.3353722798       -3.4717415565       -1.6649524640
 H         -2.7821593404       -4.1489483343       -1.1552861402
 H         -4.1856192488       -4.2167752577       -0.0774085537
 H         -0.4359334825       -2.0832933817        1.4099364116
  53
        -68.44106456
 C          6.5905182732        1.4440229210        1.1396192076
 C          6.5908692575        0.9846370100       -0.3137138233
 C          6.0755230942       -0.4441335100       -0.4970642595
 C          4.6326361053       -0.6821136176       -0.0454846529
 C          3.6167327627        0.1018532011       -0.8716622341
 C          2.1782525695       -0.0512089691       -0.4487923941
 C          1.7394791692       -1.0459442606        0.4127279018
 C          0.3951938167       -1.1581732174        0.7413691801
 C         -0.5543680634       -0.2876751315        0.2067465776
 C         -2.0196242183       -0.4450085721        0.5030186490
 C         -2.5503064131       -1.8322526962        0.2731147504
 C         -3.8612283638       -2.0142182545        0.3603887465
 C         -4.7022818350       -0.8340120449        0.7611330804
 C         -4.3232963779        0.4476708315       -0.0102892297
 C         -2.8466331205        0.4668132778       -0.4201437796
 C         -2.2070935598        1.8616082093       -0.5152559699
 O         -0.9147224127        1.7133708596       -1.1143249408
 C         -0.0998819820        0.7504514678       -0.6066169597
 C          1.2476634072        0.8510206245       -0.9381920458
 C         -2.9851755659        2.7630118394       -1.4748634293
 C         -2.0436868393        2.5511263668        0.8432381254
 C         -4.5526562785       -3.3165451600        0.1135957646
 O         -0.0295680560       -2.1230988320        1.6108843342
 H          7.0713744059        2.4158394320        1.2273161885
 H          5.5768558445        1.5348107400        1.5211490315
 H          7.1330326855        0.7361480475        1.7630364277
 H          5.9961420867        1.6759297091       -0.9129360421
 H          7.6139675964        1.0243124449       -0.6962943523
 H          6.7260829924       -1.1194923302        0.0650932160
 H          6.1604872976       -0.7112943947       -1.5536928465
 H          4.4294407768       -1.7508940617       -0.1454919117
 H          4.5285232178       -0.4182830436        1.0079661978
 H          3.8614631982        1.1650536989       -0.8329868964
 H          3.6993619876       -0.2069710594       -1.9191043031
 H          2.4351542855       -1.7508566089        0.8448339228
 H         -2.2089097259       -0.1722706558        1.5507416117
 H         -1.8699443877       -2.6182539803       -0.0070372140
 H         -5.7621404804       -1.0481703706        0.6180784005
 H         -4.5462668729       -0.6561415862        1.8302292733
 H         -4.5568786459        1.3089385794        0.6171176574
 H         -4.9401264699        0.5211396706       -0.9069146905
 H         -2.7629277360        0.0374945533       -1.4270244261
 H          1.5506787838        1.6586949016       -1.5860316372
 H         -3.9481159207        3.0310871876       -1.0519171100
 H         -2.4127308132        3.6680136674       -1.6607355655
 H         -3.1391129952        2.2545174353       -2.4229391878
 H         -1.3432435233        2.0019269954        1.4673440616
 H         -1.6494592677        3.5534748055        0.6921133739
 H         -2.9963928209        2.6250722892        1.3591444928
 H         -3.8344776506       -4.0959297108       -0.1271996356
 H         -5.1167006211       -3.6196087008        0.9957880738
 H         -5.2565270495       -3.2201348424       -0.7134414290
 H          0.7297181194       -2.6422519736        1.9012218751
  53
        -68.44094893
 C          4.4907491643        0.1320582181        2.2017222182
 C          5.3337414663        0.9653099560        1.2429028679
 C          4.4843093471        1.7451656335        0.2277238964
 C          4.5006738747        1.1538524005       -1.1827013340
 C          3.8508552323       -0.2279670059       -1.2948035811
 C          2.4195622203       -0.2887286046       -0.8333930176
 C          1.9839925822       -1.3699998384       -0.0767366583
 C          0.6639435141       -1.4695058962        0.3359712010
 C         -0.2688004354       -0.4894937540       -0.0079198772
 C         -1.7161647555       -0.6145718195        0.3781906467
 C         -2.3397662707       -1.9337308685        0.0175825864
 C         -3.6493507250       -2.0632769423        0.1833254999
 C         -4.3912920145       -0.9066516492        0.7937500021
 C         -3.9958605707        0.4449246395        0.1625479763
 C         -2.5539355965        0.4465081869       -0.3565968369
 C         -1.8444189513        1.8099234463       -0.3278664401
 O         -0.6085128861        1.6776552898       -1.0390747252
 C          0.1849512099        0.6208039738       -0.7183353271
 C          1.5091097166        0.7045497959       -1.1433071797
 C         -2.6361011639        2.8624768035       -1.1050470947
 C         -1.5452879554        2.3120089300        1.0884930385
 C         -4.4294690249       -3.2884175812       -0.1707479988
 O          0.2467327031       -2.5211765098        1.1014421465
 H          3.8446867265       -0.5494581345        1.6566415904
 H          5.1284069944       -0.4469501597        2.8672906250
 H          3.8608170909        0.7782512073        2.8095492343
 H          5.9331375715        1.6639293587        1.8309213196
 H          6.0315246855        0.3141892130        0.7121647608
 H          4.8557652361        2.7700818273        0.1584346477
 H          3.4523385126        1.7950698259        0.5788763928
 H          3.9909512674        1.8463507086       -1.8546757941
 H          5.5359803433        1.0751372157       -1.5250734323
 H          3.8871264406       -0.5362426302       -2.3451540367
 H          4.4386856616       -0.9515587084       -0.7269576808
 H          2.6778779303       -2.1578530178        0.1914620832
 H         -1.8152571399       -0.4710534684        1.4633490151
 H         -1.7272312758       -2.7080251066       -0.4118673358
 H         -5.4690729265       -1.0501302941        0.7078155675
 H         -4.1498115811       -0.8766274861        1.8613333471
 H         -4.1336828229        1.2274922588        0.9099166392
 H         -4.6703374499        0.6637383011       -0.6662990554
 H         -2.5676360570        0.1463261593       -1.4124812751
 H          1.7945403514        1.5729236335       -1.7134598061
 H         -2.8850902049        2.4874064761       -2.0942101416
 H         -3.5501306462        3.1190297236       -0.5790091324
 H         -2.0282494565        3.7560285680       -1.2206477091
 H         -2.4534702352        2.3685019456        1.6811748674
 H         -0.8376156310        1.6529175689        1.5851007382
 H         -1.1028996764        3.3040345944        1.0318368246
 H         -3.7758230337       -4.0628100227       -0.5635092048
 H         -4.9449961991       -3.6767306759        0.7077078336
 H         -5.1843037341       -3.0522382466       -0.9211814246
 H          0.9934606676       -3.1093337886        1.2648205787
