  53
        -68.44839091
 C          5.3507630559       -2.4959045479       -1.7104806302
 C          5.2646291699       -0.9758539243       -1.6478448733
 C          4.5192815720       -0.5007359615       -0.4032994616
 C          4.4279962454        1.0209544348       -0.3366421787
 C          3.6811147432        1.5043572623        0.9130960724
 C          2.2460004083        1.0631231032        0.8964357150
 C          1.8144643554       -0.0030345156        1.6715724016
 C          0.4993035558       -0.4417498013        1.6141677317
 C         -0.4245483895        0.1621662468        0.7574236406
 C         -1.8513325999       -0.3148978694        0.6263841777
 C         -2.0022480868       -1.8035968924        0.4566684395
 C         -3.0001563064       -2.3564828905       -0.2176009578
 C         -4.0596828942       -1.5514377348       -0.9219052873
 C         -3.9854413390       -0.0593431342       -0.5966367005
 C         -2.5200282804        0.3617231334       -0.5744191365
 C         -2.2359186793        1.8698252438       -0.5801026335
 O         -0.8223428501        2.0410979197       -0.7337608307
 C         -0.0019355690        1.2860811321        0.0434535348
 C          1.3230937230        1.7121335414        0.0984855607
 C         -2.8440793823        2.5609869099       -1.8024136397
 C         -2.6945755496        2.5794461396        0.6977422298
 C         -3.1410052369       -3.8429681898       -0.3592766724
 O          0.0880047933       -1.4686584374        2.4186829535
 H          4.3544212995       -2.9323756732       -1.7279545194
 H          5.8812317845       -2.8144658897       -2.6049462780
 H          5.8789114696       -2.8844642334       -0.8421367624
 H          6.2730117583       -0.5546951966       -1.6491487196
 H          4.7504211435       -0.6049934854       -2.5373287373
 H          5.0338938832       -0.8716839263        0.4869141559
 H          3.5107721720       -0.9198605234       -0.4047873484
 H          5.4355017564        1.4442269591       -0.3349494984
 H          3.9104649141        1.3894830783       -1.2245283013
 H          4.1803351715        1.1152489928        1.8028440050
 H          3.7241794867        2.5951436899        0.9476175929
 H          2.5076717308       -0.5020721296        2.3370695964
 H         -2.3852133863       -0.0418558342        1.5495159026
 H         -1.2707649707       -2.4249447767        0.9456877279
 H         -3.9370412816       -1.6960097763       -2.0012661612
 H         -5.0469061909       -1.9426064634       -0.6604798445
 H         -4.4360243734        0.1268241332        0.3801245009
 H         -4.5481877575        0.5028867407       -1.3425529930
 H         -2.0413224957       -0.0331212519       -1.4804451790
 H          1.6034275525        2.5727208827       -0.4880325993
 H         -2.6426727002        1.9864767418       -2.7027724687
 H         -3.9161362692        2.6818870299       -1.6828302453
 H         -2.3894246120        3.5420116845       -1.9131238712
 H         -3.7511786435        2.3980737450        0.8723831444
 H         -2.1240484764        2.2332714397        1.5558342441
 H         -2.5329210223        3.6500388226        0.5944149921
 H         -3.1603195971       -4.1238185731       -1.4123388364
 H         -2.3178123952       -4.3604170674        0.1257138703
 H         -4.0760461607       -4.1793238624        0.0888908736
 H          0.8305302994       -1.7545146982        2.9641900385
