  53

 C         -1.5344956900       -4.7475717100       -0.1025435100
 C         -0.7978296900       -4.3352764800        1.1658222400
 C         -1.7413109000       -4.2647161300        2.3660922300
 C         -1.0778688100       -3.7007565500        3.6270707500
 C         -1.2307424900       -2.1783634000        3.7701013000
 C         -0.6160799900       -1.4302548800        2.6238857800
 C          0.7635265200       -1.2850577100        2.5436661400
 C          1.3457995800       -0.6389235300        1.4647514300
 C          0.5606647300       -0.1100210900        0.4372572000
 C          1.1797338500        0.6314706800       -0.7145529500
 C          2.1183675000        1.7327168100       -0.3083780400
 C          2.5822279100        2.5305123900       -1.2610974300
 C          2.1971018000        2.2181650100       -2.6807106900
 C          0.6916157300        1.9127104900       -2.8308104900
 C          0.0880314400        1.3163382800       -1.5549483200
 C         -1.1036577200        0.3688932600       -1.7675152900
 O         -1.6727627100        0.0875417300       -0.4837903900
 C         -0.8185101000       -0.3032196900        0.4992315000
 C         -1.3981198200       -0.9349682800        1.5976956200
 C         -2.2218844800        1.0534217100       -2.5544686700
 C         -0.7203785700       -0.9558022900       -2.4355467100
 C          3.4831007300        3.6991555100       -1.0207731500
 O          2.7032092500       -0.5183720200        1.3678516400
 H         -0.8438070300       -4.8251633300       -0.9392739900
 H         -2.0223459400       -5.7111866700        0.0309132600
 H         -2.2937181800       -4.0099277900       -0.3529689300
 H         -0.0039454800       -5.0564187600        1.3769296600
 H         -0.3319811700       -3.3626888300        1.0074448600
 H         -2.1106923800       -5.2726251100        2.5721417900
 H         -2.6039749800       -3.6483875100        2.1073295000
 H         -1.5273911900       -4.1618404400        4.5097227400
 H         -0.0175620800       -3.9611549300        3.6235321400
 H         -2.2927083200       -1.9354903000        3.8356774400
 H         -0.7545105100       -1.8701098000        4.7044587400
 H          1.3940938200       -1.6869474400        3.3265468500
 H          1.7332764400       -0.0790962600       -1.3446460000
 H          2.3416447700        1.8790957500        0.7346800200
 H          2.4727317500        3.0383580700       -3.3447417100
 H          2.7646316200        1.3369956700       -2.9976096800
 H          0.5602939500        1.2289399900       -3.6706355200
 H          0.1620941100        2.8344115700       -3.0752177800
 H         -0.2995619300        2.1390910800       -0.9400433900
 H         -2.4708605800       -1.0440145700        1.6113294300
 H         -2.4639406700        2.0118273000       -2.1027441300
 H         -1.9231003900        1.2091889600       -3.5861671100
 H         -3.1115151600        0.4294731500       -2.5312626100
 H         -0.2268802900       -0.7827439400       -3.3872847900
 H         -0.0596853500       -1.5311337400       -1.7919958400
 H         -1.6188702900       -1.5435944000       -2.6095575700
 H          3.7176180600        3.7956091600        0.0360451700
 H          4.4131383200        3.5817213700       -1.5771646300
 H          3.0073356700        4.6195289800       -1.3602155400
 H          3.1122293600       -0.9331503300        2.1365044400
