53
LTHC
C  -1.53449569 -4.74757171 -0.10254351
C  -0.79782969 -4.33527648  1.16582224
C  -1.74131090 -4.26471613  2.36609223
C  -1.07786881 -3.70075655  3.62707075
C  -1.23074249 -2.17836340  3.77010130
C  -0.61607999 -1.43025488  2.62388578
C   0.76352652 -1.28505771  2.54366614
C   1.34579958 -0.63892353  1.46475143
C   0.56066473 -0.11002109  0.43725720
C   1.17973385  0.63147068 -0.71455295
C   2.11836750  1.73271681 -0.30837804
C   2.58222791  2.53051239 -1.26109743
C   2.19710180  2.21816501 -2.68071069
C   0.69161573  1.91271049 -2.83081049
C   0.08803144  1.31633828 -1.55494832
C  -1.10365772  0.36889326 -1.76751529
O  -1.67276271  0.08754173 -0.48379039
C  -0.81851010 -0.30321969  0.49923150
C  -1.39811982 -0.93496828  1.59769562
C  -2.22188448  1.05342171 -2.55446867
C  -0.72037857 -0.95580229 -2.43554671
C   3.48310073  3.69915551 -1.02077315
O   2.70320925 -0.51837202  1.36785164
H  -0.84380703 -4.82516333 -0.93927399
H  -2.02234594 -5.71118667  0.03091326
H  -2.29371818 -4.00992779 -0.35296893
H  -0.00394548 -5.05641876  1.37692966
H  -0.33198117 -3.36268883  1.00744486
H  -2.11069238 -5.27262511  2.57214179
H  -2.60397498 -3.64838751  2.10732950
H  -1.52739119 -4.16184044  4.50972274
H  -0.01756208 -3.96115493  3.62353214
H  -2.29270832 -1.93549030  3.83567744
H  -0.75451051 -1.87010980  4.70445874
H   1.39409382 -1.68694744  3.32654685
H   1.73327644 -0.07909626 -1.34464600
H   2.34164477  1.87909575  0.73468002
H   2.47273175  3.03835807 -3.34474171
H   2.76463162  1.33699567 -2.99760968
H   0.56029395  1.22893999 -3.67063552
H   0.16209411  2.83441157 -3.07521778
H  -0.29956193  2.13909108 -0.94004339
H  -2.47086058 -1.04401457  1.61132943
H  -2.46394067  2.01182730 -2.10274413
H  -1.92310039  1.20918896 -3.58616711
H  -3.11151516  0.42947315 -2.53126261
H  -0.22688029 -0.78274394 -3.38728479
H  -0.05968535 -1.53113374 -1.79199584
H  -1.61887029 -1.54359440 -2.60955757
H   3.71761806  3.79560916  0.03604517
H   4.41313832  3.58172137 -1.57716463
H   3.00733567  4.61952898 -1.36021554
H   3.11222936 -0.93315033  2.13650444