58
5FAKB48
C  -4.40642001 -1.19023334  0.99229397
C  -3.42923984 -2.32568880  0.69001332
C  -3.10458068 -3.07944503  1.97852889
C  -2.47351102 -2.11677000  2.98300165
C  -3.44963716 -0.98102837  3.28793329
C  -3.77166768 -0.22987847  1.99680914
C  -2.48504144  0.34961970  1.40777934
C  -1.50662713 -0.78464041  1.10347888
C  -2.14393876 -1.75084000  0.09863197
C  -1.18589727 -1.54162879  2.39719894
N  -0.29235358 -0.20620842  0.54336593
C   0.80031852 -0.89464323  0.15337806
O   0.92379193 -2.10644344  0.21194802
C   1.86365733 -0.01721300 -0.37635898
N   1.73027028  1.29519976 -0.45087631
N   2.84957728  1.79850985 -0.97393977
C   3.74464934  0.81563106 -1.26513133
C   5.02569240  0.85231081 -1.81171116
C   5.67213478 -0.35169050 -1.96523774
C   5.07737750 -1.56583531 -1.59069309
C   3.81656727 -1.61253696 -1.04754570
C   3.13782438 -0.40466408 -0.88138905
C   2.95565518  3.20356828 -1.24467963
C   2.70386508  3.52647020 -2.72399372
C   1.39480874  2.94252816 -3.26175869
C   0.14235962  3.34473411 -2.48473726
C  -0.10023976  4.84713981 -2.48897994
F  -1.30891439  5.12706606 -1.89462143
H  -5.33340487 -1.59618253  1.40328055
H  -4.65424172 -0.65622594  0.07190136
H  -3.88169121 -3.01405860 -0.03252406
H  -2.41200509 -3.89559227  1.76435805
H  -4.01649715 -3.51094783  2.39789062
H  -2.23919560 -2.65494554  3.90825121
H  -4.36796670 -1.38496597  3.72001020
H  -3.00965076 -0.29690718  4.01716343
H  -4.46846897  0.58819947  2.21251117
H  -2.03193206  1.04590936  2.11816739
H  -2.71058753  0.89842570  0.48985198
H  -1.43560650 -2.54960024 -0.12259673
H  -2.35874312 -1.21825966 -0.83128629
H  -0.71526669 -0.85976280  3.11012084
H  -0.47869049 -2.34065972  2.17359510
H  -0.24677274  0.79611137  0.44065602
H   5.49154914  1.78282853 -2.09929832
H   6.66695531 -0.36743406 -2.38594011
H   5.63339315 -2.48008621 -1.73564973
H   3.34566902 -2.53581948 -0.75174809
H   3.95527384  3.54607028 -0.95997408
H   2.22128899  3.70540764 -0.61240245
H   2.71399228  4.61040407 -2.84499862
H   3.52391870  3.11850068 -3.31887022
H   1.46248036  1.85286936 -3.24740780
H   1.28719966  3.24935281 -4.30462478
H  -0.72315872  2.86240835 -2.94417515
H   0.20901176  2.98620531 -1.45686431
H   0.65477265  5.39539933 -1.91686471
H  -0.15427182  5.24263115 -3.50919911