  58

 C         -4.4064200100       -1.1902333400        0.9922939700
 C         -3.4292398400       -2.3256888000        0.6900133200
 C         -3.1045806800       -3.0794450300        1.9785288900
 C         -2.4735110200       -2.1167700000        2.9830016500
 C         -3.4496371600       -0.9810283700        3.2879332900
 C         -3.7716676800       -0.2298784700        1.9968091400
 C         -2.4850414400        0.3496197000        1.4077793400
 C         -1.5066271300       -0.7846404100        1.1034788800
 C         -2.1439387600       -1.7508400000        0.0986319700
 C         -1.1858972700       -1.5416287900        2.3971989400
 N         -0.2923535800       -0.2062084200        0.5433659300
 C          0.8003185200       -0.8946432300        0.1533780600
 O          0.9237919300       -2.1064434400        0.2119480200
 C          1.8636573300       -0.0172130000       -0.3763589800
 N          1.7302702800        1.2951997600       -0.4508763100
 N          2.8495772800        1.7985098500       -0.9739397700
 C          3.7446493400        0.8156310600       -1.2651313300
 C          5.0256924000        0.8523108100       -1.8117111600
 C          5.6721347800       -0.3516905000       -1.9652377400
 C          5.0773775000       -1.5658353100       -1.5906930900
 C          3.8165672700       -1.6125369600       -1.0475457000
 C          3.1378243800       -0.4046640800       -0.8813890500
 C          2.9556551800        3.2035682800       -1.2446796300
 C          2.7038650800        3.5264702000       -2.7239937200
 C          1.3948087400        2.9425281600       -3.2617586900
 C          0.1423596200        3.3447341100       -2.4847372600
 C         -0.1002397600        4.8471398100       -2.4889799400
 F         -1.3089143900        5.1270660600       -1.8946214300
 H         -5.3334048700       -1.5961825300        1.4032805500
 H         -4.6542417200       -0.6562259400        0.0719013600
 H         -3.8816912100       -3.0140586000       -0.0325240600
 H         -2.4120050900       -3.8955922700        1.7643580500
 H         -4.0164971500       -3.5109478300        2.3978906200
 H         -2.2391956000       -2.6549455400        3.9082512100
 H         -4.3679667000       -1.3849659700        3.7200102000
 H         -3.0096507600       -0.2969071800        4.0171634300
 H         -4.4684689700        0.5881994700        2.2125111700
 H         -2.0319320600        1.0459093600        2.1181673900
 H         -2.7105875300        0.8984257000        0.4898519800
 H         -1.4356065000       -2.5496002400       -0.1225967300
 H         -2.3587431200       -1.2182596600       -0.8312862900
 H         -0.7152666900       -0.8597628000        3.1101208400
 H         -0.4786904900       -2.3406597200        2.1735951000
 H         -0.2467727400        0.7961113700        0.4406560200
 H          5.4915491400        1.7828285300       -2.0992983200
 H          6.6669553100       -0.3674340600       -2.3859401100
 H          5.6333931500       -2.4800862100       -1.7356497300
 H          3.3456690200       -2.5358194800       -0.7517480900
 H          3.9552738400        3.5460702800       -0.9599740800
 H          2.2212889900        3.7054076400       -0.6124024500
 H          2.7139922800        4.6104040700       -2.8449986200
 H          3.5239187000        3.1185006800       -3.3188702200
 H          1.4624803600        1.8528693600       -3.2474078000
 H          1.2871996600        3.2493528100       -4.3046247800
 H         -0.7231587200        2.8624083500       -2.9441751500
 H          0.2090117600        2.9862053100       -1.4568643100
 H          0.6547726500        5.3953993300       -1.9168647100
 H         -0.1542718200        5.2426311500       -3.5091991100
