  58
        -82.23802563
 C         -4.7669935361       -1.6187454816       -0.7702131289
 C         -4.4344943241       -1.6254216442        0.7209251583
 C         -5.0365116717       -0.3880426568        1.3856105727
 C         -4.4520733768        0.8678899818        0.7406567953
 C         -4.7856423580        0.8795471809       -0.7502957298
 C         -4.1864619467       -0.3602715006       -1.4129917102
 C         -2.6700519627       -0.3500163796       -1.2343110282
 C         -2.3318454454       -0.3588319064        0.2609259577
 C         -2.9184399397       -1.6194633829        0.9047337145
 C         -2.9344211745        0.8798995317        0.9238608848
 N         -0.8874688643       -0.3199138503        0.4467191719
 C         -0.0077248838       -1.2497543810        0.0218933009
 O         -0.2996014082       -2.2868336990       -0.5496739443
 C          1.3924653048       -0.8641274702        0.2963501954
 N          1.7010077101        0.2819495789        0.8745737423
 N          3.0304110881        0.3804757347        0.9310222371
 C          3.6275414538       -0.7074463311        0.3716958057
 C          4.9665511328       -1.0477696550        0.1938020235
 C          5.2278041982       -2.2541652879       -0.4125394367
 C          4.1995535750       -3.1093127586       -0.8360801037
 C          2.8759923081       -2.7837566838       -0.6647875844
 C          2.5827097530       -1.5646420188       -0.0527378658
 C          3.6332662488        1.6044644533        1.3753099147
 C          3.9448134375        2.5508504742        0.2035025005
 C          2.7884829958        2.6895961434       -0.7892887154
 C          1.5048511605        3.2250990620       -0.1597379063
 C          0.3643110606        3.1997898206       -1.1658156318
 F         -0.8112024395        3.5861207306       -0.5630053364
 H         -5.8501854385       -1.6431058661       -0.9108500723
 H         -4.3444382529       -2.5054556435       -1.2466701984
 H         -4.8495463484       -2.5276149236        1.1840974224
 H         -4.8155071760       -0.3949938356        2.4555576712
 H         -6.1225666025       -0.3936642304        1.2684701150
 H         -4.8783333017        1.7577757309        1.2174475551
 H         -5.8692150843        0.8885753748       -0.8879935471
 H         -4.3806671077        1.7823773400       -1.2128138381
 H         -4.4233665716       -0.3533884569       -2.4829230087
 H         -2.2428621852        0.5433320834       -1.6971737657
 H         -2.2237661904       -1.2268901056       -1.7048632063
 H         -2.6646538631       -1.6357664876        1.9675930084
 H         -2.4740140677       -2.4977717642        0.4360832363
 H         -2.5142936198        1.7829047753        0.4750450997
 H         -2.6887882031        0.8817326223        1.9889344329
 H         -0.4934666451        0.4957841135        0.8908774288
 H          5.7631227138       -0.3950024388        0.5177362823
 H          6.2531592681       -2.5554876483       -0.5697789217
 H          4.4654986520       -4.0442135588       -1.3064478027
 H          2.0736204158       -3.4289375148       -0.9837509946
 H          4.5540275485        1.3730619744        1.9174358037
 H          2.9307917510        2.0751411223        2.0655451241
 H          4.2033651094        3.5277184390        0.6148656590
 H          4.8138037303        2.1714121830       -0.3380314686
 H          2.5829118969        1.7144155134       -1.2364248062
 H          3.1025994734        3.3553790238       -1.5961882950
 H          1.2156472828        2.5965199163        0.6826059868
 H          1.6531031073        4.2454141902        0.1992850431
 H          0.5309942820        3.8902242492       -1.9990154428
 H          0.1989514354        2.1864064738       -1.5474002717
