  58
        -82.23802563
 C         -4.7669935361       -1.6187454816       -0.7702131289
 C         -4.4344943241       -1.6254216442        0.7209251583
 C         -5.0365116717       -0.3880426568        1.3856105727
 C         -4.4520733768        0.8678899818        0.7406567953
 C         -4.7856423580        0.8795471809       -0.7502957298
 C         -4.1864619467       -0.3602715006       -1.4129917102
 C         -2.6700519627       -0.3500163796       -1.2343110282
 C         -2.3318454454       -0.3588319064        0.2609259577
 C         -2.9184399397       -1.6194633829        0.9047337145
 C         -2.9344211745        0.8798995317        0.9238608848
 N         -0.8874688643       -0.3199138503        0.4467191719
 C         -0.0077248838       -1.2497543810        0.0218933009
 O         -0.2996014082       -2.2868336990       -0.5496739443
 C          1.3924653048       -0.8641274702        0.2963501954
 N          1.7010077101        0.2819495789        0.8745737423
 N          3.0304110881        0.3804757347        0.9310222371
 C          3.6275414538       -0.7074463311        0.3716958057
 C          4.9665511328       -1.0477696550        0.1938020235
 C          5.2278041982       -2.2541652879       -0.4125394367
 C          4.1995535750       -3.1093127586       -0.8360801037
 C          2.8759923081       -2.7837566838       -0.6647875844
 C          2.5827097530       -1.5646420188       -0.0527378658
 C          3.6332662488        1.6044644533        1.3753099147
 C          3.9448134375        2.5508504742        0.2035025005
 C          2.7884829958        2.6895961434       -0.7892887154
 C          1.5048511605        3.2250990620       -0.1597379063
 C          0.3643110606        3.1997898206       -1.1658156318
 F         -0.8112024395        3.5861207306       -0.5630053364
 H         -5.8501854385       -1.6431058661       -0.9108500723
 H         -4.3444382529       -2.5054556435       -1.2466701984
 H         -4.8495463484       -2.5276149236        1.1840974224
 H         -4.8155071760       -0.3949938356        2.4555576712
 H         -6.1225666025       -0.3936642304        1.2684701150
 H         -4.8783333017        1.7577757309        1.2174475551
 H         -5.8692150843        0.8885753748       -0.8879935471
 H         -4.3806671077        1.7823773400       -1.2128138381
 H         -4.4233665716       -0.3533884569       -2.4829230087
 H         -2.2428621852        0.5433320834       -1.6971737657
 H         -2.2237661904       -1.2268901056       -1.7048632063
 H         -2.6646538631       -1.6357664876        1.9675930084
 H         -2.4740140677       -2.4977717642        0.4360832363
 H         -2.5142936198        1.7829047753        0.4750450997
 H         -2.6887882031        0.8817326223        1.9889344329
 H         -0.4934666451        0.4957841135        0.8908774288
 H          5.7631227138       -0.3950024388        0.5177362823
 H          6.2531592681       -2.5554876483       -0.5697789217
 H          4.4654986520       -4.0442135588       -1.3064478027
 H          2.0736204158       -3.4289375148       -0.9837509946
 H          4.5540275485        1.3730619744        1.9174358037
 H          2.9307917510        2.0751411223        2.0655451241
 H          4.2033651094        3.5277184390        0.6148656590
 H          4.8138037303        2.1714121830       -0.3380314686
 H          2.5829118969        1.7144155134       -1.2364248062
 H          3.1025994734        3.3553790238       -1.5961882950
 H          1.2156472828        2.5965199163        0.6826059868
 H          1.6531031073        4.2454141902        0.1992850431
 H          0.5309942820        3.8902242492       -1.9990154428
 H          0.1989514354        2.1864064738       -1.5474002717
  58
        -82.23780372
 C         -5.0244063237       -0.3591551635        1.3059990584
 C         -4.4609788094        0.8553107757        0.5695004593
 C         -4.8188487559        0.7650183268       -0.9130890642
 C         -4.2187441723       -0.5110226184       -1.5018542441
 C         -4.7784109985       -1.7281508048       -0.7673078143
 C         -4.4221145798       -1.6333278540        0.7153036044
 C         -2.9034611016       -1.6042919225        0.8738573721
 C         -2.3374453601       -0.3855508109        0.1376782393
 C         -2.9409776607        0.8894792579        0.7263673800
 C         -2.6999501284       -0.4780694784       -1.3489960319
 N         -0.8918054467       -0.3237703734        0.3007216297
 C         -0.0186510669       -1.2766190601       -0.0816788108
 O         -0.3211850399       -2.3553762780       -0.5651688705
 C          1.3879328051       -0.8856032874        0.1472642141
 N          1.7256634349        0.2125221092        0.7974760065
 N          3.0584214518        0.2917376064        0.8181621505
 C          3.6258523563       -0.7566716882        0.1614123361
 C          4.9543189127       -1.0954721060       -0.0858687168
 C          5.1817317868       -2.2574556543       -0.7855407377
 C          4.1305052619       -3.0705395816       -1.2342881576
 C          2.8172066899       -2.7445784152       -0.9971725432
 C          2.5584989764       -1.5704417655       -0.2893883794
 C          3.7063474694        1.4285065859        1.4062054791
 C          3.8750221029        2.5776690562        0.4024585406
 C          2.5592146910        3.0275180818       -0.2324159737
 C          1.5496108208        3.5563197742        0.7853462343
 C          0.2964589614        4.0903858540        0.1088053263
 F         -0.4090591107        3.0636209753       -0.4751511537
 H         -6.1122272018       -0.3806673218        1.2074269109
 H         -4.7862368271       -0.2931249075        2.3702984493
 H         -4.8884803142        1.7714808340        0.9938199894
 H         -4.4293128728        1.6374156431       -1.4425279483
 H         -5.9047641824        0.7563695829       -1.0326861508
 H         -4.4733093340       -0.5768352964       -2.5656689020
 H         -5.8636119590       -1.7704906431       -0.8880730283
 H         -4.3554897621       -2.6411792476       -1.1904407296
 H         -4.8227676158       -2.5055018537        1.2441478454
 H         -2.4593950150       -2.5085644204        0.4577221997
 H         -2.6326410454       -1.5479128948        1.9311076706
 H         -2.5309393561        1.7578630117        0.2069599611
 H         -2.6770704660        0.9647106921        1.7844353205
 H         -2.2553059490       -1.3822065579       -1.7660725721
 H         -2.2821821058        0.3838165088       -1.8748004245
 H         -0.4935105313        0.5491144270        0.6117032037
 H          5.7698827791       -0.4747268498        0.2541049702
 H          6.1980361197       -2.5555219785       -0.9986102616
 H          4.3701693675       -3.9718716341       -1.7786518633
 H          1.9970443296       -3.3581017650       -1.3328316442
 H          4.6861698901        1.1164070712        1.7767356026
 H          3.1002314451        1.7539616573        2.2540577982
 H          4.3405682132        3.4176847548        0.9219274424
 H          4.5516712004        2.2537237552       -0.3913636343
 H          2.1072868009        2.1924078882       -0.7699548685
 H          2.7795649508        3.8112833953       -0.9612805451
 H          1.2531180285        2.7502299485        1.4573636147
 H          1.9909834986        4.3643315564        1.3718517113
 H         -0.3821285761        4.5565064675        0.8310460951
 H          0.5339300966        4.7988828715       -0.6914931254
  58
        -82.23715520
 C         -5.0703545592       -0.7116442836        1.4236058398
 C         -4.5582369794        0.5940052061        0.8170565752
 C         -4.9529204117        0.6614698792       -0.6575104159
 C         -4.3353381601       -0.5220468995       -1.4013533417
 C         -4.8455471628       -1.8296191835       -0.7981364968
 C         -4.4532993643       -1.8937615963        0.6769786169
 C         -2.9322371846       -1.8404006111        0.8022458864
 C         -2.4155811517       -0.5300005468        0.1977649808
 C         -3.0354544057        0.6530702151        0.9418098749
 C         -2.8140379287       -0.4648425077       -1.2808677144
 N         -0.9676686592       -0.4470432155        0.3309911188
 C         -0.0740626705       -1.3100955908       -0.1989163537
 O         -0.3565598934       -2.2806384649       -0.8800532735
 C          1.3189186339       -0.9369918829        0.1164136908
 N          1.6138868766        0.0998715153        0.8814839801
 N          2.9418010681        0.1982295966        0.9567822587
 C          3.5507891712       -0.7734345709        0.2241798361
 C          4.8938264355       -1.0662559602       -0.0032131434
 C          5.1682980013       -2.1501718171       -0.8035504149
 C          4.1494417724       -2.9312928185       -1.3695623208
 C          2.8224991752       -2.6518095459       -1.1512165277
 C          2.5159381740       -1.5564387639       -0.3427501326
 C          3.5454426892        1.3040181059        1.6440682963
 C          3.8660428773        2.4661560770        0.6923865686
 C          2.6743181187        2.8891951538       -0.1664357924
 C          1.4646736560        3.3375498251        0.6527606679
 C          0.3427557530        3.8347926383       -0.2457024881
 F          0.7233097478        4.9766105136       -0.9119087955
 H         -6.1592681366       -0.7514719681        1.3493439271
 H         -4.8053005099       -0.7599244568        2.4824032793
 H         -4.9966561155        1.4438335874        1.3530457186
 H         -4.6039331970        1.6000709544       -1.0944012471
 H         -6.0407338665        0.6334534803       -0.7506067767
 H         -4.6145243071       -0.4736767575       -2.4595880341
 H         -5.9318984743       -1.8873821057       -0.8979820578
 H         -4.4115606275       -2.6766474255       -1.3324496002
 H         -4.8178320048       -2.8307065863        1.1123050434
 H         -2.4762004453       -2.6774040716        0.2729947501
 H         -2.6348756405       -1.8986992932        1.8523523844
 H         -2.6628077577        1.5895978114        0.5179133306
 H         -2.7470014051        0.6168432873        1.9956450971
 H         -2.3579624518       -1.3033739488       -1.8073357682
 H         -2.4330189739        0.4608669086       -1.7197474986
 H         -0.5827558428        0.2941907542        0.8964540945
 H          5.6833199589       -0.4698539545        0.4285490718
 H          6.1968584651       -2.4107471054       -1.0058861205
 H          4.4258982371       -3.7705285026       -1.9902426757
 H          2.0274445807       -3.2421088550       -1.5769119817
 H          4.4630189287        0.9595782116        2.1289594981
 H          2.8429712466        1.6282722845        2.4140421179
 H          4.2109190115        3.3104175630        1.2917747058
 H          4.6806015042        2.1674827807        0.0292901239
 H          2.3771167260        2.0582905927       -0.8101829456
 H          2.9877338411        3.7112146439       -0.8127352920
 H          1.0753114449        2.5002755730        1.2318647176
 H          1.7551962947        4.1396535999        1.3343959054
 H          0.0884910254        3.0955925299       -1.0125542801
 H         -0.5493725638        4.0984557291        0.3322849086
  58
        -82.23704428
 C         -5.0945612697       -0.6469396540        1.3191878203
 C         -4.5089440403        0.7086016067        0.9258348389
 C         -4.8281448729        0.9967456263       -0.5402761793
 C         -4.2162305998       -0.0960652100       -1.4157396209
 C         -4.7982838456       -1.4535165125       -1.0250087520
 C         -4.4808103502       -1.7376748323        0.4421998645
 C         -2.9667021395       -1.7640574106        0.6404847903
 C         -2.3788669027       -0.4044185686        0.2496486226
 C         -2.9935443022        0.6879447981        1.1243986765
 C         -2.7021026905       -0.1165074400       -1.2211788470
 N         -0.9383568881       -0.3957486422        0.4575920912
 C         -0.0523957966       -1.2166712231       -0.1388492601
 O         -0.3348163727       -2.1384177992       -0.8872099313
 C          1.3456971867       -0.8713487055        0.1943453336
 N          1.6507295779        0.0623963038        1.0766883237
 N          2.9783074042        0.1889180439        1.1093384641
 C          3.5772882808       -0.6628124356        0.2323074951
 C          4.9146469032       -0.8831700039       -0.0895115803
 C          5.1776668958       -1.8454557632       -1.0362252237
 C          4.1527009256       -2.5756852112       -1.6559457814
 C          2.8307813249       -2.3651689562       -1.3468905758
 C          2.5359254984       -1.3944704798       -0.3890478783
 C          3.5883088167        1.2045491383        1.9171263745
 C          3.7908451417        2.5233720285        1.1580747116
 C          2.4739899546        3.1760928599        0.7225709926
 C          2.0220437668        2.7611595760       -0.6785823910
 C          0.6665158823        3.3590058310       -1.0242702511
 F         -0.3092742741        2.8551634055       -0.1948963457
 H         -6.1795325591       -0.6331704244        1.1918356400
 H         -4.8837599813       -0.8523865952        2.3713085046
 H         -4.9448472264        1.4926252805        1.5559194903
 H         -4.4225628607        1.9707316716       -0.8232872507
 H         -5.9105181883        1.0283909065       -0.6853000099
 H         -4.4427748842        0.1095821205       -2.4681972711
 H         -5.8800277756       -1.4537940491       -1.1793823613
 H         -4.3671167568       -2.2348440534       -1.6537614970
 H         -4.8981301822       -2.7108208930        0.7245183903
 H         -2.5139931238       -2.5384917706        0.0210626825
 H         -2.7236305598       -1.9778820805        1.6841558048
 H         -2.5648290008        1.6549885461        0.8520713311
 H         -2.7579704908        0.4924057558        2.1734339951
 H         -2.2480853252       -0.8896547796       -1.8420478278
 H         -2.2696441265        0.8472324873       -1.5004447344
 H         -0.5490399144        0.3631300030        0.9971148119
 H          5.7092383119       -0.3249175129        0.3825117957
 H          6.2019161602       -2.0474276274       -1.3139999477
 H          4.4199703698       -3.3193860446       -2.3918905217
 H          2.0306994927       -2.9181022638       -1.8115891645
 H          4.5521427376        0.8314453170        2.2747929861
 H          2.9319373954        1.3731455811        2.7744108585
 H          4.3276533641        3.1994528223        1.8255705490
 H          4.4215339949        2.3454669365        0.2845813087
 H          2.5892684252        4.2624224216        0.7374298801
 H          1.6897008931        2.9137160388        1.4345957037
 H          2.7433848940        3.1009929654       -1.4241791192
 H          1.9418488621        1.6774475934       -0.7500901648
 H          0.6553959032        4.4457925223       -0.8886570861
 H          0.3658800834        3.1050892616       -2.0456276017
  58
        -82.23701282
 C         -4.9335292580       -2.2609505557        0.3226175079
 C         -4.4627169329       -1.2536009207        1.3702263803
 C         -5.1493918740        0.0909970154        1.1335311061
 C         -4.7917647630        0.6034392505       -0.2608633798
 C         -5.2651083859       -0.4008622024       -1.3106329427
 C         -4.5789475847       -1.7452020972       -1.0710344167
 C         -3.0655299206       -1.5737702922       -1.1805144090
 C         -2.5875770268       -0.5640784974       -0.1306772253
 C         -2.9489627996       -1.0807739526        1.2665176035
 C         -3.2768036359        0.7797562566       -0.3680559907
 N         -1.1483981129       -0.3683495246       -0.2374758615
 C         -0.2102187779       -1.3282403859       -0.0900309959
 O         -0.4405338286       -2.4960164586        0.1756512934
 C          1.1594810187       -0.8131547780       -0.2780527122
 N          1.4101812125        0.4593247070       -0.5368805527
 N          2.7294860728        0.6087994989       -0.6520142950
 C          3.3787406474       -0.5710421921       -0.4601583359
 C          4.7312486100       -0.9058726733       -0.4845151585
 C          5.0514767825       -2.2229518327       -0.2540604003
 C          4.0683460057       -3.1927125671       -0.0053877227
 C          2.7324842921       -2.8742139466        0.0171731693
 C          2.3797903388       -1.5438023563       -0.2133720311
 C          3.3015942544        1.9087720028       -0.8591965918
 C          3.8491092363        2.5152133449        0.4389733337
 C          2.8374345395        2.5060955642        1.5867308628
 C          1.5225321617        3.2276237871        1.2850067482
 C          1.6898116648        4.7044852034        0.9565379053
 F          2.1447180896        4.8851176363       -0.3311975908
 H         -6.0134448297       -2.4055548096        0.4031788614
 H         -4.4498067821       -3.2243385314        0.4936422191
 H         -4.7154575320       -1.6212312712        2.3709638265
 H         -4.8285619256        0.8118749606        1.8893269285
 H         -6.2322666381       -0.0234196146        1.2189833374
 H         -5.2798193983        1.5699905909       -0.4323744568
 H         -6.3490803143       -0.5191061490       -1.2470198706
 H         -5.0267925139       -0.0337334213       -2.3116358054
 H         -4.9153240516       -2.4659461364       -1.8245430536
 H         -2.7943821809       -1.2173252156       -2.1774614908
 H         -2.5607130907       -2.5250718752       -1.0108914468
 H         -2.5948589080       -0.3715416107        2.0190103904
 H         -2.4441169177       -2.0325470480        1.4326994123
 H         -3.0156693290        1.1568805921       -1.3602260239
 H         -2.9331391403        1.5051694927        0.3741097836
 H         -0.8071570956        0.5504847920       -0.4755288931
 H          5.4929828970       -0.1659993472       -0.6785272155
 H          6.0887760041       -2.5244992123       -0.2641581617
 H          4.3800689052       -4.2118183057        0.1691383855
 H          1.9642923293       -3.6070337545        0.2033420611
 H          2.5196839931        2.5474744157       -1.2716771935
 H          4.1086378463        1.8288807298       -1.5932811719
 H          4.7284081138        1.9507495401        0.7570630770
 H          4.1651891029        3.5353551163        0.2213155756
 H          3.3054900438        2.9649684539        2.4611010606
 H          2.6021820664        1.4718698132        1.8473956572
 H          1.0118451307        2.7319528790        0.4584723775
 H          0.8800952104        3.1566691037        2.1644084558
 H          0.7322204310        5.2320630767        1.0132442642
 H          2.4192962094        5.1876375140        1.6149588481
  58
        -82.23674314
 C         -5.2171036318       -1.2462645787       -1.3341818754
 C         -4.5485756302       -2.2415973829       -0.3866690358
 C         -4.9474413801       -1.9255290526        1.0538209103
 C         -4.4992166776       -0.5076079570        1.4038020462
 C         -5.1675972330        0.4897300626        0.4582885073
 C         -4.7660195490        0.1702393012       -0.9809581097
 C         -3.2472480292        0.2739628232       -1.1233412822
 C         -2.5761094558       -0.7219169457       -0.1774101209
 C         -3.0312571702       -2.1430559907       -0.5281543286
 C         -2.9817830950       -0.4047287616        1.2664870006
 N         -1.1325465823       -0.6027798960       -0.3318675080
 C         -0.2083111757       -1.3264620289        0.3334969540
 O         -0.4544596934       -2.1801511050        1.1691589868
 C          1.1720911740       -0.9718333773       -0.0518647146
 N          1.4410489203       -0.0345987434       -0.9440955037
 N          2.7654474065        0.0494867391       -1.0727201414
 C          3.3990404450       -0.8299720755       -0.2491222149
 C          4.7489131188       -1.1004816306       -0.0345392421
 C          5.0500083588       -2.0815879983        0.8809121971
 C          4.0506652890       -2.7831895821        1.5716747215
 C          2.7171235164       -2.5253820280        1.3661312781
 C          2.3839528793       -1.5337042220        0.4427498194
 C          3.3577221852        1.0461614324       -1.9189582699
 C          3.7778637265        2.2861235083       -1.1214751664
 C          2.5701042863        3.0079937157       -0.5306674206
 C          2.9829430230        4.2067591225        0.3206304557
 C          1.7725917302        4.9468970175        0.8702002567
 F          1.0500146491        5.5117221070       -0.1546875805
 H         -6.3033514147       -1.3210597044       -1.2473764369
 H         -4.9474524840       -1.4764527016       -2.3675823762
 H         -4.8685649260       -3.2583501984       -0.6402288785
 H         -4.4765544822       -2.6393982806        1.7321457781
 H         -6.0303515520       -2.0133165407        1.1687940402
 H         -4.7837740389       -0.2783932570        2.4367990307
 H         -6.2533768406        0.4304963289        0.5612359714
 H         -4.8624262175        1.5073618836        0.7129547325
 H         -5.2410264062        0.8864745239       -1.6613634978
 H         -2.9194822478        1.2885261273       -0.8827314885
 H         -2.9546030846        0.0565820121       -2.1537956746
 H         -2.5393170005       -2.8477197628        0.1426818902
 H         -2.7287155850       -2.3790983008       -1.5514814739
 H         -2.6445951815        0.6021175164        1.5255686770
 H         -2.4896103004       -1.1111070516        1.9353831627
 H         -0.7759430749        0.0671538147       -0.9967859416
 H          5.5237694423       -0.5660696130       -0.5633542123
 H          6.0848130772       -2.3218918671        1.0769066540
 H          4.3474992123       -3.5433267072        2.2789081791
 H          1.9364413886       -3.0563099440        1.8861155098
 H          2.6105931478        1.3202045048       -2.6671696714
 H          4.2252680639        0.6084703470       -2.4212081281
 H          4.4522760358        1.9819962624       -0.3174831009
 H          4.3237992330        2.9591527415       -1.7848772180
 H          1.9942198503        2.3117856562        0.0828636215
 H          1.9223486437        3.3520442193       -1.3392516853
 H          3.5933720761        3.8788403822        1.1637840593
 H          3.5740216212        4.8995608303       -0.2819365140
 H          1.0912265728        4.2694617018        1.3950227836
 H          2.0677963258        5.7683084323        1.5309736268
  58
        -82.23673153
 C         -5.1186233163       -0.8523384056        1.3918637475
 C         -4.6088605306        0.5135462617        0.9342099481
 C         -4.9909799940        0.7371647104       -0.5282124549
 C         -4.3601015479       -0.3563677492       -1.3893956625
 C         -4.8667904908       -1.7240249969       -0.9346948429
 C         -4.4870075996       -1.9439047777        0.5287044350
 C         -2.9674649199       -1.8960339578        0.6733388520
 C         -2.4543691216       -0.5255615746        0.2178660615
 C         -3.0878709283        0.5668074152        1.0794528715
 C         -2.8404042522       -0.3042024030       -1.2491503910
 N         -1.0080297964       -0.4498192811        0.3721415601
 C         -0.1074451658       -1.2546186198       -0.2288135083
 O         -0.3794474213       -2.1768830844       -0.9790580813
 C          1.2843516660       -0.8883552291        0.1033253244
 N          1.5731670186        0.1217613965        0.9051390166
 N          2.8999002013        0.2303206868        0.9809435832
 C          3.5151238064       -0.7161547095        0.2209696843
 C          4.8603027755       -0.9982133330       -0.0081506375
 C          5.1421048011       -2.0533576833       -0.8439638012
 C          4.1286051959       -2.8161895615       -1.4432283212
 C          2.7996346483       -2.5483756083       -1.2216581551
 C          2.4856527025       -1.4830829556       -0.3769223293
 C          3.5100759688        1.2806524382        1.7466239885
 C          4.0282033575        2.4392382258        0.8814833419
 C          2.9509614905        3.4407434164        0.4632072695
 C          1.9584617036        2.8841635063       -0.5569299371
 C          0.9314559933        3.9274209100       -0.9688044983
 F          0.1072382170        4.2312873785        0.0910539415
 H         -6.2066687095       -0.8901957640        1.3030481368
 H         -4.8629308295       -1.0127678059        2.4418469687
 H         -5.0571889582        1.2986213109        1.5538739232
 H         -4.6428238100        1.7188893674       -0.8575192447
 H         -6.0778558116        0.7144519096       -0.6345921627
 H         -4.6308852786       -0.1963961543       -2.4390919183
 H         -5.9519119388       -1.7767982489       -1.0503546796
 H         -4.4226168956       -2.5064529707       -1.5528370850
 H         -4.8492093947       -2.9244423247        0.8572018320
 H         -2.5016175149       -2.6696295638        0.0624972072
 H         -2.6791980659       -2.0642232646        1.7139965298
 H         -2.7173801302        1.5458438991        0.7652122572
 H         -2.8089376974        0.4172069183        2.1255904427
 H         -2.3742043421       -1.0787155049       -1.8588181959
 H         -2.4619819885        0.6659606809       -1.5811860312
 H         -0.6324450017        0.2732469780        0.9674515188
 H          5.6455605675       -0.4169965116        0.4512255348
 H          6.1725938431       -2.3055002520       -1.0476132617
 H          4.4107450033       -3.6328144833       -2.0909781983
 H          2.0083533584       -3.1257482216       -1.6713919464
 H          4.3418181741        0.8485129901        2.3122009955
 H          2.7570940355        1.6451726277        2.4487453260
 H          4.7843950115        2.9726821315        1.4606315331
 H          4.5145134686        2.0309917369       -0.0072611062
 H          3.4446710162        4.3159858456        0.0323101497
 H          2.4022632880        3.7721438574        1.3470981688
 H          2.4860742383        2.5505109552       -1.4526093642
 H          1.4232932036        2.0346104174       -0.1314596743
 H          1.4015140439        4.8679573952       -1.2755359198
 H          0.2826610879        3.5552198947       -1.7681062813
  58
        -82.23661971
 C         -5.3125260583        0.5199582438       -0.4134025774
 C         -4.6223975286       -0.6654340863       -1.0871601346
 C         -5.0297444305       -1.9611042706       -0.3877304605
 C         -4.6143473412       -1.8959570428        1.0810113147
 C         -5.3042684163       -0.7118995801        1.7573165522
 C         -4.8941564165        0.5815808698        1.0549016199
 C         -3.3779038888        0.7555384098        1.1478201723
 C         -2.6854520267       -0.4287169508        0.4733089039
 C         -3.1074846634       -0.4935626996       -0.9988596816
 C         -3.0994737930       -1.7272836891        1.1746475920
 N         -1.2444403371       -0.2379333488        0.5747018452
 C         -0.3051736550       -1.0819252202        0.0982129245
 O         -0.5347892324       -2.1230338209       -0.4933832130
 C          1.0686161243       -0.6086752931        0.3583386594
 N          1.3239017012        0.5473872722        0.9471733335
 N          2.6475172847        0.6923291089        1.0241296630
 C          3.2931190941       -0.3776871310        0.4845896358
 C          4.6471304400       -0.6798088475        0.3493695898
 C          4.9614053368       -1.8735768062       -0.2567329442
 C          3.9720071630       -2.7542828006       -0.7191292802
 C          2.6350707347       -2.4701264671       -0.5831605786
 C          2.2882773751       -1.2645818307        0.0282476331
 C          3.2337933718        1.8855553693        1.5691816355
 C          3.8728071471        2.7828694572        0.4996182462
 C          2.8875735102        3.6971758815       -0.2309655156
 C          1.7770453397        2.9846645848       -1.0068971125
 C          2.2935941763        2.1071324915       -2.1377216443
 F          2.9766407129        2.8649661046       -3.0620806019
 H         -6.3967643258        0.4094302011       -0.4845977972
 H         -5.0370415990        1.4485566006       -0.9188103492
 H         -4.9187758317       -0.7095472722       -2.1409584033
 H         -4.5434695051       -2.8101770417       -0.8714221891
 H         -6.1104181297       -2.1019023429       -0.4636920318
 H         -4.9049515931       -2.8242466634        1.5851017858
 H         -6.3884789053       -0.8330893408        1.7054652820
 H         -5.0225349563       -0.6688077980        2.8120183154
 H         -5.3845167771        1.4334330581        1.5402219379
 H         -3.0735410767        0.8111114069        2.1962407238
 H         -3.0793726351        1.6850489508        0.6559895019
 H         -2.6004489259       -1.3327056450       -1.4755170912
 H         -2.7989968450        0.4241163751       -1.5061732052
 H         -2.7847785111       -1.6916723157        2.2206800767
 H         -2.5924919498       -2.5650895016        0.6955707396
 H         -0.9043858290        0.5824700180        1.0529509787
 H          5.4146646130       -0.0106378113        0.7075191010
 H          5.9993667720       -2.1448066276       -0.3819737714
 H          4.2795589995       -3.6766628386       -1.1886085300
 H          1.8616385379       -3.1369734379       -0.9276501004
 H          3.9962815969        1.5886339685        2.2972041867
 H          2.4397627637        2.4233895704        2.0915179737
 H          4.6124480976        3.4175272560        0.9918615065
 H          4.4069435996        2.1590726078       -0.2180293802
 H          3.4546647677        4.3156268875       -0.9300707794
 H          2.4203151331        4.3638735544        0.4975535540
 H          1.1790446904        2.3620274091       -0.3414102974
 H          1.1221094549        3.7444631538       -1.4390056089
 H          2.9904988191        1.3389056972       -1.7902183226
 H          1.4665927247        1.6292551888       -2.6724731564
  58
        -82.23649538
 C         -4.8166516478       -1.8748529458       -0.5324952614
 C         -4.4603836761       -1.5136740828        0.9085906474
 C         -5.0761644919       -0.1610837503        1.2644000640
 C         -4.5256354964        0.9087807023        0.3224254916
 C         -4.8830405620        0.5522591919       -1.1196396418
 C         -4.2702827283       -0.8022457983       -1.4733077681
 C         -2.7517506526       -0.7274410926       -1.3324739316
 C         -2.3896761295       -0.3669363645        0.1128973282
 C         -2.9419228038       -1.4412060905        1.0555688479
 C         -3.0061303458        0.9858885514        0.4686973939
 N         -0.9439862614       -0.2608934811        0.2587388541
 C         -0.0596962489       -1.2578606298        0.0564213889
 O         -0.3519043012       -2.4081431114       -0.2266785998
 C          1.3450489641       -0.8253709283        0.2133068448
 N          1.6852337131        0.3742424663        0.6490344462
 N          3.0185107789        0.4525272992        0.6605161600
 C          3.5833578714       -0.7027225916        0.2143303546
 C          4.9116574413       -1.0865383910        0.0427855568
 C          5.1369108784       -2.3596502436       -0.4258682818
 C          4.0840880756       -3.2384158883       -0.7212596569
 C          2.7712710651       -2.8693050152       -0.5569496701
 C          2.5148316019       -1.5823772212       -0.0824231004
 C          3.6823571021        1.6714026452        1.0270366751
 C          3.9449124220        2.5673341033       -0.1901006082
 C          2.6733369875        3.0743610800       -0.8721367938
 C          1.8634032210        4.0647444026       -0.0218051518
 C          0.6485351199        3.4277175939        0.6394473051
 F         -0.3046972491        3.1281538406       -0.3119518356
 H         -5.9013713033       -1.9488691055       -0.6410917224
 H         -4.3846217418       -2.8443978393       -0.7874337244
 H         -4.8509987935       -2.2819997067        1.5853061305
 H         -4.8387815804        0.0957750582        2.2995156939
 H         -6.1636437266       -0.2113335133        1.1733028423
 H         -4.9620029067        1.8814518902        0.5775688126
 H         -5.9688011887        0.5112064400       -1.2331701567
 H         -4.5035134170        1.3207405480       -1.7967894106
 H         -4.5244674731       -1.0590858024       -2.5078432766
 H         -2.3442922399        0.0300175716       -2.0065941575
 H         -2.2980811498       -1.6871948978       -1.5823005598
 H         -2.6711713365       -1.1946792231        2.0852858370
 H         -2.4888867841       -2.4007243937        0.8060439259
 H         -2.6044733436        1.7577193120       -0.1915298443
 H         -2.7445575635        1.2475801237        1.4972557972
 H         -0.5622837416        0.6590109581        0.4130764699
 H          5.7283100491       -0.4163563314        0.2659183446
 H          6.1527975040       -2.6961773597       -0.5732077267
 H          4.3222849575       -4.2264797854       -1.0860099590
 H          1.9497487614       -3.5315767077       -0.7763392838
 H          4.6319646506        1.4130759432        1.5041912155
 H          3.0562175197        2.1913270249        1.7546180102
 H          4.5496682108        3.4174333471        0.1323485286
 H          4.5286619847        1.9973987628       -0.9167474383
 H          2.0380684545        2.2280561395       -1.1376916026
 H          2.9693520939        3.5602340994       -1.8031583830
 H          2.4913865091        4.5000693582        0.7570718477
 H          1.5039105889        4.8804016188       -0.6517703860
 H          0.8919397344        2.4793069108        1.1271189077
 H          0.1696592916        4.1159540057        1.3441162539
  58
        -82.23648361
 C         -5.3795702556       -1.5800639277        1.5854195697
 C         -5.0487697308       -0.1127510769        1.3166715626
 C         -5.5402879221        0.2741100141       -0.0774296982
 C         -4.8475450237       -0.6026017870       -1.1199935503
 C         -5.1757713068       -2.0708566958       -0.8547775652
 C         -4.6871858759       -2.4547261190        0.5409050631
 C         -3.1759175349       -2.2525976061        0.6247216962
 C         -2.8408466025       -0.7805406554        0.3586951212
 C         -3.5363303040        0.0944937639        1.4016667102
 C         -3.3366287682       -0.3959433939       -1.0399938560
 N         -1.4041222471       -0.5646336910        0.4604196313
 C         -0.4625221655       -1.1692335580       -0.2949551490
 O         -0.6885738893       -1.9736320531       -1.1834334988
 C          0.9055169840       -0.7485206689        0.0639609340
 N          1.1485493232        0.1455105168        1.0077435163
 N          2.4689060955        0.3049524247        1.0983173717
 C          3.1252241768       -0.4783275966        0.1989185396
 C          4.4808643195       -0.6488950558       -0.0751227688
 C          4.8077094465       -1.5457817561       -1.0648421171
 C          3.8287683593       -2.2619638552       -1.7701407856
 C          2.4903352504       -2.1040549988       -1.5049601852
 C          2.1306759280       -1.1983183469       -0.5059999507
 C          3.0304156837        1.2809070124        1.9894420527
 C          3.4610435065        2.5452111007        1.2390179110
 C          2.2672706084        3.2518853712        0.6004593826
 C          2.6674496947        4.4948161682       -0.1946405673
 C          3.4891317673        4.1851229688       -1.4396651957
 F          4.8016833055        3.9213217643       -1.1205874286
 H         -6.4605318670       -1.7299315196        1.5397493727
 H         -5.0450163905       -1.8599514436        2.5871053271
 H         -5.5412612641        0.5171507628        2.0666842663
 H         -5.3216783707        1.3270154635       -0.2707271577
 H         -6.6226405260        0.1406293385       -0.1382573015
 H         -5.1966426431       -0.3245517509       -2.1206718048
 H         -6.2538260115       -2.2313652888       -0.9298663964
 H         -4.6876518107       -2.6987931548       -1.6023045291
 H         -4.9209935025       -3.5076108743        0.7336815925
 H         -2.6670173009       -2.8700459153       -0.1157444238
 H         -2.8086738209       -2.5355767583        1.6144443774
 H         -3.2938320335        1.1449778171        1.2207937127
 H         -3.1799798125       -0.1706965194        2.4004357058
 H         -2.8273716312       -1.0159043718       -1.7780571121
 H         -3.0847953843        0.6486423484       -1.2402525264
 H         -1.0635776104        0.0752362770        1.1621383028
 H          5.2402664077       -0.1029133215        0.4634357729
 H          5.8474185448       -1.7060963816       -1.3098145738
 H          4.1457984262       -2.9528675235       -2.5371556931
 H          1.7253859113       -2.6479138870       -2.0349514562
 H          3.8899824770        0.8386558665        2.5022521676
 H          2.2591249142        1.5208773207        2.7250322150
 H          3.9549240028        3.2188611284        1.9412599681
 H          4.1847942998        2.2701766399        0.4721362106
 H          1.5676647688        3.5481987824        1.3854709201
 H          1.7429474290        2.5589457413       -0.0615148164
 H          1.7648910843        5.0163149392       -0.5174153547
 H          3.2429460378        5.1718503823        0.4398753611
 H          3.1116662120        3.3020162678       -1.9655087143
 H          3.5120840401        5.0421076135       -2.1204507082
  58
        -82.23648167
 C         -5.5305054465        0.2532108506        0.5312321452
 C         -5.1505028114        0.0167611358       -0.9297517429
 C         -5.5060562495       -1.4159833912       -1.3240436618
 C         -4.7370840628       -2.3916736604       -0.4340549415
 C         -5.1140094849       -2.1583670169        1.0279351747
 C         -4.7613281318       -0.7243199274        1.4190621120
 C         -3.2605767296       -0.5029684461        1.2436594274
 C         -2.8766852277       -0.7366322023       -0.2219746694
 C         -3.6486210257        0.2392549112       -1.1101701854
 C         -3.2363290574       -2.1743850202       -0.6138546324
 N         -1.4514864836       -0.5044891949       -0.4122284177
 C         -0.4563655740       -1.1816081599        0.1992200695
 O         -0.6160199576       -2.0766773715        1.0122064960
 C          0.8815661348       -0.7206056801       -0.2187171830
 N          1.0558273543        0.2737876593       -1.0730685453
 N          2.3659992057        0.4429341250       -1.2513459290
 C          3.0855994092       -0.4364891489       -0.5016245484
 C          4.4572776680       -0.6371943056       -0.3594525660
 C          4.8545386667       -1.6391764032        0.4943721058
 C          3.9290891341       -2.4294421932        1.1927807615
 C          2.5751655608       -2.2428179505        1.0560543451
 C          2.1445841229       -1.2309495919        0.1967119737
 C          2.8629382395        1.5128276367       -2.0700765058
 C          3.3837962255        2.6756580367       -1.2195114284
 C          2.2669379567        3.3114398569       -0.3944471071
 C          2.7655631536        4.4346262851        0.5150685436
 C          3.6792209734        3.9528921046        1.6350691780
 F          4.9541872418        3.7156995795        1.1741188924
 H         -6.6052462455        0.1087623029        0.6618544438
 H         -5.2940910486        1.2811503313        0.8161772870
 H         -5.6979790892        0.7192291991       -1.5690141759
 H         -5.2517449217       -1.5879477565       -2.3725322151
 H         -6.5806280188       -1.5751195794       -1.2101546238
 H         -4.9886382241       -3.4197475885       -0.7172087116
 H         -6.1834235864       -2.3312695450        1.1695827427
 H         -4.5710455132       -2.8587249201        1.6651525687
 H         -5.0304180508       -0.5542644111        2.4674948526
 H         -2.6972848840       -1.1942646091        1.8707505271
 H         -2.9904867725        0.5161239461        1.5319908773
 H         -3.3722052335        0.0817392740       -2.1559062254
 H         -3.3893637315        1.2662266322       -0.8398424719
 H         -2.6732088511       -2.8634701303        0.0158653997
 H         -2.9484143309       -2.3503158330       -1.6533766585
 H         -1.1643961513        0.2090704376       -1.0650938960
 H          5.1759581191       -0.0352695712       -0.8941998092
 H          5.9090911525       -1.8261837735        0.6345949399
 H          4.3005272635       -3.2017846147        1.8498665103
 H          1.8503663205       -2.8424853134        1.5822598150
 H          2.0326992258        1.8439159523       -2.6982293657
 H          3.6642641105        1.1277848175       -2.7081930739
 H          4.1685572222        2.3057229944       -0.5602036326
 H          3.8250976881        3.4237019350       -1.8803219857
 H          1.7831650305        2.5464916654        0.2171492032
 H          1.5109944812        3.7169040151       -1.0709573970
 H          3.3049844436        5.1783543787       -0.0749824149
 H          1.9076422556        4.9248103545        0.9780910829
 H          3.7793063745        4.7126333450        2.4168410533
 H          3.3249058697        3.0133983305        2.0718217975
  58
        -82.23643086
 C         -5.1919270261       -1.2645849917        1.5216825439
 C         -4.7774274479        0.1715306107        1.2047826593
 C         -5.2236736471        0.5308537024       -0.2117256055
 C         -4.5620627728       -0.4208752337       -1.2076715613
 C         -4.9739948277       -1.8582431883       -0.8943577499
 C         -4.5307410863       -2.2143814634        0.5236179164
 C         -3.0122749356       -2.0908411586        0.6284367630
 C         -2.5935027934       -0.6501551331        0.3140481066
 C         -3.2575066173        0.3003348675        1.3104141811
 C         -3.0436091411       -0.2927258256       -1.1069487580
 N         -1.1485942239       -0.5068084951        0.4338149233
 C         -0.2293003786       -1.1892771805       -0.2818476592
 O         -0.4844649927       -2.0121601238       -1.1445411406
 C          1.1546049768       -0.8273958942        0.0818103404
 N          1.4329977912        0.0891335077        0.9939099596
 N          2.7592693527        0.1934626479        1.0873200563
 C          3.3832999206       -0.6611871563        0.2318236312
 C          4.7310684350       -0.9178276486       -0.0130191503
 C          5.0217015893       -1.8716277114       -0.9600102890
 C          4.0147995066       -2.5610100263       -1.6523386710
 C          2.6836906585       -2.3209551060       -1.4135462754
 C          2.3610359353       -1.3579050443       -0.4565273198
 C          3.3647882908        1.1402825158        1.9810842143
 C          3.9827354212        2.3466327645        1.2611047937
 C          2.9670571565        3.3909521192        0.7993057056
 C          2.0804359013        2.9198317864       -0.3536048497
 C          1.2325242576        4.0573342957       -0.9017128959
 F          2.0289144684        5.0343802106       -1.4539728504
 H         -6.2784623108       -1.3577109355        1.4611412611
 H         -4.8901586586       -1.5237136689        2.5392383251
 H         -5.2472546184        0.8551232754        1.9214902671
 H         -4.9452671750        1.5624095535       -0.4399588721
 H         -6.3104319047        0.4532131831       -0.2878197723
 H         -4.8783883470       -0.1628390756       -2.2243620708
 H         -6.0577040911       -1.9633935094       -0.9837710369
 H         -4.5082087326       -2.5395813766       -1.6085955399
 H         -4.8246163971       -3.2450236171        0.7509777228
 H         -2.5255372886       -2.7626650556       -0.0788490754
 H         -2.6778108089       -2.3551858825        1.6348073382
 H         -2.9554208871        1.3286687914        1.0949968408
 H         -2.9332306440        0.0548141472        2.3250489535
 H         -2.5565683308       -0.9664990031       -1.8120617661
 H         -2.7321143321        0.7285906299       -1.3407349839
 H         -0.7875567251        0.1294802776        1.1283540356
 H          5.5119705903       -0.3959818757        0.5190282166
 H          6.0542977247       -2.1002342325       -1.1798200271
 H          4.3039496102       -3.2984371809       -2.3862046960
 H          1.8971501457       -2.8444623997       -1.9321600120
 H          4.1431989633        0.6222785066        2.5516820674
 H          2.5848923205        1.4715162580        2.6702746153
 H          4.6764840280        2.8248563902        1.9553337818
 H          4.5584315297        1.9949160841        0.4029101905
 H          3.5147399193        4.2764736697        0.4690927876
 H          2.3387336660        3.6838801498        1.6439091723
 H          2.7045470430        2.5277295858       -1.1597289329
 H          1.4032601345        2.1318326112       -0.0245102736
 H          0.5666161198        3.7118767433       -1.6987043450
 H          0.6508306313        4.5435222752       -0.1113529633
  58
        -82.23634232
 C         -5.4524273956       -1.4510462183       -1.2459035250
 C         -4.7123855022       -2.4622228173       -0.3710978432
 C         -5.1050159780       -2.2594104641        1.0913214725
 C         -4.7332188981       -0.8420665518        1.5235249441
 C         -5.4735266194        0.1708667576        0.6509600093
 C         -5.0779058767       -0.0351239927       -0.8104981024
 C         -3.5701227804        0.1656310488       -0.9654757444
 C         -2.8270058521       -0.8456932848       -0.0924560224
 C         -3.2058189626       -2.2666099730       -0.5255701928
 C         -3.2266756327       -0.6425358518        1.3734630692
 N         -1.3956297024       -0.6333032580       -0.2578157641
 C         -0.4204419904       -1.3407947163        0.3513937980
 O         -0.6060572124       -2.2504258314        1.1423400516
 C          0.9305616633       -0.8937658542       -0.0390885158
 N          1.1325548231        0.1038322936       -0.8834845952
 N          2.4478349366        0.2576396421       -1.0372539922
 C          3.1423598882       -0.6358528963       -0.2810169164
 C          4.5086696766       -0.8548299934       -0.1164738317
 C          4.8785056870       -1.8697459315        0.7344835388
 C          3.9310476072       -2.6540662545        1.4095555727
 C          2.5821748494       -2.4481228956        1.2519758791
 C          2.1793291741       -1.4236053588        0.3943661131
 C          2.9747566454        1.3172148690       -1.8503730222
 C          3.4238569551        2.5135933110       -1.0050178898
 C          2.2425345116        3.1786858307       -0.3017576006
 C          2.6698156519        4.2869218129        0.6606842741
 C          3.2856629815        5.4960675977       -0.0307072980
 F          4.5712337049        5.2367257432       -0.4471747916
 H         -6.5310182177       -1.5942773946       -1.1501553737
 H         -5.1868793520       -1.6007822721       -2.2950506659
 H         -4.9776091809       -3.4782487316       -0.6837574445
 H         -4.5828005870       -2.9850052258        1.7175348431
 H         -6.1790601109       -2.4171818178        1.2144729705
 H         -5.0134530388       -0.6939272448        2.5723453903
 H         -6.5522554276        0.0419074386        0.7637911388
 H         -5.2234214713        1.1869895575        0.9651343916
 H         -5.6046541537        0.6927125611       -1.4387319115
 H         -3.2970156704        1.1807157160       -0.6655316421
 H         -3.2823434396        0.0298795208       -2.0112293186
 H         -2.6631278309       -2.9810390886        0.0937712576
 H         -2.9068725988       -2.4213086085       -1.5653698294
 H         -2.9430759752        0.3640424612        1.6912241498
 H         -2.6837950018       -1.3591126067        1.9900616346
 H         -1.0876552653        0.0860166463       -0.8946308951
 H          5.2435120013       -0.2567930120       -0.6337953430
 H          5.9280439043       -2.0722950024        0.8906532580
 H          4.2812410643       -3.4370826897        2.0656508772
 H          1.8409374406       -3.0427253721        1.7607127500
 H          2.1807340971        1.6191836647       -2.5372598645
 H          3.8190415065        0.9291540707       -2.4277334936
 H          4.1451118702        2.1743052241       -0.2587530427
 H          3.9275176039        3.2269579607       -1.6566839508
 H          1.6934352275        2.4232469541        0.2642652488
 H          1.5594182176        3.5906302690       -1.0485876663
 H          1.7965992398        4.6356764594        1.2144702561
 H          3.3917322739        3.8932768071        1.3789238206
 H          2.7208942811        5.7831602393       -0.9238990822
 H          3.3562258370        6.3474642801        0.6540458909
  58
        -82.23633400
 C         -5.1120254804       -2.4493995589       -0.4415346217
 C         -4.6936518129       -2.2746265601        1.0173375399
 C         -5.4157613387       -1.0686595421        1.6171049221
 C         -5.0464494896        0.1866786782        0.8281542859
 C         -5.4679236331        0.0150419578       -0.6304780254
 C         -4.7451117667       -1.1918053077       -1.2274966338
 C         -3.2357523009       -0.9700840001       -1.1588583077
 C         -2.8103903867       -0.7950761307        0.3033541388
 C         -3.1841331229       -2.0559943469        1.0912264162
 C         -3.5357508339        0.4105755519        0.9012798003
 N         -1.3759055126       -0.5566139497        0.3848970548
 C         -0.4131973634       -1.3984964995       -0.0477928701
 O         -0.6146913677       -2.4686783941       -0.5968463097
 C          0.9454237452       -0.8826460752        0.2081958729
 N          1.1641451008        0.2709413573        0.8167988146
 N          2.4821567120        0.4502813196        0.9052707346
 C          3.1615101573       -0.5849603422        0.3402340880
 C          4.5242096682       -0.8366417343        0.1937949012
 C          4.8771031062       -2.0100874670       -0.4302080763
 C          3.9165092499       -2.9182148500       -0.9004398805
 C          2.5710698760       -2.6804053574       -0.7592718358
 C          2.1853159824       -1.4960761860       -0.1299874544
 C          3.0244209155        1.6546364588        1.4682273559
 C          3.4281469710        2.6589904326        0.3838605062
 C          2.2136676420        3.1648784794       -0.3917343088
 C          2.5902452772        4.0724820316       -1.5628687032
 C          3.1983731277        5.4023241896       -1.1373967484
 F          4.4999777512        5.2493627970       -0.7181050432
 H         -6.1884267519       -2.6264239295       -0.5022904500
 H         -4.6025040415       -3.3141656070       -0.8703518841
 H         -4.9554104952       -3.1753275624        1.5835958080
 H         -5.1316139480       -0.9471555286        2.6650235536
 H         -6.4961749431       -1.2246311901        1.5794534293
 H         -5.5604087227        1.0542542691        1.2583659962
 H         -6.5487548570       -0.1315909624       -0.6883373807
 H         -5.2216051002        0.9155505134       -1.1980429742
 H         -5.0436375959       -1.3147233993       -2.2744968268
 H         -2.9560564791       -0.0796361242       -1.7275537770
 H         -2.7052869428       -1.8234826646       -1.5814492711
 H         -2.8667584202       -1.9423705916        2.1309149472
 H         -2.6541681738       -2.9083303549        0.6654057644
 H         -3.2658634181        1.3134379880        0.3473180254
 H         -3.2297560301        0.5447733146        1.9420908278
 H         -1.0547740325        0.2851339614        0.8389865460
 H          5.2691442963       -0.1433905058        0.5539938556
 H          5.9232916068       -2.2433237875       -0.5644309009
 H          4.2536230846       -3.8237677386       -1.3826343434
 H          1.8199293083       -3.3680787223       -1.1123399302
 H          3.8932818509        1.3944219396        2.0796520219
 H          2.2520648690        2.0853464280        2.1097375075
 H          3.9468580850        3.4905278821        0.8599613597
 H          4.1254631779        2.1799683559       -0.3065376037
 H          1.5487970217        3.7055774672        0.2862880553
 H          1.6588696642        2.3092267843       -0.7824091186
 H          3.3002725409        3.5589266260       -2.2140333504
 H          1.6946147970        4.2938158236       -2.1457332906
 H          3.2320407372        6.1058104387       -1.9756646253
 H          2.6516515314        5.8480422555       -0.2997765203
  58
        -82.23632431
 C         -4.9955453881       -0.4694990581       -1.3540900873
 C         -4.4396184172       -1.7022268234       -0.6420364315
 C         -4.7942757361       -1.6391356832        0.8426598090
 C         -4.1874915533       -0.3779103444        1.4553363775
 C         -4.7423633571        0.8565172863        0.7458455649
 C         -4.3863518319        0.7895379101       -0.7384055242
 C         -2.8664338181        0.7533351904       -0.8972815515
 C         -2.3092716975       -0.4813194475       -0.1886678726
 C         -2.9213959190       -1.7450046562       -0.8020470021
 C         -2.6690018112       -0.4157671397        1.3000095100
 N         -0.8630922206       -0.4867541762       -0.3554915018
 C         -0.0103786346       -1.3999815947        0.1513634859
 O         -0.3345439557       -2.3961126209        0.7758792399
 C          1.4019191696       -1.0528643767       -0.1122667690
 N          1.7426683547       -0.0262819154       -0.8692077202
 N          3.0740268700        0.0710710676       -0.8714221806
 C          3.6381321491       -0.8972293726       -0.0973066248
 C          4.9635784952       -1.1936537975        0.2136914397
 C          5.1866726230       -2.2728683037        1.0364276653
 C          4.1342396140       -3.0473533161        1.5463453913
 C          2.8237620422       -2.7632125516        1.2486500556
 C          2.5697416671       -1.6731216034        0.4157463402
 C          3.7186241845        1.1642156381       -1.5445838325
 C          3.5552139650        2.4757527576       -0.7641725058
 C          2.1202097366        2.9896890100       -0.8477265693
 C          1.8507733680        4.1487768340        0.1084526359
 C          0.4081680660        4.6226180292        0.0056901977
 F         -0.4581488747        3.6153823929        0.3634156209
 H         -6.0831307558       -0.4412496934       -1.2550259620
 H         -4.7578403501       -0.5158563321       -2.4195383488
 H         -4.8743174346       -2.6059264268       -1.0839375228
 H         -4.4042369962       -2.5218191050        1.3529270802
 H         -5.8798715788       -1.6290093993        0.9665235776
 H         -4.4400115936       -0.3309707884        2.5205921435
 H         -5.8274240456        0.8994675169        0.8655245091
 H         -4.3190376797        1.7611656864        1.1878953506
 H         -4.7813716805        1.6751410022       -1.2496916445
 H         -2.4233148050        1.6537506409       -0.4648387972
 H         -2.6041473047        0.7169795175       -1.9578839977
 H         -2.5084448701       -2.6191163639       -0.2980226128
 H         -2.6521296171       -1.8030588634       -1.8596525038
 H         -2.2194104864        0.4776935929        1.7399220073
 H         -2.2558377586       -1.2901828755        1.8036200603
 H         -0.4437588869        0.2941719049       -0.8370731362
 H          5.7823405241       -0.6036794557       -0.1705634094
 H          6.2010081147       -2.5342584385        1.3006678319
 H          4.3706409536       -3.8836769703        2.1872431642
 H          2.0017954947       -3.3465476939        1.6306057681
 H          3.2707145529        1.2707391291       -2.5368862836
 H          4.7754433721        0.9148535321       -1.6564460780
 H          3.8260912296        2.2996722794        0.2794358474
 H          4.2439105010        3.2190239009       -1.1702192978
 H          1.4400275835        2.1707743388       -0.6068708613
 H          1.9118550520        3.3071700262       -1.8723254274
 H          2.0448697875        3.8297280995        1.1343257012
 H          2.5034693533        4.9940493081       -0.1175666746
 H          0.2079895384        5.4595800333        0.6822092862
 H          0.1487624100        4.9011450414       -1.0211028906
  58
        -82.23632337
 C         -4.7883298902       -1.7808261664       -0.5674939593
 C         -4.4449830355       -1.5707247092        0.9062840983
 C         -5.0097864832       -0.2311505355        1.3776899896
 C         -4.3994400461        0.8971143101        0.5471071899
 C         -4.7443784056        0.6908273330       -0.9268953016
 C         -4.1804723813       -0.6498642518       -1.3955538474
 C         -2.6631076593       -0.6524071869       -1.2252708563
 C         -2.3146183125       -0.4439844656        0.2528900197
 C         -2.9279473657       -1.5772247966        1.0820684278
 C         -2.8806628665        0.8968452854        0.7205654874
 N         -0.8697302590       -0.4133457541        0.4282388859
 C         -0.0113692407       -1.4012613081        0.1037223429
 O         -0.3287604249       -2.4949295988       -0.3328688699
 C          1.3980434002       -1.0092422313        0.3140990453
 N          1.7313944488        0.1378505718        0.8763356959
 N          3.0627685374        0.2351937111        0.8756644176
 C          3.6344121996       -0.8566489866        0.2958399860
 C          4.9629163264       -1.2031788937        0.0584385924
 C          5.1940186298       -2.4133407881       -0.5526584724
 C          4.1465155746       -3.2683533603       -0.9256246646
 C          2.8331011032       -2.9363174147       -0.6988846163
 C          2.5709859629       -1.7136528528       -0.0800103551
 C          3.7013003883        1.4327369887        1.3465415377
 C          3.5540647283        2.5788905630        0.3363467040
 C          2.1195819505        3.0998764516        0.3019975680
 C          1.8686877428        4.0642713009       -0.8544887727
 C          0.4268587302        4.5514689250       -0.8615680683
 F         -0.4389242290        3.4971556778       -1.0397802700
 H         -5.8729498635       -1.7980775533       -0.6988448793
 H         -4.3917980721       -2.7400866746       -0.9054368535
 H         -4.8804833851       -2.3805551497        1.5024648025
 H         -4.7801119474       -0.0815314381        2.4353699246
 H         -6.0966527178       -0.2259075702        1.2675253966
 H         -4.8008843129        1.8594212092        0.8855831058
 H         -5.8286249460        0.7065608350       -1.0598714045
 H         -4.3204627188        1.5015547364       -1.5235637173
 H         -4.4249215755       -0.7989740016       -2.4532604921
 H         -2.2127117620        0.1477331197       -1.8175892472
 H         -2.2436355279       -1.6022487883       -1.5580778003
 H         -2.6666256483       -1.4403825061        2.1343940363
 H         -2.5086845882       -2.5268400750        0.7487799929
 H         -2.4368221222        1.7052022711        0.1342903290
 H         -2.6264178684        1.0556555190        1.7718214888
 H         -0.4559663923        0.4428817090        0.7647680202
 H          5.7779557203       -0.5525538844        0.3386207711
 H          6.2109500505       -2.7172700211       -0.7539568997
 H          4.3891382345       -4.2066061788       -1.4019826003
 H          2.0147948798       -3.5799776238       -0.9779467439
 H          4.7554685241        1.2073516278        1.5183649386
 H          3.2390475548        1.7197534035        2.2954868991
 H          4.2388995030        3.3838228936        0.6097353855
 H          3.8401265461        2.2141688225       -0.6529265251
 H          1.8967889201        3.5998959744        1.2477241424
 H          1.4402731228        2.2510808259        0.2048246609
 H          2.5218062876        4.9355727884       -0.7777408315
 H          2.0759393756        3.5620762157       -1.8014577937
 H          0.1546022761        5.0151344509        0.0924332093
 H          0.2396868600        5.2496375107       -1.6836461003
  58
        -82.23631096
 C         -5.4834775697       -1.8514076162        1.6486818788
 C         -5.2214860938       -0.3682296768        1.3913277023
 C         -5.7469745842        0.0103500239        0.0073776382
 C         -5.0291018764       -0.8243730321       -1.0525063135
 C         -5.2883792997       -2.3083642432       -0.7986356306
 C         -4.7659434184       -2.6840609560        0.5869580076
 C         -3.2641784959       -2.4156486058        0.6546259152
 C         -2.9981472178       -0.9275746784        0.4000170041
 C         -3.7187862805       -0.0948361887        1.4603713089
 C         -3.5279065157       -0.5517659669       -0.9885166570
 N         -1.5711635025       -0.6489749152        0.4869333011
 C         -0.6136161338       -1.2012719511       -0.2874144948
 O         -0.8137802333       -2.0080753715       -1.1798772092
 C          0.7390834942       -0.7211399652        0.0573244095
 N          0.9559081298        0.1723930078        1.0064958775
 N          2.2700598562        0.3887724482        1.0819162795
 C          2.9479753224       -0.3603099024        0.1687066507
 C          4.3055960734       -0.4775780753       -0.1247059911
 C          4.6549984496       -1.3535014500       -1.1252834832
 C          3.6965737555       -2.1017796624       -1.8251920338
 C          2.3566737078       -1.9972837457       -1.5421057634
 C          1.9748101629       -1.1144533630       -0.5309824152
 C          2.7833627300        1.3688853107        1.9975784416
 C          2.6770983142        2.7889254368        1.4297764219
 C          3.5866211452        3.0002641785        0.2228524717
 C          3.4574722914        4.4130093696       -0.3437097053
 C          4.4122964186        4.6373285704       -1.5069223418
 F          5.7161556557        4.5759738827       -1.0732485245
 H         -6.5572285434       -2.0487242051        1.6143434741
 H         -5.1245254646       -2.1260610289        2.6433185856
 H         -5.7320429009        0.2317042665        2.1537124866
 H         -5.5775073241        1.0737401181       -0.1775010752
 H         -6.8230738815       -0.1703561419       -0.0418918300
 H         -5.4026169761       -0.5522419212       -2.0459626361
 H         -6.3591276398       -2.5158985250       -0.8623240177
 H         -4.7823727768       -2.9066723600       -1.5584665526
 H         -4.9503209023       -3.7481613387        0.7715362359
 H         -2.7376767843       -3.0025640189       -0.0982759169
 H         -2.8725569259       -2.6917612730        1.6368845534
 H         -3.5255099055        0.9671163114        1.2877264558
 H         -3.3386709218       -0.3538544659        2.4519757091
 H         -3.0009690831       -1.1412524022       -1.7390690545
 H         -3.3250963815        0.5048269819       -1.1809643828
 H         -1.2514088976        0.0021166267        1.1880819752
 H          5.0519064035        0.0936997732        0.4057533650
 H          5.6972233376       -1.4705311923       -1.3835781446
 H          4.0307426892       -2.7737947587       -2.6015544276
 H          1.6061590796       -2.5659180060       -2.0666518611
 H          3.8244783580        1.1240962032        2.2193185842
 H          2.1957733325        1.3003775801        2.9171986961
 H          1.6387908141        2.9707711633        1.1444894501
 H          2.9415693886        3.4967696592        2.2173511965
 H          3.3359795895        2.2783134742       -0.5577263363
 H          4.6255871562        2.8335937555        0.5150988051
 H          2.4400284625        4.5859594553       -0.6977952750
 H          3.6782957140        5.1437309620        0.4371444116
 H          4.3024391845        3.8634269975       -2.2736224740
 H          4.2797727194        5.6284335409       -1.9523774088
  58
        -82.23625717
 C         -4.7822302384        0.5658971672       -1.0413720272
 C         -4.2025124166       -0.8316195452       -1.2554565844
 C         -4.8166966172       -1.8030062475       -0.2487029692
 C         -4.4991894538       -1.3313596504        1.1693295141
 C         -5.0799877439        0.0654608959        1.3864977134
 C         -4.4633085415        1.0335343279        0.3776682379
 C         -2.9474767854        1.0778683464        0.5698216387
 C         -2.3659596164       -0.3198791743        0.3581038250
 C         -2.6881395178       -0.7897447968       -1.0649189677
 C         -2.9852397946       -1.2927351479        1.3666313539
 N         -0.9236155305       -0.2452720454        0.5460493328
 C         -0.0542307607       -1.2664998654        0.4087366578
 O         -0.3596848288       -2.4260030107        0.1870923202
 C          1.3531293819       -0.8300823510        0.5299830562
 N          1.6864307648        0.4066313137        0.8520464918
 N          3.0167591477        0.5079847411        0.8064239781
 C          3.5872273418       -0.6746104165        0.4473271121
 C          4.9162152193       -1.0514236040        0.2661846849
 C          5.1494052309       -2.3568441952       -0.0986014729
 C          4.1036927253       -3.2733239136       -0.2841568386
 C          2.7900600523       -2.9114406565       -0.1093521491
 C          2.5255879257       -1.5928744606        0.2624874500
 C          3.6754351475        1.7599390760        1.0539831258
 C          4.0221164835        2.5252361888       -0.2352026067
 C          2.9102790268        3.4569813670       -0.7218173643
 C          1.6589632214        2.7123986266       -1.1783135367
 C          0.5616150782        3.6768039231       -1.6011481096
 F         -0.6001589128        2.9866526833       -1.8607590234
 H         -5.8640971261        0.5484198960       -1.1919166785
 H         -4.3524044807        1.2612310737       -1.7656333072
 H         -4.4283578335       -1.1684341037       -2.2733493136
 H         -4.4086838749       -2.8034353905       -0.4046768438
 H         -5.8988548066       -1.8531835073       -0.3911333387
 H         -4.9393202349       -2.0263619346        1.8933458611
 H         -6.1648626154        0.0412366793        1.2608416485
 H         -4.8686800058        0.4027593684        2.4040941798
 H         -4.8758358864        2.0370996458        0.5336477881
 H         -2.7100674833        1.4260926885        1.5786030091
 H         -2.5022048764        1.7703175782       -0.1486402091
 H         -2.2571747043       -1.7795367083       -1.2184255442
 H         -2.2337636968       -0.1018854048       -1.7820767868
 H         -2.7424820983       -0.9681600189        2.3816186382
 H         -2.5546209410       -2.2826788637        1.2145126109
 H         -0.5215185916        0.6644856219        0.7114051054
 H          5.7262307008       -0.3511960112        0.4046503862
 H          6.1660574208       -2.6897085751       -0.2489065988
 H          4.3480082456       -4.2852229183       -0.5712070810
 H          1.9741024233       -3.6021130754       -0.2466345752
 H          4.5917866369        1.5488616679        1.6127551650
 H          3.0133791635        2.3605749098        1.6816172807
 H          4.9121831922        3.1277057498       -0.0450179554
 H          4.2689669991        1.8052971100       -1.0181393632
 H          3.2960159599        4.0554453787       -1.5509075817
 H          2.6469388649        4.1454795977        0.0850760268
 H          1.8995316403        2.0524107911       -2.0145539765
 H          1.2755446281        2.0950852846       -0.3641779438
 H          0.3251804003        4.3894541925       -0.8032483339
 H          0.8164281487        4.2190902321       -2.5176860658
  58
        -82.23625493
 C         -5.2235025531       -1.3974976614        1.5371574420
 C         -4.8102286144        0.0323895202        1.1918163724
 C         -5.2517014008        0.3611905834       -0.2335842568
 C         -4.5850580350       -0.6102172573       -1.2069305486
 C         -4.9957221089       -2.0413694549       -0.8648979339
 C         -4.5567944627       -2.3668007399        0.5617871605
 C         -3.0389007164       -2.2382845710        0.6695902047
 C         -2.6215267170       -0.8037857654        0.3265030444
 C         -3.2909598189        0.1660127254        1.3003766198
 C         -3.0672422302       -0.4774896105       -1.1034615311
 N         -1.1774984898       -0.6555266191        0.4489849696
 C         -0.2539577446       -1.3502502932       -0.2481912474
 O         -0.5022874573       -2.2001726137       -1.0865485281
 C          1.1274052861       -0.9683614174        0.1063418485
 N          1.3988700760       -0.0296833549        0.9965792102
 N          2.7247400286        0.0786312383        1.0942924390
 C          3.3552917239       -0.7856041826        0.2522655303
 C          4.7046232243       -1.0302866980        0.0058963575
 C          5.0023749968       -2.0017368259       -0.9208808659
 C          4.0004019551       -2.7185576109       -1.5919626293
 C          2.6674480265       -2.4863710752       -1.3547090450
 C          2.3376694541       -1.5049431743       -0.4191568676
 C          3.3186227152        1.0776566023        1.9362538483
 C          3.7176140564        2.3256739552        1.1404298715
 C          2.4991905193        3.0319990175        0.5506855429
 C          2.8998355108        4.2544491555       -0.2689366003
 C          1.6787582463        4.9458875556       -0.8571615763
 F          2.0589388034        6.0532192665       -1.5767110619
 H         -6.3096612071       -1.4938409300        1.4744353324
 H         -4.9251712727       -1.6346733867        2.5610584817
 H         -5.2839751745        0.7300393247        1.8922547849
 H         -4.9737344130        1.3880949736       -0.4823723269
 H         -6.3380830738        0.2805061840       -0.3121142314
 H         -4.8982026724       -0.3741230160       -2.2299479482
 H         -6.0789587076       -2.1502743702       -0.9558520632
 H         -4.5263020603       -2.7367742870       -1.5630344017
 H         -4.8497005533       -3.3930002336        0.8096684435
 H         -2.5482968147       -2.9240302439       -0.0214466773
 H         -2.7077366417       -2.4806573329        1.6825321401
 H         -2.9898246369        1.1901409751        1.0647601452
 H         -2.9697676179       -0.0577945870        2.3209588341
 H         -2.5765876923       -1.1655029211       -1.7922106311
 H         -2.7565402970        0.5390307467       -1.3580287572
 H         -0.8190481708        0.0134704772        1.1136436777
 H          5.4815283121       -0.4842045805        0.5194593624
 H          6.0365559745       -2.2220725285       -1.1416095553
 H          4.2947408405       -3.4697481205       -2.3095951006
 H          1.8848633795       -3.0289308142       -1.8595331555
 H          4.1973115842        0.6471728209        2.4252799617
 H          2.5787016159        1.3398320613        2.6959372095
 H          4.2535469191        3.0059339580        1.8044791325
 H          4.3954613655        2.0345760973        0.3353612153
 H          1.8332685303        3.3380211623        1.3607179370
 H          1.9472056296        2.3352964873       -0.0834177557
 H          3.4394930319        4.9664159952        0.3592572365
 H          3.5628661454        3.9576037472       -1.0840820965
 H          1.1392334941        4.2908352047       -1.5490508886
 H          0.9995521641        5.2995856839       -0.0741348007
  58
        -82.23625011
 C         -4.8527491051       -1.6127868530       -0.7581629228
 C         -4.4947818546       -1.8036476806        0.7147501883
 C         -5.1348054680       -0.6927598307        1.5464708802
 C         -4.6146997343        0.6619660998        1.0679349081
 C         -4.9752345765        0.8565390679       -0.4041149203
 C         -4.3353093417       -0.2561898535       -1.2333939899
 C         -2.8174492548       -0.2047382485       -1.0728317334
 C         -2.4532529704       -0.3977077829        0.4037591507
 C         -2.9773614257       -1.7569694228        0.8799975388
 C         -3.0955727054        0.7142061290        1.2332066887
 N         -1.0082106597       -0.3235592266        0.5753976487
 C         -0.1032082117       -1.1436295309        0.0000112217
 O         -0.3706088888       -2.0668668834       -0.7501408357
 C          1.2846529599       -0.7801924452        0.3460455822
 N          1.5715102349        0.2495009358        1.1234474615
 N          2.8981725433        0.3573999358        1.1999751102
 C          3.5154072459       -0.6025522688        0.4576017376
 C          4.8606291634       -0.8796986461        0.2240132811
 C          5.1437284033       -1.9511597277       -0.5901642883
 C          4.1310991063       -2.7343804021       -1.1642027746
 C          2.8018729661       -2.4695631737       -0.9407004883
 C          2.4865584339       -1.3869246894       -0.1186743419
 C          3.4900694296        1.4883661817        1.8544123909
 C          3.7201087308        2.6567295505        0.8836911626
 C          2.4314708881        3.0553679860        0.1545065307
 C          2.3038196339        2.4070293011       -1.2270374347
 C          0.8834703476        2.5017362314       -1.7620538509
 F          0.5014768571        3.8163513964       -1.9036654569
 H         -5.9361651282       -1.6647838800       -0.8883233659
 H         -4.4022397834       -2.4090085949       -1.3535945665
 H         -4.8644624234       -2.7761106819        1.0582585706
 H         -4.8944175861       -0.8323528767        2.6030725403
 H         -6.2215008453       -0.7290139020        1.4431827068
 H         -5.0691647128        1.4608623232        1.6651745731
 H         -6.0604519704        0.8341928929       -0.5251093758
 H         -4.6200693677        1.8302574355       -0.7493340830
 H         -4.5900679838       -0.1166910288       -2.2897421128
 H         -2.4328917710        0.7575990283       -1.4207592289
 H         -2.3448969092       -0.9924764311       -1.6600368124
 H         -2.7042593189       -1.9049400408        1.9278699759
 H         -2.5053435457       -2.5439597159        0.2914062134
 H         -2.7196808982        1.6857112761        0.9015881503
 H         -2.8312992124        0.5872021848        2.2863111993
 H         -0.6362069823        0.3806060742        1.1949727525
 H          5.6451895614       -0.2812766581        0.6618273279
 H          6.1742803487       -2.1996070706       -0.7973257114
 H          4.4140520851       -3.5630285815       -1.7959970302
 H          2.0114132480       -3.0601424131       -1.3743539511
 H          4.4355532672        1.1799336437        2.3083035480
 H          2.8009482064        1.7995087994        2.6432698419
 H          4.0999771054        3.4971169613        1.4659389407
 H          4.4853129953        2.3807792020        0.1558891558
 H          2.3909678690        4.1381377971        0.0305187521
 H          1.5745768111        2.7614545309        0.7641819896
 H          2.9853572244        2.8958799740       -1.9261780313
 H          2.5625661264        1.3488423580       -1.1906522011
 H          0.7954783461        2.0417825166       -2.7513106179
 H          0.1696387765        2.0390592040       -1.0723999886
  58
        -82.23623857
 C         -5.6210717774        0.1137409068        0.5437453153
 C         -5.2645390805       -0.1841727579       -0.9119195992
 C         -5.6094476402       -1.6372114285       -1.2349383594
 C         -4.8126149663       -2.5630036519       -0.3165455693
 C         -5.1666249787       -2.2684576722        1.1401549549
 C         -4.8247415793       -0.8143375342        1.4602496583
 C         -3.3302031035       -0.5843933752        1.2476229932
 C         -2.9695661458       -0.8792101830       -0.2130096667
 C         -3.7689765342        0.0468467644       -1.1298115052
 C         -3.3179221636       -2.3370516949       -0.5335244328
 N         -1.5511782018       -0.6375361681       -0.4383910495
 C         -0.5360111754       -1.2648140994        0.1921900065
 O         -0.6667319112       -2.1373243327        1.0341557512
 C          0.7866354248       -0.7733454877       -0.2414968717
 N          0.9269854256        0.1908671770       -1.1342084850
 N          2.2311013162        0.4124631160       -1.3055687794
 C          2.9799442538       -0.4022000337       -0.5118177754
 C          4.3566614223       -0.5346879499       -0.3392918523
 C          4.7851159717       -1.4832053515        0.5591750659
 C          3.8857209251       -2.2877476436        1.2748024841
 C          2.5273320952       -2.1668215884        1.1120728534
 C          2.0656267645       -1.2102864346        0.2068960418
 C          2.6698062119        1.4699297846       -2.1727555263
 C          2.5203040974        2.8413958138       -1.5049436505
 C          3.4324227144        2.9948722250       -0.2911711531
 C          3.2395448267        4.3468078831        0.3932496297
 C          4.1837358096        4.5165179718        1.5741377989
 F          5.4884448572        4.5566895608        1.1408804865
 H         -6.6915370314       -0.0362389611        0.7005552071
 H         -5.3915231603        1.1559960327        0.7778486100
 H         -5.8318261117        0.4825521061       -1.5718328925
 H         -5.3719827886       -1.8531566738       -2.2792411580
 H         -6.6797605752       -1.8033561110       -1.0939978824
 H         -5.0566122038       -3.6055551229       -0.5487071245
 H         -6.2311977977       -2.4469863076        1.3087225466
 H         -4.6040429824       -2.9331091402        1.7982587221
 H         -5.0771502072       -0.6003136740        2.5047762267
 H         -2.7476948822       -1.2406612499        1.8945850592
 H         -3.0670686677        0.4495246410        1.4853216493
 H         -3.5092294882       -0.1544674533       -2.1722787692
 H         -3.5175682776        1.0879081501       -0.9106829233
 H         -2.7350694479       -2.9906160005        0.1157818720
 H         -3.0466514396       -2.5561142344       -1.5692762792
 H         -1.2854512174        0.0649503233       -1.1120478871
 H          5.0582414229        0.0800756379       -0.8821898378
 H          5.8447252948       -1.6148928366        0.7220920339
 H          4.2810484129       -3.0162055410        1.9669735822
 H          1.8212042258       -2.7762285284        1.6522580505
 H          2.0571488217        1.4372919154       -3.0781602576
 H          3.7123681095        1.2862476834       -2.4400151314
 H          2.7512841123        3.6137303548       -2.2405455465
 H          1.4792332808        2.9633196117       -1.1987211763
 H          4.4751509085        2.9025362530       -0.6021118246
 H          3.2241790797        2.1987232953        0.4274526293
 H          3.4242618813        5.1508123103       -0.3221710880
 H          2.2156016697        4.4408797578        0.7583913350
 H          4.0032012188        5.4578987650        2.1029305410
 H          4.1126429236        3.6749840221        2.2709826429
  58
        -82.23611301
 C         -5.1171765199       -0.8711356793       -1.3940748038
 C         -4.4996998921       -1.9803272716       -0.5432473882
 C         -4.8820273291       -1.7756384588        0.9216564727
 C         -4.3629048126       -0.4192148209        1.3958357393
 C         -4.9804258256        0.6916812582        0.5474335485
 C         -4.5956108739        0.4834653612       -0.9165134780
 C         -3.0735775783        0.5238915878       -1.0552607793
 C         -2.4536950638       -0.5865896685       -0.2070757492
 C         -2.9793550859       -1.9457079251       -0.6824384960
 C         -2.8423079937       -0.3800683219        1.2613369014
 N         -1.0065011666       -0.5256740471       -0.3576020623
 C         -0.1177392678       -1.3394575276        0.2481920836
 O         -0.4040730375       -2.2588320550        0.9966924020
 C          1.2797981228       -0.9961426598       -0.0838694282
 N          1.5912952156       -0.0542133605       -0.9561423722
 N          2.9215766274        0.0265721444       -1.0243834508
 C          3.5141941117       -0.8586643733       -0.1764959878
 C          4.8513898072       -1.1300969622        0.1051997590
 C          5.1064926242       -2.1188714916        1.0264599627
 C          4.0742359479       -2.8268435899        1.6596244329
 C          2.7526905117       -2.5657715657        1.3904875209
 C          2.4661989774       -1.5667587308        0.4596011375
 C          3.5533726694        1.0234191029       -1.8411177662
 C          3.7208113366        2.3467208321       -1.0840362842
 C          2.3746772088        3.0274631808       -0.8525832857
 C          2.5007942856        4.2684879035        0.0282256437
 C          1.1582074792        4.9596097119        0.2162452329
 F          0.2760204125        4.1328154612        0.8701216544
 H         -6.2059122179       -0.8991174156       -1.3096336484
 H         -4.8592700403       -1.0203947390       -2.4452852125
 H         -4.8709468074       -2.9526685422       -0.8860096940
 H         -4.4475392190       -2.5704766000        1.5306860239
 H         -5.9680838824       -1.8193426501        1.0331465218
 H         -4.6355216211       -0.2701127484        2.4464872845
 H         -6.0679422113        0.6785139114        0.6498051763
 H         -4.6229237387        1.6649118167        0.8913249294
 H         -5.0345451469        1.2808630619       -1.5276093792
 H         -2.6948855409        1.4935035585       -0.7221475673
 H         -2.7915709637        0.3874727380       -2.1026223289
 H         -2.5231134714       -2.7314509985       -0.0799641895
 H         -2.6892513726       -2.1036155697       -1.7242999903
 H         -2.4540628175        0.5810607264        1.6070762368
 H         -2.3863642836       -1.1674078860        1.8619991362
 H         -0.6181084414        0.1944799970       -0.9477111131
 H          5.6526994422       -0.5887202329       -0.3751437367
 H          6.1303541988       -2.3594187405        1.2732636752
 H          4.3354962034       -3.5929608702        2.3744066702
 H          1.9466585669       -3.0998108560        1.8667620061
 H          2.9260767777        1.1783588829       -2.7226029449
 H          4.5266891621        0.6405964315       -2.1577661203
 H          4.2042156542        2.1463333485       -0.1251070908
 H          4.3745580937        3.0037836181       -1.6609407200
 H          1.6893299971        2.3230021684       -0.3778433634
 H          1.9455054370        3.3094047134       -1.8171865312
 H          2.8916844459        3.9848747000        1.0072897911
 H          3.1904471910        4.9850675923       -0.4220499465
 H          1.2520280546        5.8619360812        0.8292370330
 H          0.6957213985        5.2073154521       -0.7451347728
  58
        -82.23606684
 C         -5.1406419413       -0.9190422468        1.4893036091
 C         -4.6535708056        0.4292664182        0.9603582950
 C         -5.0554439930        0.5778026370       -0.5062980599
 C         -4.4203685989       -0.5479713394       -1.3214983747
 C         -4.9050081033       -1.8981608382       -0.7958626093
 C         -4.5057134210       -2.0432131150        0.6716356544
 C         -2.9854068538       -1.9701181446        0.7953800120
 C         -2.4941379425       -0.6171074520        0.2683289887
 C         -3.1316734713        0.5079373078        1.0836142647
 C         -2.8999106625       -0.4707604791       -1.2026613432
 N         -1.0473383945       -0.5195681965        0.4032097632
 C         -0.1467238443       -1.3366171026       -0.1806195101
 O         -0.4204421912       -2.2838891981       -0.8984881061
 C          1.2459540961       -0.9616362530        0.1364379747
 N          1.5462741925        0.0158779472        0.9730594096
 N          2.8754008790        0.1102113466        1.0420805397
 C          3.4785284975       -0.8018363112        0.2310403788
 C          4.8192562359       -1.0729842103       -0.0336399048
 C          5.0864585667       -2.0936852569       -0.9157687961
 C          4.0626910595       -2.8330466310       -1.5264936285
 C          2.7377768889       -2.5730462564       -1.2730114406
 C          2.4390426164       -1.5419983209       -0.3817090490
 C          3.4988669724        1.1375447757        1.8265035374
 C          3.7490731603        2.4043828574        0.9994914963
 C          2.4404914213        3.1013912796        0.6379820229
 C          2.6646589789        4.2948477056       -0.2880936897
 C          1.3594056019        5.0062024167       -0.6131921526
 F          0.5137138072        4.1722418338       -1.3046757202
 H         -6.2291479426       -0.9739130826        1.4159757087
 H         -4.8705661797       -1.0258842120        2.5426189503
 H         -5.1049471792        1.2375887677        1.5475702885
 H         -4.7232043177        1.5462496817       -0.8871256837
 H         -6.1432073136        0.5369012945       -0.5979399909
 H         -4.7051733034       -0.4415335992       -2.3740838905
 H         -5.9907182797       -1.9696625456       -0.8956978242
 H         -4.4580671493       -2.7039308571       -1.3810328428
 H         -4.8520811343       -3.0110012809        1.0512917746
 H         -2.5169277259       -2.7661024121        0.2162037564
 H         -2.6829442419       -2.0852580365        1.8393333116
 H         -2.7777729537        1.4738263704        0.7142992415
 H         -2.8378757745        0.4140981928        2.1324268567
 H         -2.4317197828       -1.2685096757       -1.7796194996
 H         -2.5360430667        0.4856886171       -1.5858549486
 H         -0.6690772157        0.2238269438        0.9706193572
 H          5.6135770725       -0.5078175971        0.4306737913
 H          6.1133045299       -2.3355469284       -1.1485877483
 H          4.3333053405       -3.6232888479       -2.2108963470
 H          1.9383958733       -3.1313758177       -1.7322547567
 H          4.4424511930        0.7479215494        2.2177575901
 H          2.8320881466        1.3648946526        2.6618049853
 H          4.3826681775        3.0818756562        1.5753335060
 H          4.2862972700        2.1316839338        0.0883171476
 H          1.9497691096        3.4400387621        1.5537391718
 H          1.7728909412        2.3909874619        0.1471878612
 H          3.3362739455        5.0167744614        0.1805439340
 H          3.1220290159        3.9552738155       -1.2194046860
 H          0.8263409379        5.3036491962        0.2961257710
 H          1.5255967780        5.8800248095       -1.2516641683
  58
        -82.23606466
 C         -4.7784367641       -1.6080797064       -0.7592932684
 C         -4.4112478070       -1.6251179376        0.7236648648
 C         -4.9999531951       -0.3940855704        1.4115862567
 C         -4.4313166398        0.8673424168        0.7633435354
 C         -4.8000413850        0.8893836266       -0.7193943673
 C         -4.2143192082       -0.3440994483       -1.4057321866
 C         -2.6941945931       -0.3340475337       -1.2620668273
 C         -2.3204849881       -0.3524363081        0.2250530499
 C         -2.8913518039       -1.6186509683        0.8724918825
 C         -2.9102415964        0.8781554148        0.9139735671
 N         -0.8728480031       -0.3118836881        0.3767848442
 C         -0.0066601139       -1.2489148886       -0.0613139184
 O         -0.3167178559       -2.2888796209       -0.6189308515
 C          1.3993862937       -0.8733248590        0.1913205958
 N          1.7214777228        0.3065731480        0.6875359840
 N          3.0494285057        0.3857401487        0.7588554019
 C          3.6340892864       -0.7600270194        0.3131598532
 C          4.9680798844       -1.1469912963        0.2010033098
 C          5.2142641701       -2.4009946563       -0.3068665063
 C          4.1765016871       -3.2608128739       -0.6963212953
 C          2.8580142938       -2.8911665693       -0.5883428484
 C          2.5798304781       -1.6232588886       -0.0767124663
 C          3.6800896175        1.5952423803        1.2238397739
 C          2.8593015835        2.8095610056        0.7911934270
 C          2.8441998263        2.9671498054       -0.7308963067
 C          1.6671227077        3.8067674579       -1.2294671379
 C          0.3247693085        3.0938123826       -1.1085359455
 F         -0.1922242617        3.1969980185        0.1641190042
 H         -5.8646031636       -1.6329822567       -0.8750309672
 H         -4.3658309094       -2.4903995242       -1.2521776694
 H         -4.8143833770       -2.5312818423        1.1893972883
 H         -4.7544908759       -0.4085513996        2.4759968343
 H         -6.0884443678       -0.4004401643        1.3190333368
 H         -4.8480244985        1.7527612730        1.2570102144
 H         -5.8866793490        0.8967921868       -0.8310893894
 H         -4.4094709703        1.7968164236       -1.1860964718
 H         -4.4764013480       -0.3292188039       -2.4698158509
 H         -2.2757903269        0.5608291257       -1.7306991882
 H         -2.2591502001       -1.2085772448       -1.7472677498
 H         -2.6127830904       -1.6423756522        1.9288378179
 H         -2.4571324387       -2.4929517193        0.3873124802
 H         -2.4957697379        1.7859006766        0.4700448277
 H         -2.6410344380        0.8684250359        1.9728396993
 H         -0.4663056239        0.5116897944        0.7963271318
 H          5.7737975992       -0.4947346971        0.5028535179
 H          6.2354501896       -2.7381337558       -0.4091307205
 H          4.4309291266       -4.2346087201       -1.0875731465
 H          2.0479602214       -3.5385689826       -0.8825594252
 H          4.6880007574        1.6352783100        0.8025583410
 H          3.7585377876        1.5722664259        2.3177646841
 H          1.8443469161        2.6693618309        1.1581512021
 H          3.2716234030        3.7054073144        1.2569460184
 H          2.7837711447        1.9821426696       -1.1989625459
 H          3.7778757840        3.4295375980       -1.0589787680
 H          1.6154327545        4.7463182298       -0.6761291323
 H          1.8198253742        4.0418731762       -2.2841930116
 H         -0.4217450228        3.5456716980       -1.7699992775
 H          0.4144680417        2.0232884502       -1.3182972526
  58
        -82.23604907
 C         -5.6501002806       -0.6195826959        1.5216637532
 C         -5.4190550858        0.1239139054        0.2069013493
 C         -5.8464371899       -0.7621328728       -0.9622684087
 C         -5.0191912378       -2.0470505375       -0.9524812161
 C         -5.2472938986       -2.7935673501        0.3607637131
 C         -4.8231502127       -1.9047187139        1.5286364395
 C         -3.3414568395       -1.5605871412        1.3947565767
 C         -3.1065350607       -0.8116948429        0.0778453478
 C         -3.9366563957        0.4721253776        0.0697212746
 C         -3.5379550106       -1.7032360318       -1.0922826571
 N         -1.7014080602       -0.4532770740       -0.0535015872
 C         -0.6678013638       -1.3218003263       -0.0865305331
 O         -0.7723205079       -2.5345873024       -0.0082366102
 C          0.6348371709       -0.6445856912       -0.2288145525
 N          0.7465688998        0.6715847033       -0.3018252264
 N          2.0385452727        0.9702569794       -0.4360033359
 C          2.8098617586       -0.1513497952       -0.4389409791
 C          4.1870572326       -0.3329910216       -0.5499387782
 C          4.6440491443       -1.6297481377       -0.5271009857
 C          3.7732868238       -2.7227860709       -0.3992553547
 C          2.4146964265       -2.5526954483       -0.2909897361
 C          1.9226914417       -1.2468037507       -0.3102784850
 C          2.4750434447        2.3369633322       -0.4746133376
 C          2.9452203545        2.8037703477        0.9074889591
 C          3.1949179546        4.3098114943        0.9736180451
 C          4.2795400242        4.8221851893        0.0227883653
 C          5.6455084400        4.1874725497        0.2468382170
 F          5.7087394431        2.9348722746       -0.3202820415
 H         -6.7105388538       -0.8579840301        1.6303909133
 H         -5.3615771591        0.0140200306        2.3637124356
 H         -6.0084065368        1.0483970230        0.2004266928
 H         -5.6990464376       -0.2309971351       -1.9055865460
 H         -6.9086254338       -1.0018495246       -0.8757575564
 H         -5.3224002513       -2.6825034077       -1.7919990618
 H         -6.3020046893       -3.0612007464        0.4594747993
 H         -4.6625496828       -3.7151684598        0.3674436905
 H         -4.9854864974       -2.4378731430        2.4720302043
 H         -2.7372185329       -2.4679665027        1.3971318358
 H         -3.0193482346       -0.9347863556        2.2309153807
 H         -3.7665119474        1.0137262247       -0.8643934590
 H         -3.6272239210        1.1150562516        0.8978536324
 H         -2.9334250946       -2.6103969904       -1.0861545717
 H         -3.3563217061       -1.1794302577       -2.0341410619
 H         -1.4593595275        0.5230864115       -0.1296769854
 H          4.8623068488        0.5024085694       -0.6480368004
 H          5.7048406424       -1.8168580137       -0.6093263132
 H          4.1914440344       -3.7185831276       -0.3873135691
 H          1.7318698712       -3.3810419941       -0.1936995467
 H          1.6251342714        2.9393721639       -0.8048452221
 H          3.2863250459        2.4178914611       -1.2014369448
 H          2.1727036673        2.5482847515        1.6364379740
 H          3.8489589603        2.2569710663        1.1778729190
 H          3.4767161712        4.5677915477        1.9972109858
 H          2.2646895872        4.8349314142        0.7455827606
 H          3.9850790592        4.6533479878       -1.0140038804
 H          4.3873938741        5.8986359643        0.1670128922
 H          6.4369201443        4.7734751577       -0.2308411230
 H          5.8666736398        4.0608837935        1.3113285262
  58
        -82.23591116
 C         -4.8526924792       -1.8733336058       -0.6986195015
 C         -4.4867107326       -1.7724221807        0.7812808838
 C         -5.1233969294       -0.5199286604        1.3825460075
 C         -4.6059747484        0.7148004946        0.6458471432
 C         -4.9739107759        0.6178139001       -0.8340206018
 C         -4.3384153018       -0.6363212889       -1.4330660522
 C         -2.8198214881       -0.5562456468       -1.2932186811
 C         -2.4480433655       -0.4556601178        0.1904898101
 C         -2.9683311441       -1.6952651296        0.9263343685
 C         -3.0862578821        0.7971302833        0.7907464945
 N         -1.0025867245       -0.3484365339        0.3392498580
 C         -0.0962538011       -1.2598966640       -0.0704414558
 O         -0.3632565034       -2.3264135300       -0.5976390072
 C          1.2950746897       -0.8285418663        0.1760929899
 N          1.5923248118        0.3684505289        0.6510049155
 N          2.9198167237        0.4669154968        0.7393977113
 C          3.5266616169       -0.6763231360        0.3185647768
 C          4.8677003536       -1.0469038538        0.2405590466
 C          5.1390168783       -2.3092814492       -0.2324947456
 C          4.1193454155       -3.1913128905       -0.6206737840
 C          2.7942503011       -2.8387467495       -0.5415284756
 C          2.4909216720       -1.5629575584       -0.0641407683
 C          3.5321344045        1.6955168602        1.1600047823
 C          4.1408667595        2.4720110802       -0.0141502073
 C          3.1234580516        2.8834556199       -1.0802750905
 C          2.0809904504        3.8973072921       -0.5864935543
 C          0.7108047302        3.2543340407       -0.4146443771
 F         -0.1695688537        4.1470729491        0.1572313228
 H         -5.9368389412       -1.9490378668       -0.8102112155
 H         -4.4051846329       -2.7710831677       -1.1292556035
 H         -4.8541390364       -2.6588225535        1.3102744842
 H         -4.8779103848       -0.4500888127        2.4448342663
 H         -6.2106281817       -0.5754616373        1.2935362828
 H         -5.0573982307        1.6154881075        1.0772113094
 H         -6.0597808742        0.5734926384       -0.9433285849
 H         -4.6201718185        1.5051429944       -1.3640909111
 H         -4.5991374581       -0.7064756423       -2.4950471836
 H         -2.4357814605        0.3187458624       -1.8239865676
 H         -2.3505348489       -1.4446976685       -1.7168025141
 H         -2.6901040687       -1.6348670608        1.9814841240
 H         -2.4989704685       -2.5828366844        0.5013936719
 H         -2.7111188070        1.6863461798        0.2777125638
 H         -2.8178095145        0.8761684762        1.8473134259
 H         -0.6359022061        0.4908829518        0.7608273991
 H          5.6582982712       -0.3768624257        0.5428519160
 H          6.1659727506       -2.6355519038       -0.3081276680
 H          4.3934474350       -4.1699303971       -0.9854943943
 H          1.9978212883       -3.5046283371       -0.8313808330
 H          4.3153967359        1.4682616697        1.8905004684
 H          2.7568940484        2.2867802379        1.6500820573
 H          4.6325751281        3.3615054874        0.3839249605
 H          4.9040273267        1.8499583806       -0.4864657858
 H          2.6153129523        1.9924105016       -1.4544527374
 H          3.6777887166        3.3121354657       -1.9162746949
 H          2.3886175213        4.3254369666        0.3694404897
 H          1.9885533484        4.7225432516       -1.2944528819
 H          0.2811849984        2.9671204057       -1.3800792787
 H          0.7547791415        2.3812992106        0.2440910163
  58
        -82.23584679
 C         -5.1796394073       -0.8526896456        1.4876002430
 C         -4.6889258740        0.5349607947        1.0770193127
 C         -5.0801217654        0.8063502005       -0.3748637906
 C         -4.4390471427       -0.2472493420       -1.2771911403
 C         -4.9275664000       -1.6365115396       -0.8700001920
 C         -4.5388799381       -1.9046442809        0.5829971410
 C         -3.0194735075       -1.8432996038        0.7236847111
 C         -2.5250845316       -0.4513502179        0.3147591824
 C         -3.1679456742        0.6020631703        1.2169088734
 C         -2.9194577522       -0.1820100233       -1.1417688874
 N         -1.0791082035       -0.3654303069        0.4673888671
 C         -0.1755650885       -1.1237202619       -0.1855808640
 O         -0.4447023752       -2.0192385770       -0.9679146059
 C          1.2181804538       -0.7564108797        0.1384747362
 N          1.5298336956        0.1412218227        1.0560620957
 N          2.8594220001        0.2627959850        1.0851330193
 C          3.4500011728       -0.5616717686        0.1766078705
 C          4.7860486160       -0.7818983706       -0.1522517052
 C          5.0398860238       -1.7064544248       -1.1384887635
 C          4.0081776731       -2.3993205186       -1.7892082466
 C          2.6882517118       -2.1911971421       -1.4701566373
 C          2.4030111984       -1.2595365163       -0.4714647427
 C          3.5090533219        1.1997262930        1.9581600200
 C          4.0114861563        2.4504041577        1.2190591266
 C          2.9739976507        3.5705523429        1.1154165302
 C          1.6863699121        3.1967215762        0.3839664907
 C          1.9105337210        2.8524124405       -1.0821527294
 F          0.6968092147        2.7377526666       -1.7174410573
 H         -6.2675577674       -0.9005500175        1.4021566435
 H         -4.9171497600       -1.0475844884        2.5301895535
 H         -5.1442896756        1.2914222236        1.7269993360
 H         -4.7451358557        1.8030851919       -0.6707715078
 H         -6.1671923456        0.7739106475       -0.4773807776
 H         -4.7162946867       -0.0526227550       -2.3190413997
 H         -6.0125460969       -1.6987507583       -0.9830004407
 H         -4.4765744323       -2.3906049244       -1.5175648066
 H         -4.8880259369       -2.9006778101        0.8775822497
 H         -2.5468169399       -2.5884939897        0.0836087420
 H         -2.7248974872       -2.0452844615        1.7566877096
 H         -2.8119817143        1.5952058933        0.9311122397
 H         -2.8814129721        0.4212143322        2.2563790410
 H         -2.4484982459       -0.9300566499       -1.7797561773
 H         -2.5496421142        0.8012581563       -1.4421787834
 H         -0.7079957054        0.3426559117        1.0817649708
 H          5.5853891966       -0.2533416227        0.3449911873
 H          6.0623575822       -1.9071879261       -1.4233884143
 H          4.2686314949       -3.1125231427       -2.5569437828
 H          1.8827672086       -2.7162852160       -1.9569253834
 H          4.3541425763        0.6894722973        2.4312585449
 H          2.7907261098        1.4779998955        2.7319817061
 H          4.8746200953        2.8437444903        1.7596089395
 H          4.3518831776        2.1614197722        0.2234831603
 H          3.4381608736        4.4211930148        0.6101166647
 H          2.7099868257        3.8932462613        2.1251411490
 H          1.2016959003        2.3507326787        0.8734440650
 H          1.0008257565        4.0464504405        0.4246494160
 H          2.4628140493        3.6429236406       -1.6029477746
 H          2.4187817507        1.8928052826       -1.2167086145
  58
        -82.23582095
 C         -5.0626276048        0.1403106843       -1.0123453660
 C         -4.4059125708       -1.2253095237       -1.2104241685
 C         -4.8897792221       -2.1888956205       -0.1281393260
 C         -4.5148759872       -1.6365785606        1.2460567711
 C         -5.1718706646       -0.2714825293        1.4468234731
 C         -4.6851058443        0.6891024284        0.3627973342
 C         -3.1661730288        0.8372219293        0.4550228343
 C         -2.5069120262       -0.5275581889        0.2558490184
 C         -2.8882180008       -1.0808416822       -1.1219147238
 C         -2.9974376776       -1.4931980832        1.3405006260
 N         -1.0628492777       -0.3581832260        0.3472715103
 C         -0.1460155882       -1.3406698373        0.2280338145
 O         -0.3999748048       -2.5162042923        0.0261051169
 C          1.2382065113       -0.8434612433        0.3607849336
 N          1.5191476006        0.4319686513        0.5610678691
 N          2.8452717727        0.5604211136        0.6297063713
 C          3.4673072202       -0.6386258949        0.4642997654
 C          4.8131920932       -0.9987024050        0.4596613034
 C          5.1011449278       -2.3303231435        0.2725426945
 C          4.0927458478       -3.2891521690        0.0940338749
 C          2.7629002383       -2.9450345861        0.1002149969
 C          2.4429173682       -1.5998649634        0.2880013588
 C          3.4423437934        1.8580981167        0.7649659840
 C          3.9474465680        2.4031268502       -0.5781048221
 C          2.8872628147        2.3825101814       -1.6824652557
 C          1.5923494341        3.1203756751       -1.3466081895
 C          1.8082671281        4.6023048788       -1.0755317281
 F          0.5945897559        5.2300432057       -0.9165384969
 H         -6.1481874094        0.0460645860       -1.0877982031
 H         -4.7316613878        0.8301021764       -1.7921746657
 H         -4.6731879929       -1.6193338225       -2.1972647473
 H         -4.4273083059       -3.1672133103       -0.2713852847
 H         -5.9729764347       -2.3134545391       -0.1970451477
 H         -4.8604360530       -2.3261245194        2.0242671086
 H         -6.2584199346       -0.3695245513        1.3936020423
 H         -4.9195180594        0.1221834459        2.4342059853
 H         -5.1515425342        1.6705352713        0.5062549499
 H         -2.8908112122        1.2394497225        1.4333227358
 H         -2.8131068872        1.5325565298       -0.3108243668
 H         -2.4044934437       -2.0479529952       -1.2610413415
 H         -2.5252432440       -0.4030420133       -1.8986771596
 H         -2.7123618425       -1.1104507403        2.3237007723
 H         -2.5136685421       -2.4598753888        1.1988018616
 H         -0.7023710499        0.5687047967        0.5154772891
 H          5.5949527075       -0.2673307373        0.5993274319
 H          6.1324442205       -2.6515967913        0.2624972059
 H          4.3794806846       -4.3204038039       -0.0484260302
 H          1.9752694254       -3.6688165105       -0.0318738976
 H          4.2759420526        1.7938435802        1.4710328346
 H          2.6799126159        2.5171074199        1.1836910614
 H          4.3118060855        3.4190609027       -0.4208074874
 H          4.7917949777        1.7954728000       -0.9105675383
 H          2.6328811488        1.3449168353       -1.9077955471
 H          3.3258311585        2.8147332041       -2.5847201878
 H          0.9089598936        3.0288791263       -2.1936307890
 H          1.1100631354        2.6557341495       -0.4857912982
 H          2.3676831580        4.7824651082       -0.1521887821
 H          2.3081514155        5.0959450438       -1.9161887976
  58
        -82.23581041
 C         -5.2019767441       -1.0371127335       -1.3997424702
 C         -4.5428971438       -2.0082132061       -0.4209457372
 C         -4.9302290625       -1.6364654451        1.0093819824
 C         -4.4607785594       -0.2135442492        1.3076352415
 C         -5.1198421648        0.7596302193        0.3309829992
 C         -4.7297943237        0.3844085582       -1.0979206480
 C         -3.2103964678        0.4619768727       -1.2500844183
 C         -2.5491663656       -0.5103117509       -0.2732464730
 C         -3.0249924648       -1.9362320784       -0.5725054038
 C         -2.9426987797       -0.1366256368        1.1603170422
 N         -1.1044088378       -0.4149695820       -0.4368750997
 C         -0.1861085568       -1.1186366891        0.2575848995
 O         -0.4392415007       -1.9426396205        1.1199881723
 C          1.1982472710       -0.7737006004       -0.1222965115
 N          1.4772324249        0.1526000102       -1.0230912587
 N          2.8031888504        0.2602015648       -1.1138740538
 C          3.4275770292       -0.6091327528       -0.2721165746
 C          4.7740855091       -0.8610985650       -0.0139053090
 C          5.0613503753       -1.8211776337        0.9275241173
 C          4.0525248952       -2.5230489206        1.6041029651
 C          2.7227480772       -2.2840287244        1.3580508907
 C          2.4036835958       -1.3131937639        0.4077628775
 C          3.3928743667        1.2109051552       -2.0187128329
 C          2.8229003735        2.6199811640       -1.8332244087
 C          3.3579620198        3.3671079646       -0.6104580411
 C          2.9909817456        2.7716200018        0.7519140304
 C          1.4924065480        2.7469996783        1.0176490796
 F          0.9806368261        4.0253816871        1.0075616253
 H         -6.2886737930       -1.0935949657       -1.3056970874
 H         -4.9405885346       -1.3068813607       -2.4257097589
 H         -4.8782182904       -3.0285405394       -0.6375300525
 H         -4.4661495313       -2.3328515437        1.7102085694
 H         -6.0136513330       -1.7049369424        1.1319582557
 H         -4.7368325558        0.0555560303        2.3331316005
 H         -6.2057935738        0.7194151138        0.4406503440
 H         -4.7990423705        1.7809254691        0.5487994276
 H         -5.1979428221        1.0830427957       -1.8009674804
 H         -2.8681772596        1.4795868815       -1.0446286955
 H         -2.9255702254        0.2057329174       -2.2739399541
 H         -2.5396483008       -2.6239063851        0.1204062454
 H         -2.7308934262       -2.2120839142       -1.5883624987
 H         -2.5903736910        0.8738997845        1.3822588101
 H         -2.4575188900       -0.8259036813        1.8517721126
 H         -0.7449804902        0.2202650010       -1.1332479718
 H          5.5607501964       -0.3296053781       -0.5282185703
 H          6.0933270580       -2.0445775020        1.1549591750
 H          4.3390897881       -3.2666406251        2.3325777010
 H          1.9334072940       -2.8122709688        1.8674250264
 H          3.1967199274        0.8822616032       -3.0464766920
 H          4.4717311748        1.2090412965       -1.8530378406
 H          3.0800794227        3.2019833293       -2.7202504187
 H          1.7365175230        2.5476186144       -1.7904463571
 H          2.9729030904        4.3884572194       -0.6459842822
 H          4.4473260001        3.4228543713       -0.6776827333
 H          3.3694220831        1.7549012049        0.8538851908
 H          3.4639707349        3.3806413465        1.5258240027
 H          0.9452064103        2.1830820529        0.2572321175
 H          1.2769832493        2.3301290912        2.0066779959
  58
        -82.23578608
 C         -5.1758548293       -0.7046151168       -1.2582198076
 C         -4.5164478382       -1.9005114124       -0.5722768805
 C         -4.9073359713       -1.9245880362        0.9044237797
 C         -4.4417393229       -0.6320500862        1.5726095181
 C         -5.1018204814        0.5649590427        0.8893079770
 C         -4.7078904292        0.5857701859       -0.5869255681
 C         -3.1884110619        0.7040623351       -0.7091560642
 C         -2.5261865441       -0.4923332047       -0.0254912746
 C         -2.9985283688       -1.7877541735       -0.6953214946
 C         -2.9235965903       -0.5159743290        1.4546329982
 N         -1.0819370928       -0.3535430726       -0.1553049719
 C         -0.1609813320       -1.2146869613        0.3288857497
 O         -0.4141310349       -2.2257103689        0.9616660000
 C          1.2207342438       -0.7999652463        0.0180628886
 N          1.4993912398        0.3470821566       -0.5786943778
 N          2.8221069761        0.4332091985       -0.7227840691
 C          3.4450942825       -0.6616057996       -0.2093642180
 C          4.7899462245       -1.0187477626       -0.1326985367
 C          5.0814104772       -2.2273172864        0.4543112743
 C          4.0775791991       -3.0699517006        0.9555742193
 C          2.7490345572       -2.7300560774        0.8811264558
 C          2.4254382808       -1.5077384682        0.2903778097
 C          3.4202036569        1.6129907862       -1.2810956652
 C          3.9806396244        2.5441471174       -0.1970390438
 C          2.9725611813        2.9415139382        0.8843475571
 C          1.9815280169        4.0419181877        0.4959259552
 C          0.8906712199        3.6162768112       -0.4819573999
 F          1.2701748980        3.8656865776       -1.7853973210
 H         -6.2626278203       -0.7860726393       -1.1856513966
 H         -4.9114858184       -0.6901785414       -2.3181297444
 H         -4.8490241774       -2.8265705965       -1.0540817021
 H         -4.4427336725       -2.7817025855        1.3952122769
 H         -5.9908153807       -2.0253089283        1.0017837011
 H         -4.7203528842       -0.6468709436        2.6321431100
 H         -6.1878548099        0.4941788716        0.9812984972
 H         -4.7849202985        1.4920366651        1.3729339724
 H         -5.1766462949        1.4456850467       -1.0793213284
 H         -2.8483111140        1.6306810447       -0.2390837581
 H         -2.9011770687        0.7313086135       -1.7634410354
 H         -2.5125983765       -2.6341983890       -0.2093872393
 H         -2.7017766949       -1.7823036663       -1.7471800964
 H         -2.5735469868        0.3989050058        1.9396113901
 H         -2.4378153095       -1.3638419924        1.9378231428
 H         -0.7267930781        0.4236139043       -0.6910832903
 H          5.5677244637       -0.3778648978       -0.5195122684
 H          6.1118871669       -2.5415758048        0.5337218615
 H          4.3672047959       -4.0072510866        1.4069124775
 H          1.9651409094       -3.3661041714        1.2589173619
 H          2.6571807224        2.1172698994       -1.8711768263
 H          4.2316423928        1.3111711602       -1.9504086080
 H          4.8159468073        2.0360187721        0.2905744789
 H          4.3703479445        3.4385391119       -0.6855009956
 H          3.5381393440        3.3028091945        1.7462786178
 H          2.4169868184        2.0597570210        1.2099781522
 H          1.4917875107        4.3879595025        1.4078488725
 H          2.5179394903        4.8898205964        0.0646554411
 H          0.6815812293        2.5435605266       -0.4157443615
 H         -0.0263988257        4.1936978058       -0.3289032854
  58
        -82.23578360
 C         -5.0909595215        0.1817083052       -1.0929453613
 C         -4.4332978493       -1.1875440939       -1.2604449253
 C         -4.9084196099       -2.1234063527       -0.1503317142
 C         -4.5243397606       -1.5356470176        1.2065030345
 C         -5.1811025999       -0.1662727281        1.3768866247
 C         -4.7039222603        0.7664618742        0.2646531543
 C         -3.1845178825        0.9185823180        0.3414711706
 C         -2.5247841924       -0.4503330198        0.1735199703
 C         -2.9151517147       -1.0390783460       -1.1866672398
 C         -3.0064729870       -1.3884119590        1.2861522611
 N         -1.0806566379       -0.2755908766        0.2494292862
 C         -0.1604726049       -1.2576227486        0.1349587914
 O         -0.4138558813       -2.4320491246       -0.0728049049
 C          1.2207803885       -0.7588052307        0.2798447219
 N          1.4995508660        0.5267333754        0.4189175674
 N          2.8218409498        0.6584431123        0.5284740342
 C          3.4443961003       -0.5485491805        0.4521445239
 C          4.7888215832       -0.9097052753        0.5166956046
 C          5.0800091214       -2.2493090911        0.4125146921
 C          4.0762959511       -3.2161924622        0.2490932710
 C          2.7482139433       -2.8717814607        0.1881464503
 C          2.4249043230       -1.5180103912        0.2906747928
 C          3.4207733559        1.9597862480        0.6236049698
 C          3.9713995835        2.4413471013       -0.7259314545
 C          2.9526305122        2.4318593588       -1.8685272922
 C          1.9703327397        3.6059277255       -1.8914875891
 C          0.8918044663        3.5694136174       -0.8132855186
 F          1.2914266487        4.2650581821        0.3098189940
 H         -6.1768769869        0.0838702498       -1.1574609365
 H         -4.7673487697        0.8513671134       -1.8933329269
 H         -4.7069106706       -1.6071340782       -2.2348820703
 H         -4.4458327478       -3.1045476773       -0.2717683019
 H         -5.9919215469       -2.2507741569       -0.2083238710
 H         -4.8637092531       -2.2049960536        2.0047243391
 H         -6.2679040936       -0.2664339771        1.3345830152
 H         -4.9214956837        0.2531258067        2.3516844984
 H         -5.1708707701        1.7507260329        0.3864574143
 H         -2.9021554653        1.3477256263        1.3063200264
 H         -2.8376415218        1.5927124854       -0.4462445252
 H         -2.4311353520       -2.0086712958       -1.3045990193
 H         -2.5584094907       -0.3812217803       -1.9833192524
 H         -2.7145735922       -0.9807779946        2.2573135731
 H         -2.5223930135       -2.3578251012        1.1649691685
 H         -0.7254210055        0.6442906777        0.4610482259
 H          5.5664415487       -0.1721885819        0.6459284971
 H          6.1101133711       -2.5714351951        0.4576144375
 H          4.3656679382       -4.2537127309        0.1722006073
 H          1.9644601511       -3.6013912474        0.0648895997
 H          4.2375727074        1.9163784969        1.3504179855
 H          2.6612652670        2.6424206003        1.0001973949
 H          4.3667683894        3.4493429910       -0.5916822945
 H          4.8013087690        1.7889414772       -1.0075831709
 H          2.3898298968        1.4964011871       -1.8505200351
 H          3.5093706879        2.4555119624       -2.8080793547
 H          2.5151167504        4.5481079632       -1.8010232135
 H          1.4691198916        3.6039147799       -2.8610058177
 H         -0.0246374926        4.0627015633       -1.1520787305
 H          0.6766637944        2.5460717819       -0.4889023404
  58
        -82.23575165
 C         -5.5850023510       -1.4631100110        1.6156748004
 C         -5.3083800670       -0.2134060430        0.7811595667
 C         -5.7579634852       -0.4519576018       -0.6595699692
 C         -4.9843621508       -1.6341394759       -1.2421835207
 C         -5.2582146700       -2.8859760300       -0.4104405367
 C         -4.8116809067       -2.6441606407        1.0304316886
 C         -3.3155516077       -2.3392549909        1.0555407026
 C         -3.0350780824       -1.0839569076        0.2215223725
 C         -3.8113782688        0.0966422804        0.8052210037
 C         -3.4886502506       -1.3267006662       -1.2225441752
 N         -1.6146473389       -0.7635774238        0.2558365011
 C         -0.6176940961       -1.5647008703       -0.1753221387
 O         -0.7710329823       -2.6715867699       -0.6638554329
 C          0.7153125643       -0.9566507134        0.0042741763
 N          0.8849068645        0.2462221048        0.5256756363
 N          2.1933176553        0.5006786010        0.5639892082
 C          2.9144622972       -0.5338116934        0.0508892010
 C          4.2847166432       -0.7228735791       -0.1162255109
 C          4.6858064645       -1.9165413855       -0.6689505875
 C          3.7649084861       -2.9041354071       -1.0493137944
 C          2.4123146016       -2.7284636920       -0.8860747905
 C          1.9781991851       -1.5254236967       -0.3280218062
 C          2.6808335869        1.7701923187        1.0222005153
 C          2.9826855473        2.7117319848       -0.1481297755
 C          3.5156030558        4.0543436323        0.3408165453
 C          3.8269654318        4.9962533024       -0.8210980142
 C          4.4040547520        6.3176872177       -0.3352451343
 F          5.6228317494        6.1147590913        0.2682106875
 H         -6.6554613656       -1.6803124659        1.6127746376
 H         -5.2806255529       -1.2945201824        2.6513240224
 H         -5.8590434561        0.6366348400        1.2007999410
 H         -5.5779996321        0.4434582194       -1.2592011288
 H         -6.8299609691       -0.6601476427       -0.6828050520
 H         -5.3033876568       -1.8049061540       -2.2763792470
 H         -6.3240755523       -3.1246532355       -0.4355548135
 H         -4.7120699349       -3.7334489900       -0.8286037385
 H         -5.0066304576       -3.5406709075        1.6293299154
 H         -2.7494872721       -3.1731238769        0.6399360238
 H         -2.9778029761       -2.1763846494        2.0821410264
 H         -3.6082417774        0.9962442530        0.2184295094
 H         -3.4856757019        0.2787803859        1.8326572260
 H         -2.9222369313       -2.1618885280       -1.6349305579
 H         -3.2748070649       -0.4398839534       -1.8244871480
 H         -1.3322687310        0.1249129387        0.6412552769
 H          4.9998898018        0.0311763778        0.1756787051
 H          5.7395435415       -2.1028875360       -0.8166503287
 H          4.1388600553       -3.8216325574       -1.4787886214
 H          1.6913103244       -3.4775710113       -1.1701221660
 H          3.5848493775        1.6084806326        1.6169620649
 H          1.9076561191        2.2027801381        1.6613399124
 H          3.7166089511        2.2405582804       -0.8054819429
 H          2.0673845205        2.8632919589       -0.7242808806
 H          4.4272423636        3.8962752232        0.9205798670
 H          2.7780653179        4.5212564627        0.9978477924
 H          4.5483604477        4.5243773246       -1.4909498240
 H          2.9197095725        5.2075677911       -1.3891215982
 H          4.5794103149        7.0097714063       -1.1650206484
 H          3.7602626139        6.7878926819        0.4153667161
  58
        -82.23574896
 C         -5.6931439396       -0.6541768891       -0.8262393488
 C         -4.9009144601       -1.9478946859       -1.0109102700
 C         -5.2387278391       -2.9213884947        0.1169420287
 C         -4.8753225159       -2.2875760117        1.4586609924
 C         -5.6676184050       -0.9943179601        1.6462444534
 C         -5.3269068031       -0.0235965101        0.5165210041
 C         -3.8303306568        0.2881050792        0.5439763106
 C         -3.0352115645       -1.0043357940        0.3579296204
 C         -3.4053620618       -1.6401019915       -0.9870060413
 C         -3.3796780066       -1.9805662328        1.4884881873
 N         -1.6156505799       -0.6799365175        0.3874411450
 C         -0.6040075833       -1.5637649366        0.2566797119
 O         -0.7402471040       -2.7645859559        0.0932093409
 C          0.7222657160       -0.9199485438        0.3304800516
 N          0.8718736657        0.3833833789        0.4928500275
 N          2.1780090828        0.6495993122        0.5288460110
 C          2.9186683368       -0.4823010346        0.3748558991
 C          4.2945732383       -0.6994930263        0.3441927196
 C          4.7165881206       -1.9981715499        0.1812555504
 C          3.8106935163       -3.0614791842        0.0514916754
 C          2.4525214914       -2.8580218281        0.0824927495
 C          1.9972814767       -1.5491407574        0.2460376916
 C          2.6466039773        2.0024697315        0.6265144661
 C          2.9962439414        2.5762374675       -0.7503999294
 C          3.4874548772        4.0161184226       -0.6451043800
 C          3.8386689461        4.5954069102       -2.0144783841
 C          4.3660957315        6.0184395725       -1.9050987205
 F          5.5568923069        6.0362743845       -1.2178095637
 H         -6.7643193800       -0.8657220931       -0.8556044843
 H         -5.4669977837        0.0407931249       -1.6384128154
 H         -5.1602462056       -2.4001259071       -1.9746126614
 H         -4.6792206326       -3.8490109179       -0.0165203664
 H         -6.3040763434       -3.1626169557        0.0947535813
 H         -5.1162685417       -2.9838978703        2.2695212573
 H         -6.7385914673       -1.2088904991        1.6391022354
 H         -5.4230725859       -0.5437638063        2.6110450580
 H         -5.8911080396        0.9068078977        0.6503354218
 H         -3.5637867110        0.7493468062        1.4984596131
 H         -3.5819080319        0.9908565441       -0.2556335444
 H         -2.8257620650       -2.5542539552       -1.1169051221
 H         -3.1453995837       -0.9539703880       -1.7970735929
 H         -3.1014047431       -1.5378001469        2.4481474413
 H         -2.8000370881       -2.8941830210        1.3551185376
 H         -1.3462966350        0.2834591463        0.5179643297
 H          4.9981659224        0.1129742373        0.4450091376
 H          5.7754318657       -2.2100004127        0.1516645526
 H          4.2008715471       -4.0605365904       -0.0740512789
 H          1.7426851798       -3.6634209392       -0.0133527638
 H          3.5247089276        2.0270452475        1.2785685438
 H          1.8473587243        2.5899692828        1.0843404047
 H          3.7672596202        1.9552025471       -1.2115486298
 H          2.1087055480        2.5330302977       -1.3853824702
 H          4.3730809239        4.0546881466       -0.0077385650
 H          2.7134528974        4.6310076303       -0.1798112386
 H          4.6008085302        3.9748525258       -2.4896590569
 H          2.9567440503        4.6063466153       -2.6567649810
 H          4.5695180136        6.4492922553       -2.8906029187
 H          3.6769896123        6.6628857829       -1.3493596104
  58
        -82.23574669
 C         -5.0074073696       -1.9569485640        0.3453346539
 C         -4.5583856714       -0.8018982002        1.2386764533
 C         -5.2573471165        0.4852418102        0.8025196111
 C         -4.8912327445        0.7932917261       -0.6486304735
 C         -5.3432581925       -0.3590897828       -1.5443750891
 C         -4.6445556191       -1.6454849470       -1.1056192360
 C         -3.1321318727       -1.4731221676       -1.2264153028
 C         -2.6755073700       -0.3155596223       -0.3309814153
 C         -3.0457713019       -0.6271880879        1.1235261419
 C         -3.3772710346        0.9705798455       -0.7678966020
 N         -1.2374768214       -0.1200604280       -0.4513560996
 C         -0.2916685635       -1.0412129522       -0.1612570433
 O         -0.5188718873       -2.1608422370        0.2650542653
 C          1.0751122335       -0.5458234930       -0.4080569555
 N          1.3136013908        0.6713199968       -0.8696907273
 N          2.6339806796        0.8223435709       -0.9783528207
 C          3.2936496186       -0.3003028787       -0.5863205057
 C          4.6500631565       -0.6117827435       -0.5306341749
 C          4.9822231639       -1.8675874372       -0.0808166780
 C          4.0071751951       -2.7989455011        0.3063732022
 C          2.6674044071       -2.5025703114        0.2524448237
 C          2.3029998073       -1.2348604596       -0.2021076665
 C          3.2023905721        2.0616970703       -1.4287534970
 C          3.7923614420        2.9093454308       -0.2916257157
 C          2.7638601247        3.7792859839        0.4345870325
 C          1.7185435397        3.0080870054        1.2437076759
 C          2.2881198357        2.2905491752        2.4596502343
 F          3.0335845382        1.1918464236        2.1014634228
 H         -6.0864126151       -2.1019219720        0.4372210542
 H         -4.5144714620       -2.8788529414        0.6589984276
 H         -4.8173563051       -1.0227742585        2.2801594747
 H         -4.9520857161        1.3125845598        1.4476195038
 H         -6.3397565216        0.3712570318        0.8946120848
 H         -5.3881169688        1.7185388101       -0.9633322272
 H         -6.4264833956       -0.4800679861       -1.4729028489
 H         -5.0992597881       -0.1389468824       -2.5863436863
 H         -4.9655024473       -2.4724838792       -1.7486679153
 H         -2.8549231465       -1.2623757714       -2.2624327078
 H         -2.6184620725       -2.3831296555       -0.9157499336
 H         -2.7073747500        0.1888466939        1.7671599347
 H         -2.5317409484       -1.5379282164        1.4310725812
 H         -3.1104792757        1.2018545536       -1.8024569890
 H         -3.0490043080        1.8010535562       -0.1372796191
 H         -0.9035162696        0.7561279337       -0.8230535835
 H          5.4062393987        0.1005227059       -0.8239400292
 H          6.0235083978       -2.1492011360       -0.0199386474
 H          4.3286060919       -3.7694471268        0.6547154487
 H          1.9053020769       -3.2060691552        0.5460759813
 H          2.4099845546        2.6134188978       -1.9404587174
 H          3.9909443685        1.8269643047       -2.1511249655
 H          4.2939440715        2.2495391489        0.4157673014
 H          4.5466356640        3.5709704717       -0.7230053272
 H          2.2424079153        4.3936660459       -0.3036105720
 H          3.2983296319        4.4566670926        1.1060874042
 H          0.9705932107        3.7138719219        1.6106947426
 H          1.2121146745        2.2808246242        0.6077686051
 H          2.9551551086        2.9404546827        3.0372205297
 H          1.4854688648        1.9148998798        3.1023929549
  58
        -82.23574017
 C         -5.3299614551       -0.0028017286       -0.7047631457
 C         -4.6165975478       -1.2872442430       -1.1251702439
 C         -5.0283902575       -2.4295710697       -0.1981108135
 C         -4.6445483909       -2.0792037017        1.2385284562
 C         -5.3580267150       -0.7957095709        1.6616106336
 C         -4.9431908535        0.3439692936        0.7322237971
 C         -3.4307236553        0.5503838797        0.8192911440
 C         -2.7146349402       -0.7328152253        0.3978401564
 C         -3.1053760812       -1.0838931409       -1.0423264783
 C         -3.1333818229       -1.8778019471        1.3270881411
 N         -1.2780202574       -0.5097588325        0.4887738173
 C         -0.3221324415       -1.4174197226        0.2001935302
 O         -0.5298767284       -2.5559322522       -0.1847261645
 C          1.0409862444       -0.8852096352        0.3953772124
 N          1.2694801630        0.3533147556        0.7965535119
 N          2.5890744717        0.5268484193        0.8789107375
 C          3.2596574395       -0.6011359858        0.5167199038
 C          4.6197336431       -0.8947149040        0.4430239442
 C          4.9623601257       -2.1642947717        0.0404720329
 C          3.9938888964       -3.1263688501       -0.2827608323
 C          2.6506491379       -2.8477753871       -0.2112166193
 C          2.2756134472       -1.5662277163        0.1937673265
 C          3.1422751509        1.8064787161        1.2201401494
 C          3.5554929169        2.5959307490       -0.0278639342
 C          2.3381621594        2.9899254020       -0.8623659102
 C          2.7029974954        3.5899871425       -2.2206613538
 C          3.3562014858        4.9609951834       -2.1117402468
 F          2.4972522992        5.8569538012       -1.5192703879
 H         -6.4116474155       -0.1374068435       -0.7744744475
 H         -5.0507719713        0.8148769040       -1.3733946939
 H         -4.8904910280       -1.5360725463       -2.1564815723
 H         -4.5252706541       -3.3498234098       -0.5005019427
 H         -6.1061519621       -2.5951044482       -0.2663271938
 H         -4.9385352207       -2.8971120935        1.9056624789
 H         -6.4399706945       -0.9374584653        1.6130641869
 H         -5.0990396843       -0.5479563792        2.6936760712
 H         -5.4505531316        1.2671584830        1.0354938353
 H         -3.1489818743        0.8091972102        1.8431948841
 H         -3.1289886728        1.3720007638        0.1645638954
 H         -2.5815488428       -1.9927790220       -1.3390908917
 H         -2.7933435691       -0.2770672408       -1.7103123983
 H         -2.8411789879       -1.6386367939        2.3526876286
 H         -2.6095964318       -2.7857931344        1.0275316917
 H         -0.9522325915        0.3930426712        0.7998583777
 H          5.3712230961       -0.1606104140        0.6921277078
 H          6.0064054982       -2.4325525240       -0.0303623132
 H          4.3228318227       -4.1069820522       -0.5930728687
 H          1.8932525178       -3.5753136334       -0.4536005922
 H          4.0075797339        1.6501545651        1.8709654224
 H          2.3747086323        2.3552584684        1.7702924386
 H          4.0985656290        3.4840481611        0.2970500350
 H          4.2306409854        1.9820375189       -0.6292618759
 H          1.7350489327        3.7105113164       -0.3069425609
 H          1.7231846398        2.1037941364       -1.0308526576
 H          3.3885142188        2.9291484019       -2.7540653033
 H          1.7941250216        3.6915369381       -2.8167136663
 H          4.2592173727        4.9407956419       -1.4945192608
 H          3.5945249123        5.3657383303       -3.1007407104
  58
        -82.23570655
 C         -5.6268383834        0.0427098958        0.4646634552
 C         -5.2392213670       -0.2772338108       -0.9783053912
 C         -5.5584064989       -1.7406993581       -1.2801391730
 C         -4.7665516435       -2.6380372881       -0.3297974866
 C         -5.1511431772       -2.3212151848        1.1143925916
 C         -4.8348467383       -0.8567117555        1.4129276972
 C         -3.3398058166       -0.6097304935        1.2234017135
 C         -2.9484703345       -0.9270175143       -0.2243475768
 C         -3.7430703740       -0.0293958829       -1.1729786341
 C         -3.2713213379       -2.3954213453       -0.5234773830
 N         -1.5289758577       -0.6716149758       -0.4293904308
 C         -0.5188498062       -1.2772544258        0.2287615045
 O         -0.6551271432       -2.1218290035        1.0978140017
 C          0.8088704178       -0.8057074434       -0.2133196385
 N          0.9632485225        0.1135024914       -1.1494786990
 N          2.2707819603        0.3129795036       -1.3251706994
 C          3.0073984756       -0.4731857569       -0.4921578891
 C          4.3817886632       -0.6182796922       -0.3120019408
 C          4.7959633410       -1.5298247764        0.6305190439
 C          3.8846042758       -2.2862696656        1.3822224082
 C          2.5282282671       -2.1542418762        1.2109258924
 C          2.0813405821       -1.2352027113        0.2607303922
 C          2.7258880902        1.3129408472       -2.2498821485
 C          2.6597948942        2.7196018609       -1.6441060391
 C          3.6246804632        2.8960834575       -0.4739771622
 C          3.5322217658        4.2985004468        0.1197136867
 C          4.4891008012        4.4639646819        1.2912463121
 F          4.3989934661        5.7358387204        1.8032844734
 H         -6.6978336171       -0.1196216992        0.6045753499
 H         -5.4162553009        1.0922469470        0.6831760420
 H         -5.8030319804        0.3690721758       -1.6610637931
 H         -5.2985776232       -1.9729176991       -2.3156176635
 H         -6.6287976350       -1.9190366962       -1.1558404290
 H         -4.9919705118       -3.6880783624       -0.5466815317
 H         -6.2161035687       -2.5113299152        1.2669451691
 H         -4.5918804995       -2.9656897732        1.7950136497
 H         -5.1092937888       -0.6267740731        2.4483944476
 H         -2.7605697673       -1.2452103838        1.8935558042
 H         -3.0955130443        0.4320569755        1.4458154089
 H         -3.4614796299       -0.2463834346       -2.2066708117
 H         -3.5099533487        1.0188522584       -0.9687993020
 H         -2.6922628579       -3.0287479790        0.1489375436
 H         -2.9778636305       -2.6302802911       -1.5497595223
 H         -1.2596746244        0.0045975743       -1.1279880249
 H          5.0925333974       -0.0422369360       -0.8849923260
 H          5.8535375915       -1.6704733335        0.7997180559
 H          4.2687563207       -2.9867113958        2.1086543163
 H          1.8127249317       -2.7282766710        1.7767725838
 H          2.0808293698        1.2678384081       -3.1316367322
 H          3.7496085005        1.0708745342       -2.5437732162
 H          2.8933947931        3.4449061374       -2.4253073380
 H          1.6380284210        2.9018638353       -1.3062122230
 H          4.6471302481        2.7153869619       -0.8147369552
 H          3.3976292921        2.1617563253        0.3019747892
 H          3.7735418234        5.0441527553       -0.6408096525
 H          2.5148869274        4.4905719002        0.4661544251
 H          4.2472631835        3.7771045247        2.1090686223
 H          5.5310498032        4.3233838325        0.9843593140
  58
        -82.23568464
 C         -5.3137322246       -1.5823606670        1.6031387709
 C         -4.9563621544       -0.1213065784        1.3342862932
 C         -5.4383031801        0.2738132589       -0.0608324743
 C         -4.7596291455       -0.6157411634       -1.1017494357
 C         -5.1146278001       -2.0777390976       -0.8364078722
 C         -4.6353180602       -2.4697627158        0.5602124868
 C         -3.1207048138       -2.2947939068        0.6465326602
 C         -2.7592499201       -0.8290871702        0.3803739968
 C         -3.4405700342        0.0588031254        1.4217664948
 C         -3.2453138066       -0.4362858616       -1.0193461501
 N         -1.3187931434       -0.6382631337        0.4848181317
 C         -0.3869773301       -1.2578642524       -0.2692597986
 O         -0.6232194977       -2.0604938440       -1.1563436477
 C          0.9883982745       -0.8571145349        0.0886750047
 N          1.2477857383        0.0243599989        1.0387599113
 N          2.5713630409        0.1650108559        1.1244309368
 C          3.2123204637       -0.6187961760        0.2142071962
 C          4.5638006362       -0.8060963569       -0.0682692749
 C          4.8736660941       -1.7001298134       -1.0662955177
 C          3.8814547389       -2.3965222960       -1.7723326335
 C          2.5465746829       -2.2215325793       -1.4992989100
 C          2.2046042469       -1.3189738160       -0.4915163675
 C          3.1511576948        1.1212880949        2.0239947737
 C          3.5326680006        2.4173711684        1.2991685009
 C          2.2987643410        3.1386424538        0.7594391561
 C          2.6324033059        4.4481342370        0.0485812516
 C          3.3563162821        4.2291084882       -1.2732169843
 F          3.5063964855        5.4289400561       -1.9275187186
 H         -6.3970890569       -1.7128693130        1.5555340526
 H         -4.9861210954       -1.8677859115        2.6055683720
 H         -5.4386747061        0.5176514042        2.0831845337
 H         -5.2003336312        1.3224344555       -0.2542218834
 H         -6.5227531526        0.1599301356       -0.1235013270
 H         -5.1018252189       -0.3319560459       -2.1031135185
 H         -6.1952516731       -2.2188545881       -0.9130409327
 H         -4.6368099469       -2.7148264914       -1.5828397776
 H         -4.8881953435       -3.5182039337        0.7530783703
 H         -2.6218908628       -2.9217762909       -0.0927992320
 H         -2.7603790593       -2.5838627552        1.6370451023
 H         -3.1791201629        1.1046447002        1.2407986087
 H         -3.0908210726       -0.2122905009        2.4212972429
 H         -2.7462441438       -1.0656690676       -1.7564145757
 H         -2.9745110374        0.6034480964       -1.2196566584
 H         -0.9694973517       -0.0023072014        1.1857822295
 H          5.3336154192       -0.2768666262        0.4729569435
 H          5.9099215031       -1.8740425199       -1.3168256859
 H          4.1850569014       -3.0858323835       -2.5460230288
 H          1.7714212003       -2.7503580612       -2.0295021013
 H          4.0359291739        0.6757136694        2.4883568276
 H          2.4072530371        1.3278886228        2.7967316804
 H          4.0613346075        3.0659666201        1.9998253919
 H          4.2114330007        2.1728637625        0.4808680151
 H          1.6292447669        3.3564365563        1.5941358370
 H          1.7627909917        2.4806008898        0.0724520998
 H          1.7080840703        4.9896780910       -0.1630151245
 H          3.2483004709        5.0789409772        0.6929404728
 H          4.3648881580        3.8277911814       -1.1356792067
 H          2.7824575775        3.5768102057       -1.9401427429
  58
        -82.23568101
 C         -5.4592851739        0.1776615888       -0.3411852457
 C         -4.7410932785       -0.9923372068       -1.0125453305
 C         -5.1013314883       -2.2933126370       -0.2972999772
 C         -4.6714424592       -2.2024163198        1.1658778950
 C         -5.3892830043       -1.0336736050        1.8397869548
 C         -5.0264059788        0.2652452356        1.1215855444
 C         -3.5151785204        0.4856977157        1.1955785777
 C         -2.7945693380       -0.6830015615        0.5233399145
 C         -3.2311898038       -0.7741526585       -0.9432045755
 C         -3.1614171313       -1.9872779174        1.2404489443
 N         -1.3591076774       -0.4488459840        0.6076770465
 C         -0.4002078290       -1.2688495976        0.1291680543
 O         -0.6041075215       -2.3172347231       -0.4593540507
 C          0.9616437291       -0.7615757666        0.3903350354
 N          1.1886263870        0.3816021156        1.0136628284
 N          2.5086730859        0.5507772335        1.1026780591
 C          3.1803614332       -0.4819055155        0.5229223771
 C          4.5407794954       -0.7432760643        0.3732673572
 C          4.8841866267       -1.9104466756       -0.2679918392
 C          3.9162865784       -2.8032935341       -0.7516511920
 C          2.5727825220       -2.5569417579       -0.6055423372
 C          2.1970027858       -1.3787557507        0.0408793364
 C          3.0588456990        1.7489682265        1.6697929674
 C          3.5054778284        2.7341797783        0.5833594044
 C          2.3194364746        3.2328882501       -0.2403804466
 C          2.7178976719        4.2418497795       -1.3149402179
 C          3.5264947368        3.6104823544       -2.4404087296
 F          3.7346609230        4.5319608297       -3.4393027699
 H         -6.5404560940        0.0338943351       -0.3989445103
 H         -5.2176988761        1.1095421112       -0.8577593311
 H         -5.0479403239       -1.0549070936       -2.0624484994
 H         -4.5951096021       -3.1317147030       -0.7791535032
 H         -6.1780905163       -2.4672772787       -0.3595793459
 H         -4.9281494583       -3.1344923834        1.6813496243
 H         -6.4698923853       -1.1879709436        1.8016041249
 H         -5.0970277845       -0.9725925553        2.8907482836
 H         -5.5370560790        1.1061894088        1.6051215637
 H         -3.2007741477        0.5597852342        2.2398854698
 H         -3.2503242846        1.4192644693        0.6924171000
 H         -2.7041867611       -1.6018413929       -1.4182282947
 H         -2.9563498923        0.1476266920       -1.4620978294
 H         -2.8359883017       -1.9329255577        2.2824125061
 H         -2.6347029444       -2.8135962720        0.7626255064
 H         -1.0361485240        0.3826292912        1.0789792728
 H          5.2920296566       -0.0636166802        0.7465202338
 H          5.9284434383       -2.1505112088       -0.4049310043
 H          4.2458621574       -3.7042980980       -1.2471407112
 H          1.8157872568       -3.2333968927       -0.9675038610
 H          3.9083121883        1.4802833813        2.3050194806
 H          2.2784312165        2.1988317915        2.2876332584
 H          4.0024118192        3.5793809280        1.0627332744
 H          4.2275650449        2.2357400824       -0.0648215079
 H          1.6015461953        3.7063456111        0.4325772996
 H          1.8182320639        2.3838708261       -0.7096520099
 H          1.8173710279        4.6762006806       -1.7540253300
 H          3.2975027988        5.0539519400       -0.8710745139
 H          4.5186432299        3.2870103868       -2.1114600567
 H          2.9909466481        2.7699279461       -2.8945289196
  58
        -82.23567942
 C         -5.3568957500        0.2162748457       -0.5449624501
 C         -4.6433146954       -1.0082451692       -1.1166110951
 C         -5.0416066297       -2.2510327923       -0.3223609619
 C         -4.6441513597       -2.0656261909        1.1410805220
 C         -5.3578472778       -0.8423643197        1.7152463903
 C         -4.9566919560        0.3982127877        0.9184299833
 C         -3.4442184159        0.6005031153        1.0136875112
 C         -2.7278470157       -0.6226233644        0.4411930334
 C         -3.1320735811       -0.8085084348       -1.0258307823
 C         -3.1329176394       -1.8684926808        1.2372627335
 N         -1.2914166154       -0.4049302410        0.5440050711
 C         -0.3347796845       -1.2691773133        0.1466959745
 O         -0.5408840366       -2.3596146245       -0.3598173286
 C          1.0276772762       -0.7538484546        0.3872736796
 N          1.2539516877        0.4328297640        0.9220455702
 N          2.5730096536        0.6054509979        1.0109762141
 C          3.2465733307       -0.4720745129        0.5221943507
 C          4.6066939156       -0.7528435724        0.4041535946
 C          4.9495758724       -1.9681871581       -0.1397673969
 C          3.9817823076       -2.8927315844       -0.5600520822
 C          2.6387802449       -2.6282602705       -0.4464242880
 C          2.2636286576       -1.4011791659        0.1019223968
 C          3.1020458012        1.8521551195        1.4907258205
 C          3.0386993125        2.9397182694        0.4134284849
 C          3.9397476770        2.6219802940       -0.7779148075
 C          3.8967278221        3.7020535655       -1.8595852443
 C          2.5458290844        3.8175684530       -2.5541003306
 F          1.6440052491        4.5117707033       -1.7809760304
 H         -6.4388072215        0.0855049134       -0.6191761867
 H         -5.0872601637        1.1063626254       -1.1181836696
 H         -4.9270567724       -1.1387604290       -2.1668777137
 H         -4.5384370253       -3.1283625959       -0.7329413775
 H         -6.1194527836       -2.4126841997       -0.3984691892
 H         -4.9283375654       -2.9559418856        1.7130583814
 H         -6.4397608983       -0.9827993730        1.6615607994
 H         -5.0890223163       -0.7131232731        2.7662745636
 H         -5.4642808151        1.2782243411        1.3302755178
 H         -3.1527558551        0.7417759374        2.0576407473
 H         -3.1521237906        1.4929805972        0.4544194655
 H         -2.6080301912       -1.6750475853       -1.4297424082
 H         -2.8299886689        0.0710621126       -1.5999233774
 H         -2.8310209177       -1.7468820990        2.2805825919
 H         -2.6089292426       -2.7337503458        0.8306848297
 H         -0.9656763061        0.4633235652        0.9417611938
 H          5.3604680027       -0.0493962683        0.7241453223
 H          5.9939236752       -2.2222957364       -0.2480947907
 H          4.3109375658       -3.8316562985       -0.9797862355
 H          1.8807251400       -3.3268107556       -0.7613061225
 H          4.1326258808        1.6868744230        1.8127453786
 H          2.5029742241        2.1603884956        2.3519933516
 H          2.0034190783        3.0341424599        0.0863140909
 H          3.3400935314        3.8898761938        0.8574222821
 H          3.6448159236        1.6666384519       -1.2186566500
 H          4.9712960991        2.5221449446       -0.4307808509
 H          4.1453315648        4.6723182717       -1.4248131499
 H          4.6416041077        3.4703827517       -2.6227450537
 H          2.6314440648        4.3764331231       -3.4916637635
 H          2.1031722092        2.8346681457       -2.7458073970
  58
        -82.23566190
 C         -5.3679151999        0.2681643633       -0.3754683236
 C         -4.6689374510       -0.9214796477       -1.0324079971
 C         -5.0685136152       -2.2104226457       -0.3162936631
 C         -4.6553453453       -2.1229172772        1.1519083866
 C         -5.3543732893       -0.9346894903        1.8114001082
 C         -4.9521264476        0.3521664763        1.0924640813
 C         -3.4372752135        0.5376589098        1.1851748325
 C         -2.7355857939       -0.6506000882        0.5273693120
 C         -3.1554314612       -0.7382345049       -0.9443443103
 C         -3.1417325150       -1.9426368728        1.2451837076
 N         -1.2964429567       -0.4483312527        0.6280737438
 C         -0.3498238873       -1.2883804325        0.1598820595
 O         -0.5688481425       -2.3382568684       -0.4204053965
 C          1.0187921158       -0.7972433275        0.4167079502
 N          1.2588393385        0.3454082356        1.0360892150
 N          2.5807241602        0.5067749782        1.1122679276
 C          3.2402231737       -0.5291695066        0.5243209868
 C          4.5974024744       -0.7951919171        0.3552715362
 C          4.9275930692       -1.9645708936       -0.2888792505
 C          3.9497784661       -2.8547674910       -0.7572952832
 C          2.6093013895       -2.6026296466       -0.5941178828
 C          2.2468342654       -1.4219823870        0.0554018615
 C          3.1429238265        1.7074016612        1.6620826984
 C          3.4922187514        2.7172272182        0.5622811590
 C          2.2358640592        3.2326092984       -0.1378738402
 C          2.5368072719        4.2200319660       -1.2629897221
 C          3.1751394439        3.5508559196       -2.4729409564
 F          3.3017409030        4.4599998319       -3.4964681857
 H         -6.4513311512        0.1496601794       -0.4467851014
 H         -5.0976640376        1.1917225851       -0.8927970253
 H         -4.9636167220       -0.9816540607       -2.0859371330
 H         -4.5759037479       -3.0625513055       -0.7880533835
 H         -6.1481588354       -2.3595281146       -0.3915787013
 H         -4.9404384002       -3.0463681120        1.6679788480
 H         -6.4376924157       -1.0640547570        1.7597337065
 H         -5.0744058851       -0.8755576163        2.8657912027
 H         -5.4491464849        1.2069979274        1.5657324608
 H         -3.1346362579        0.6091323074        2.2331097030
 H         -3.1441582338        1.4625258431        0.6815419970
 H         -2.6419291116       -1.5802052246       -1.4089676050
 H         -2.8523831905        0.1744667261       -1.4636576757
 H         -2.8286446511       -1.8910785512        2.2910221674
 H         -2.6282003084       -2.7831062926        0.7778113615
 H         -0.9608417233        0.3809616738        1.0944672771
 H          5.3561102794       -0.1161543106        0.7143759667
 H          5.9689253193       -2.2079495582       -0.4412998044
 H          4.2691506382       -3.7576884588       -1.2559410572
 H          1.8449185564       -3.2763571377       -0.9454806817
 H          4.0387650562        1.4449476774        2.2319898353
 H          2.3993343249        2.1330840837        2.3397164744
 H          4.0322688504        3.5522716234        1.0117744764
 H          4.1522461241        2.2320157231       -0.1583591370
 H          1.6042200424        3.7286130019        0.6020312269
 H          1.6701188369        2.3890909263       -0.5387010099
 H          1.6061863560        4.6867071528       -1.5925014684
 H          3.1970600421        5.0114002079       -0.9021123131
 H          4.1843275002        3.1834681948       -2.2637059833
 H          2.5521564073        2.7341047300       -2.8529642906
  58
        -82.23565442
 C         -5.5041190391       -1.3859187623        1.5817195600
 C         -5.1924500075       -0.1462865441        0.7445472215
 C         -5.6347508670       -0.3808887050       -0.6990848059
 C         -4.8828799866       -1.5825560240       -1.2701203100
 C         -5.1917357024       -2.8243651755       -0.4356004367
 C         -4.7523465108       -2.5864062108        1.0080978093
 C         -3.2500398126       -2.3148304172        1.0449794222
 C         -2.9345454019       -1.0697004985        0.2082918917
 C         -3.6891925923        0.1304116135        0.7803919642
 C         -3.3808962513       -1.3085712318       -1.2386736720
 N         -1.5076238380       -0.7808544490        0.2536543706
 C         -0.5250524609       -1.6057558593       -0.1643937404
 O         -0.6972207795       -2.7139394969       -0.6438219434
 C          0.8191382334       -1.0227630762        0.0172617534
 N          1.0098140995        0.1812043731        0.5279930494
 N          2.3224954557        0.4111394675        0.5699377382
 C          3.0258112728       -0.6417267560        0.0697800296
 C          4.3927195313       -0.8591015865       -0.0897477189
 C          4.7732445677       -2.0658252249       -0.6285583503
 C          3.8351742219       -3.0393523962       -1.0028904805
 C          2.4855202410       -2.8357026613       -0.8476886728
 C          2.0723252920       -1.6189893052       -0.3037482019
 C          2.8309553189        1.6758977196        1.0185033078
 C          3.1381679029        2.6075056105       -0.1583686747
 C          3.6865748091        3.9474556034        0.3207581549
 C          3.9809074822        4.8880717744       -0.8466072118
 C          4.4902649806        6.2392123768       -0.3666387015
 F          3.5158495628        6.8912170210        0.3513769752
 H         -6.5790887622       -1.5792615291        1.5703850180
 H         -5.2049880508       -1.2197018978        2.6192615287
 H         -5.7275245862        0.7175786072        1.1558544350
 H         -5.4295195767        0.5076691845       -1.3007222798
 H         -6.7108919373       -0.5651555153       -0.7309518299
 H         -5.1967462205       -1.7506431395       -2.3063440978
 H         -6.2624123868       -3.0392573108       -0.4689682226
 H         -4.6611448226       -3.6856535856       -0.8455135340
 H         -4.9723958375       -3.4758369900        1.6089025089
 H         -2.6991820926       -3.1629920901        0.6379329039
 H         -2.9177250095       -2.1549366918        2.0737918514
 H         -3.4610363092        1.0227704866        0.1918335553
 H         -3.3683708865        0.3096199724        1.8098167436
 H         -2.8298319362       -2.1580241692       -1.6427246327
 H         -3.1421475582       -0.4293089896       -1.8423084600
 H         -1.2097865159        0.1067959723        0.6294222892
 H          5.1211733570       -0.1158886885        0.1976248296
 H          5.8238852700       -2.2741709889       -0.7692393823
 H          4.1931887408       -3.9684476342       -1.4208543829
 H          1.7513205160       -3.5735079930       -1.1274513941
 H          3.7356607091        1.5031810710        1.6092761472
 H          2.0682068100        2.1240538906        1.6592423904
 H          3.8634567904        2.1255353412       -0.8181655354
 H          2.2210893227        2.7655210277       -0.7292097980
 H          4.6034005548        3.7827565701        0.8922948736
 H          2.9606018595        4.4227413110        0.9830278369
 H          4.7361541958        4.4519059321       -1.5024293434
 H          3.0704879704        5.0433675424       -1.4284543204
 H          5.3501805120        6.1322712121        0.3028894973
 H          4.7483032778        6.8931693997       -1.2057544045
  58
        -82.23565227
 C         -5.5713457153       -0.4699280999        1.1874001921
 C         -5.2609887918       -0.1145130156       -0.2658944619
 C         -5.6455069756       -1.2843816643       -1.1704882347
 C         -4.8437341334       -2.5211996269       -0.7669773099
 C         -5.1510043203       -2.8798489319        0.6859119172
 C         -4.7695688968       -1.7075957730        1.5882800599
 C         -3.2768209910       -1.4190392509        1.4449823081
 C         -2.9629172024       -1.0592565200       -0.0117144675
 C         -3.7673413997        0.1770858265       -0.4134761156
 C         -3.3511814174       -2.2346841262       -0.9160098932
 N         -1.5460375895       -0.7560431326       -0.1612455174
 C         -0.5297865632       -1.6052692706        0.0972108421
 O         -0.6582422607       -2.7486117895        0.5020081614
 C          0.7927648948       -1.0033040476       -0.1634181668
 N          0.9390450174        0.2374223428       -0.5948388702
 N          2.2427841414        0.4738206981       -0.7438528558
 C          2.9859475229       -0.6129485649       -0.3973312204
 C          4.3608154223       -0.8383991124       -0.3880871063
 C          4.7857077505       -2.0822294041        0.0163947472
 C          3.8834241104       -3.0843314583        0.4030963252
 C          2.5260585963       -2.8730672558        0.3946719868
 C          2.0682247395       -1.6189792597       -0.0110891874
 C          2.7138865235        1.7696698053       -1.1416824428
 C          3.1640107443        2.5994110205        0.0650739168
 C          3.6904243797        3.9651176518       -0.3635492009
 C          4.1350374880        4.8014962948        0.8351809492
 C          4.6295453636        6.1764466944        0.4105654332
 F          3.6037198585        6.9047809249       -0.1437598764
 H         -6.6400339117       -0.6654716733        1.3002518631
 H         -5.3139357793        0.3683166963        1.8390821503
 H         -5.8319076923        0.7754389948       -0.5553643184
 H         -5.4412173135       -1.0315755125       -2.2135448507
 H         -6.7148953560       -1.4871187798       -1.0787451941
 H         -5.1159638020       -3.3605256064       -1.4165287853
 H         -6.2140617474       -3.1059988902        0.7974794135
 H         -4.5845359133       -3.7670782703        0.9745503916
 H         -4.9886043736       -1.9623307120        2.6311789411
 H         -2.6905741497       -2.2938018218        1.7270961755
 H         -2.9857871151       -0.5898570295        2.0947561071
 H         -3.5407824535        0.4423957142       -1.4493620985
 H         -3.4881156596        1.0203880596        0.2234243984
 H         -2.7649474771       -3.1085108384       -0.6308830362
 H         -3.1130385040       -1.9886256489       -1.9539046890
 H         -1.2839628548        0.1597828048       -0.4934608935
 H          5.0617521514       -0.0734001486       -0.6866363811
 H          5.8439900177       -2.2980917759        0.0382515463
 H          4.2756177606       -4.0419601615        0.7116306819
 H          1.8186592016       -3.6324310986        0.6856583783
 H          1.8900902459        2.2716511953       -1.6539532265
 H          3.5447614941        1.6432928121       -1.8426606155
 H          2.3163761214        2.7244133553        0.7416336378
 H          3.9436266591        2.0555541472        0.6036898173
 H          2.9090404390        4.5051924186       -0.9014346310
 H          4.5349503895        3.8325252266       -1.0444692341
 H          3.2970537857        4.9273937801        1.5232251796
 H          4.9431766144        4.2979804090        1.3682891091
 H          4.9947072526        6.7543677928        1.2655542121
 H          5.4096637085        6.1066042775       -0.3547436331
  58
        -82.23564999
 C         -5.2781684677        0.2909050424       -0.5888315242
 C         -4.5810309279       -0.9514697915       -1.1419222857
 C         -5.0143065664       -2.1805491369       -0.3446968377
 C         -4.6333373260       -1.9923744273        1.1227878626
 C         -5.3309867733       -0.7514103589        1.6784462202
 C         -4.8948122969        0.4753840022        0.8787499227
 C         -3.3801773528        0.6488966113        0.9938176239
 C         -2.6800207420       -0.5920268895        0.4398374238
 C         -3.0676289046       -0.7805603515       -1.0314145168
 C         -3.1199380717       -1.8240284798        1.2387034714
 N         -1.2413307465       -0.4004896932        0.5600127163
 C         -0.2950525988       -1.2820627249        0.1763533039
 O         -0.5134031247       -2.3749931279       -0.3196935831
 C          1.0727467680       -0.7793225567        0.4135693728
 N          1.3089981836        0.4079846341        0.9425608041
 N          2.6293460528        0.5751065524        1.0196221546
 C          3.2940287248       -0.5058253409        0.5263002833
 C          4.6517675783       -0.7900593334        0.3910754798
 C          4.9846681202       -2.0075868278       -0.1541438812
 C          4.0092918316       -2.9308949391       -0.5593417437
 C          2.6684872707       -2.6623779104       -0.4303222690
 C          2.3033420254       -1.4327571151        0.1191305397
 C          3.1659123366        1.8249579148        1.4829831751
 C          3.0133251116        2.9198006251        0.4224509900
 C          3.8330177940        2.6207181320       -0.8309362589
 C          3.6687803627        3.6864554327       -1.9151417437
 C          2.2680610743        3.7384668352       -2.5120905429
 F          1.3961133455        4.4088460800       -1.6853508506
 H         -6.3612958333        0.1809771641       -0.6774416257
 H         -4.9829475358        1.1714050118       -1.1642716057
 H         -4.8527195247       -1.0840039219       -2.1951426427
 H         -4.5228131157       -3.0704031449       -0.7423083657
 H         -6.0939714572       -2.3217288151       -0.4345732203
 H         -4.9427744335       -2.8728335024        1.6968785116
 H         -6.4145723612       -0.8712931237        1.6105633053
 H         -5.0742895867       -0.6197935403        2.7322042328
 H         -5.3907925883        1.3679904937        1.2773856881
 H         -3.1004315749        0.7919156164        2.0406971365
 H         -3.0629528238        1.5315493801        0.4326269304
 H         -2.5551261533       -1.6600152122       -1.4220870698
 H         -2.7405350988        0.0888774853       -1.6072813045
 H         -2.8301820059       -1.7007416947        2.2852356314
 H         -2.6072656259       -2.7021459041        0.8454552531
 H         -0.9048267606        0.4673109029        0.9498510541
 H          5.4115116022       -0.0873806136        0.6987280922
 H          6.0269062696       -2.2643358823       -0.2758237610
 H          4.3307556608       -3.8718354766       -0.9804735286
 H          1.9048125235       -3.3594715238       -0.7346169565
 H          4.2174359905        1.6738646537        1.7358624396
 H          2.6191346161        2.1147770094        2.3847482945
 H          1.9564561870        2.9995794565        0.1688929688
 H          3.3311223718        3.8716988289        0.8508804538
 H          3.5387122635        1.6512687986       -1.2404693169
 H          4.8906181722        2.5588531045       -0.5622218676
 H          3.9070944211        4.6707924401       -1.5071577295
 H          4.3662680040        3.4770221974       -2.7278470096
 H          2.2639539937        4.2855044689       -3.4604310727
 H          1.8525432739        2.7361300745       -2.6587376622
  58
        -82.23563935
 C         -5.1228241328       -2.3826046237        0.6777093286
 C         -4.7363370447       -1.0372959173        1.2897638118
 C         -5.5196025385        0.0820431166        0.6049423702
 C         -5.1922110165        0.0892253967       -0.8875593175
 C         -5.5817353076       -1.2543125383       -1.5022333523
 C         -4.7978964138       -2.3718308967       -0.8150633712
 C         -3.3007276030       -2.1412594434       -1.0090977450
 C         -2.9078194145       -0.7926048071       -0.3958673173
 C         -3.2391460215       -0.8037090859        1.1009100279
 C         -3.6940500997        0.3249684245       -1.0813749074
 N         -1.4863852987       -0.5430214713       -0.5934783144
 C         -0.4806504780       -1.3135066586       -0.1295862600
 O         -0.6224431578       -2.3410762086        0.5115207341
 C          0.8498326317       -0.7742372668       -0.4756917287
 N          1.0070182586        0.3466210319       -1.1568769330
 N          2.3151658028        0.5666011977       -1.3000267955
 C          3.0496468329       -0.4097722540       -0.6986417498
 C          4.4236773112       -0.6088184365       -0.5776717076
 C          4.8353252218       -1.7300749535        0.1035991920
 C          3.9216852135       -2.6401163332        0.6557909620
 C          2.5654802710       -2.4550674700        0.5415999616
 C          2.1211133911       -1.3240654861       -0.1443619191
 C          2.7740213414        1.7657779968       -1.9432042087
 C          2.6490586688        2.9817677893       -1.0184986684
 C          3.5436245801        2.8681044807        0.2137441572
 C          3.3806771420        4.0740124485        1.1340284038
 C          4.2561330310        3.9445853489        2.3718335182
 F          4.1023142008        5.0449841566        3.1802556583
 H         -6.1894089422       -2.5669962518        0.8258729515
 H         -4.5696004751       -3.1844566269        1.1700114582
 H         -4.9677673803       -1.0422891677        2.3606690467
 H         -5.2579831991        1.0456213351        1.0485018919
 H         -6.5914482924       -0.0718257675        0.7477757611
 H         -5.7500689310        0.8935397439       -1.3811344665
 H         -6.6540949103       -1.4206611343       -1.3782905890
 H         -5.3652489491       -1.2509117475       -2.5730963774
 H         -5.0738547974       -3.3358366819       -1.2565425019
 H         -3.0504200408       -2.1434297868       -2.0729359529
 H         -2.7271707935       -2.9310052078       -0.5235035850
 H         -2.9442778692        0.1502025641        1.5455325897
 H         -2.6660374746       -1.5954390755        1.5839051602
 H         -3.4547990725        0.3418629591       -2.1478071539
 H         -3.4109934133        1.2899927622       -0.6529466030
 H         -1.2115496323        0.2795864346       -1.1089307585
 H          5.1363586006        0.0845165847       -0.9981797030
 H          5.8925848645       -1.9189951749        0.2191371136
 H          4.3039041862       -3.5032388238        1.1800029866
 H          1.8483036090       -3.1436470836        0.9577440622
 H          2.1624283854        1.9247467108       -2.8358674018
 H          3.8130697370        1.6180069800       -2.2444709510
 H          2.9112621947        3.8777082245       -1.5834692593
 H          1.6071202524        3.0695659571       -0.7054925191
 H          4.5877556542        2.7890991316       -0.0987387402
 H          3.2922053661        1.9594417206        0.7653374150
 H          3.6516534581        4.9896131727        0.6040764459
 H          2.3389699974        4.1646401422        1.4480767967
 H          3.9786793185        3.0715666526        2.9717962003
 H          5.3187315659        3.8936007279        2.1114844750
  58
        -82.23563839
 C         -5.3445593471       -1.4880250098       -1.3554398192
 C         -4.6514449628       -2.3697932199       -0.3173790666
 C         -5.0570149259       -1.9241434917        1.0865239443
 C         -4.6428686025       -0.4685316082        1.2951093926
 C         -5.3357283846        0.4155779415        0.2589115790
 C         -4.9277748231       -0.0333710594       -1.1435140194
 C         -3.4120458946        0.0921341295       -1.2999877906
 C         -2.7163678119       -0.7903126820       -0.2634700530
 C         -3.1369485639       -2.2493478531       -0.4725274404
 C         -3.1284696914       -0.3435165200        1.1438580300
 N         -1.2763272688       -0.6504197407       -0.4329550813
 C         -0.3331542679       -1.2751644131        0.3026613756
 O         -0.5562038621       -2.0511795160        1.2163386304
 C          1.0371147957       -0.9104038361       -0.1092804515
 N          1.2796474926       -0.0607792797       -1.0922257957
 N          2.6018355853        0.0645023718       -1.2163946512
 C          3.2589930746       -0.6949651162       -0.2970446378
 C          4.6154093222       -0.8810597092       -0.0389122282
 C          4.9431225324       -1.7461131114        0.9787665894
 C          3.9634683108       -2.4150645830        1.7277317860
 C          2.6236540789       -2.2393432619        1.4804958884
 C          2.2637402856       -1.3655873234        0.4537713350
 C          3.1651325052        0.9960008976       -2.1517354886
 C          3.4804669912        2.3393098861       -1.4826469394
 C          2.2032449169        3.0535486029       -1.0433492707
 C          2.4683984880        4.3817993406       -0.3384684815
 C          3.0730417243        4.1976999370        1.0470726447
 F          3.1674340088        5.4142080132        1.6806141464
 H         -6.4285650308       -1.5799886509       -1.2583260675
 H         -5.0702362842       -1.8113469039       -2.3623333092
 H         -4.9470331134       -3.4137258202       -0.4696097900
 H         -4.5687779246       -2.5568287592        1.8299728526
 H         -6.1373968967       -2.0261245332        1.2125818124
 H         -4.9319894757       -0.1463094317        2.3015695755
 H         -6.4196417610        0.3409929537        0.3704594676
 H         -5.0547752608        1.4601936406        0.4123010710
 H         -5.4204804145        0.6013642337       -1.8892314314
 H         -3.1085075073        1.1329051957       -1.1599535863
 H         -3.1148242656       -0.2176277705       -2.3052529109
 H         -2.6275789071       -2.8729135907        0.2624705126
 H         -2.8295113080       -2.5770139026       -1.4688032370
 H         -2.8149423256        0.6913530532        1.3030275155
 H         -2.6193029027       -0.9696045358        1.8768310011
 H         -0.9370270204       -0.0404027537       -1.1614401291
 H          5.3755469816       -0.3711711415       -0.6115588916
 H          5.9837949190       -1.9179608087        1.2116484606
 H          4.2808912913       -3.0826368701        2.5147951777
 H          1.8579390431       -2.7462321429        2.0447616411
 H          2.4334254235        1.1379713616       -2.9504063605
 H          4.0755434291        0.5604085865       -2.5727705289
 H          4.1246758308        2.1557789035       -0.6213700168
 H          4.0270369537        2.9642861582       -2.1909208899
 H          1.6301949909        2.4008990346       -0.3815866180
 H          1.5902391793        3.2436898847       -1.9268253763
 H          3.1365566367        5.0006012035       -0.9410423461
 H          1.5271898301        4.9231178203       -0.2220883601
 H          2.4413883373        3.5628373192        1.6776273291
 H          4.0888155806        3.7927199242        1.0095952651
  58
        -82.23559398
 C         -5.4226970797       -1.5198035489        1.5548523545
 C         -5.0995532699       -0.1163709127        1.0442949485
 C         -5.5576990938        0.0167839382       -0.4073094934
 C         -4.8289403030       -1.0169402714       -1.2650781469
 C         -5.1493566047       -2.4218625242       -0.7576821062
 C         -4.6939728196       -2.5516632778        0.6948276377
 C         -3.1874875017       -2.3162816583        0.7792952398
 C         -2.8605073085       -0.9076803076        0.2705426345
 C         -3.5920676478        0.1242492759        1.1290448696
 C         -3.3227888718       -0.7779357596       -1.1853344554
 N         -1.4292301131       -0.6564484320        0.3682652116
 C         -0.4621432515       -1.3660593013       -0.2497867212
 O         -0.6539478961       -2.3218397071       -0.9828761737
 C          0.8910259879       -0.8595984553        0.0530052633
 N          1.0999222416        0.1869893131        0.8321127248
 N          2.4152350249        0.3897390632        0.9138330546
 C          3.1030005336       -0.5244960484        0.1757490988
 C          4.4657935747       -0.7177555155       -0.0439825532
 C          4.8257854060       -1.7673843262       -0.8557861765
 C          3.8722895632       -2.6133010347       -1.4417223526
 C          2.5270614816       -2.4346384076       -1.2300251555
 C          2.1346601052       -1.3759987601       -0.4099803054
 C          2.9240843013        1.5110910826        1.6539637774
 C          2.8162317338        2.8159545918        0.8580732408
 C          3.7025871845        2.8099630318       -0.3856720975
 C          3.5505730634        4.0768809914       -1.2287672587
 C          4.0927845847        5.3320467833       -0.5580103049
 F          3.2457073774        5.7840326320        0.4273291013
 H         -6.5005254321       -1.6910008321        1.5092890953
 H         -5.1122202292       -1.6175410576        2.5977668875
 H         -5.6180289468        0.6264652151        1.6616479219
 H         -5.3441612829        1.0233660692       -0.7745165262
 H         -6.6367447476       -0.1404500482       -0.4706136252
 H         -5.1542182567       -0.9211489610       -2.3069969365
 H         -6.2234177188       -2.6085247472       -0.8299226964
 H         -4.6354052710       -3.1625324669       -1.3730551977
 H         -4.9222455246       -3.5587056510        1.0612301322
 H         -2.6529215093       -3.0451496618        0.1697666064
 H         -2.8440131635       -2.4183970136        1.8117864348
 H         -3.3555401213        1.1310565803        0.7752621220
 H         -3.2596841827        0.0407929612        2.1669725994
 H         -2.7880325696       -1.5088585871       -1.7922648712
 H         -3.0760850584        0.2197060974       -1.5573015908
 H         -1.1151140495        0.1096588737        0.9448394345
 H          5.2085561675       -0.0733985858        0.4015014647
 H          5.8726721394       -1.9493191315       -1.0505119614
 H          4.2146220591       -3.4215065930       -2.0707385671
 H          1.7800368975       -3.0755726174       -1.6692067548
 H          3.9644886904        1.3060159485        1.9158788841
 H          2.3357199145        1.5986812591        2.5713822579
 H          1.7750281900        2.9551489614        0.5613788968
 H          3.0920885673        3.6410539483        1.5138181336
 H          3.4410894349        1.9518332736       -1.0089647440
 H          4.7493176973        2.6992192763       -0.0904862328
 H          4.0929630063        3.9478361679       -2.1669496948
 H          2.4969870792        4.2368669247       -1.4650402270
 H          5.0597345696        5.1491151247       -0.0775937605
 H          4.1849933183        6.1527154788       -1.2768506517
  58
        -82.23559096
 C         -5.1019855472       -2.5899335493        0.6030371489
 C         -4.7188082067       -1.3616768200        1.4267112658
 C         -5.5158092980       -0.1508235736        0.9429074045
 C         -5.2014748142        0.1065818281       -0.5300879622
 C         -5.5877386531       -1.1194539274       -1.3561225855
 C         -4.7906612916       -2.3291583218       -0.8697292525
 C         -3.2969961189       -2.0575165663       -1.0341052799
 C         -2.9068684181       -0.8260428375       -0.2087198660
 C         -3.2248688120       -1.0878256503        1.2678983409
 C         -3.7066641019        0.3833037869       -0.6933307958
 N         -1.4889266059       -0.5375437716       -0.3750861704
 C         -0.4754963822       -1.3733847789       -0.0665491193
 O         -0.6075554608       -2.4912989348        0.4031765513
 C          0.8484190089       -0.7905032655       -0.3609062003
 N          0.9970114088        0.4314591928       -0.8412243039
 N          2.3004844210        0.6581482019       -1.0074853661
 C          3.0417058807       -0.4194807441       -0.6293014939
 C          4.4151224133       -0.6574904231       -0.6245530590
 C          4.8351398290       -1.8880061804       -0.1776022525
 C          3.9303717423       -2.8684582984        0.2561985567
 C          2.5749304127       -2.6468246269        0.2525064322
 C          2.1220679520       -1.4057018227       -0.1965182750
 C          2.7537784672        1.9428967332       -1.4636180417
 C          2.7871094667        2.9732850507       -0.3299575385
 C          3.8194545499        2.6242715528        0.7401528920
 C          3.8181914531        3.6093036891        1.9101315464
 C          4.3229953258        4.9992950458        1.5459953369
 F          3.3819186902        5.7085474254        0.8360559260
 H         -6.1659692040       -2.8049419123        0.7269881127
 H         -4.5389536876       -3.4578420925        0.9510745341
 H         -4.9408562270       -1.5460779648        2.4837170665
 H         -5.2571133630        0.7280151955        1.5381796612
 H         -6.5853124549       -0.3352934104        1.0661739560
 H         -5.7690187168        0.9771195590       -0.8790945743
 H         -6.6579286613       -1.3124658317       -1.2535508577
 H         -5.3804938448       -0.9369524231       -2.4131699647
 H         -5.0641004934       -3.2088908870       -1.4628385091
 H         -3.0560080024       -1.8812633072       -2.0854288417
 H         -2.7140497981       -2.9123123591       -0.6906787013
 H         -2.9326187726       -0.2183688691        1.8621370174
 H         -2.6418982654       -1.9438687867        1.6083688784
 H         -3.4769935449        0.5787367352       -1.7439381158
 H         -3.4262362881        1.2661919884       -0.1131315080
 H         -1.2230429979        0.3589487777       -0.7540211085
 H          5.1206789926        0.0890021943       -0.9565127463
 H          5.8921132452       -2.1103867086       -0.1590160710
 H          4.3189344715       -3.8166060550        0.5968908770
 H          1.8643886533       -3.3885942320        0.5790336997
 H          2.0618383805        2.2823254747       -2.2390399962
 H          3.7473886682        1.8213511785       -1.9008489869
 H          3.0065584428        3.9492516085       -0.7615095962
 H          1.7954977204        3.0210978437        0.1238561776
 H          4.8170934626        2.5997491376        0.2938164833
 H          3.6069415949        1.6274176050        1.1330442347
 H          2.8076244273        3.7009261557        2.3125157543
 H          4.4647868861        3.2243571926        2.7006262128
 H          4.5310255706        5.5892573751        2.4444969374
 H          5.2182124092        4.9533630189        0.9168401513
  58
        -82.23558091
 C         -5.5020180733       -0.1293137687       -0.6556959864
 C         -4.7481163488       -1.3810427398       -1.1032065244
 C         -5.1158615858       -2.5532451000       -0.1951145233
 C         -4.7354900358       -2.2162813889        1.2456477169
 C         -5.4896897267       -0.9657048157        1.6958790769
 C         -5.1191389075        0.2041606105        0.7854877714
 C         -3.6141229569        0.4601108584        0.8686859642
 C         -2.8572383867       -0.7900736018        0.4200430768
 C         -3.2442150444       -1.1282374463       -1.0243106974
 C         -3.2315021133       -1.9653531743        1.3301892495
 N         -1.4289258415       -0.5194150342        0.5075781490
 C         -0.4430053298       -1.3859270999        0.1946400309
 O         -0.6120766013       -2.5264279194       -0.2033400139
 C          0.9003749419       -0.8030346255        0.3814279167
 N          1.0836819975        0.4379934056        0.7962285985
 N          2.3957979885        0.6654516933        0.8634876282
 C          3.1075013506       -0.4304140480        0.4813069307
 C          4.4769316193       -0.6727305110        0.3874870945
 C          4.8633803660       -1.9227452215       -0.0350152124
 C          3.9294992127       -2.9180820766       -0.3593528683
 C          2.5778536794       -2.6917400120       -0.2685850293
 C          2.1586761237       -1.4307930495        0.1573813295
 C          2.8799614441        1.9684999384        1.2266262574
 C          2.7830287134        2.9554951668        0.0587669304
 C          3.6980453860        2.5693205569       -1.1014964187
 C          3.5437024818        3.4922008099       -2.3111382559
 C          4.0397529383        4.9118031705       -2.0704793469
 F          3.1556501637        5.6314175326       -1.3002962311
 H         -6.5789494093       -0.2990146390       -0.7225884349
 H         -5.2541952024        0.7093666941       -1.3105723313
 H         -5.0194546029       -1.6202205379       -2.1375102717
 H         -4.5838206029       -3.4503299277       -0.5170040540
 H         -6.1878240632       -2.7537748072       -0.2607144686
 H         -4.9978676223       -3.0556714390        1.8991728213
 H         -6.5664834329       -1.1432301499        1.6503689339
 H         -5.2332322955       -0.7280050454        2.7309385387
 H         -5.6558120028        1.1039028107        1.1082511539
 H         -3.3352726644        0.7097080056        1.8956593502
 H         -3.3441333314        1.3033048598        0.2276569306
 H         -2.6916713155       -2.0134500680       -1.3400505905
 H         -2.9632360182       -0.2995744356       -1.6791960905
 H         -2.9416545923       -1.7351158360        2.3584632528
 H         -2.6788447708       -2.8493033382        1.0112525717
 H         -1.1321601380        0.3918813191        0.8231141655
 H          5.2047849184        0.0854149792        0.6341429298
 H          5.9162100151       -2.1489150567       -0.1210247321
 H          4.2923315110       -3.8813779132       -0.6856348395
 H          1.8455664241       -3.4444250274       -0.5113897874
 H          3.9148824301        1.8690185920        1.5611536447
 H          2.2695915663        2.3319701415        2.0578585323
 H          1.7481812225        2.9799891565       -0.2875345415
 H          3.0381314470        3.9487627915        0.4264401246
 H          3.4652724200        1.5501802013       -1.4185391346
 H          4.7393576355        2.5838646002       -0.7691174262
 H          4.1150392709        3.0836449724       -3.1463901881
 H          2.4940443959        3.5367042521       -2.6074033654
 H          4.9966276965        4.9219424536       -1.5379986127
 H          4.1340365808        5.4598491703       -3.0136114929
  58
        -82.23556961
 C         -5.2952603552       -1.2161584664       -1.2938533880
 C         -4.6109401600       -2.1957135529       -0.3411242454
 C         -4.9793671371       -1.8500537664        1.1007131651
 C         -4.5188704331       -0.4274673499        1.4138666584
 C         -5.2024284744        0.5543566923        0.4629899165
 C         -4.8318337082        0.2051099759       -0.9776771334
 C         -3.3160238824        0.2996590599       -1.1531475666
 C         -2.6293641677       -0.6805167363       -0.2019723512
 C         -3.0963955277       -2.1062819522       -0.5155528168
 C         -3.0042998732       -0.3337329937        1.2436118325
 N         -1.1893059395       -0.5685705484       -0.3876939384
 C         -0.2518818479       -1.2741341153        0.2781535766
 O         -0.4805741099       -2.1239297299        1.1228561791
 C          1.1203968704       -0.8986402796       -0.1169329022
 N          1.3652077233        0.0281897422       -1.0256797720
 N          2.6868155441        0.1537644419       -1.1483657798
 C          3.3436100814       -0.6881813198       -0.3038747903
 C          4.6991211075       -0.9089159976       -0.0666113638
 C          5.0231411363       -1.8593835126        0.8725989783
 C          4.0411648508       -2.5816295507        1.5669817037
 C          2.7024010830       -2.3727276126        1.3419264592
 C          2.3461849171       -1.4120994390        0.3946732163
 C          3.2296368372        1.1663490838       -2.0117475759
 C          2.9818755142        2.5642616044       -1.4370744882
 C          3.7115037666        2.7730010600       -0.1116710347
 C          3.4186603740        4.1355448059        0.5175783880
 C          1.9761933964        4.2946029815        0.9818632395
 F          1.1387033599        4.5794492772       -0.0721445810
 H         -6.3797817780       -1.2849503822       -1.1833042699
 H         -5.0477716317       -1.4673089158       -2.3279212418
 H         -4.9399927593       -3.2158350705       -0.5682317063
 H         -4.4975370893       -2.5525543431        1.7832442551
 H         -6.0600674994       -1.9311037677        1.2391985495
 H         -4.7814680346       -0.1770749010        2.4478293473
 H         -6.2861303822        0.5023557840        0.5894363819
 H         -4.8874198824        1.5752341746        0.6913553460
 H         -5.3181596629        0.9099389422       -1.6620035518
 H         -2.9792419675        1.3172018348       -0.9390468391
 H         -3.0451557079        0.0610421634       -2.1848051034
 H         -2.5931083837       -2.7997237148        0.1585237405
 H         -2.8158763523       -2.3632241836       -1.5400684798
 H         -2.6578729683        0.6764879118        1.4760458312
 H         -2.5013318338       -1.0293190653        1.9158811705
 H         -0.8439368551        0.1061552240       -1.0539314573
 H          5.4641846243       -0.3591759419       -0.5940303011
 H          6.0634047953       -2.0585519107        1.0850308427
 H          4.3558078747       -3.3166158465        2.2927975147
 H          1.9337730322       -2.9180156508        1.8650694810
 H          2.7422858246        1.0830339404       -2.9876619232
 H          4.2985509149        0.9780226272       -2.1295154245
 H          3.3138024299        3.3090719282       -2.1619970211
 H          1.9080553922        2.6838876372       -1.2958489330
 H          4.7886397979        2.6888709297       -0.2766575662
 H          3.4233145237        1.9895594975        0.5936347535
 H          4.0621771823        4.2706367719        1.3884819427
 H          3.6415051404        4.9304123188       -0.1969690788
 H          1.5960780736        3.3779223941        1.4445073349
 H          1.8768173548        5.1325622354        1.6794113906
  58
        -82.23556430
 C         -5.3241892415       -1.4424346168        1.5806457271
 C         -4.9591715525       -0.0433692042        1.0866211638
 C         -5.4132132731        0.1206694297       -0.3630911743
 C         -4.7157341733       -0.9241421658       -1.2333102155
 C         -5.0781313720       -2.3247652150       -0.7425808959
 C         -4.6269066361       -2.4854653720        0.7081148736
 C         -3.1139990845       -2.2964955558        0.7947309211
 C         -2.7449976181       -0.8924009437        0.3025607682
 C         -3.4450626966        0.1508760572        1.1735069387
 C         -3.2030625130       -0.7312901900       -1.1513844042
 N         -1.3064828295       -0.6850846218        0.4024086302
 C         -0.3619597789       -1.4152949951       -0.2267579544
 O         -0.5837660456       -2.3489303143       -0.9790651190
 C          1.0074058800       -0.9610911378        0.0872219422
 N          1.2518986684        0.0533855246        0.8984797779
 N          2.5743387892        0.2094084239        0.9810681293
 C          3.2290798442       -0.6996771871        0.2073514232
 C          4.5846292908       -0.9219870061       -0.0256382887
 C          4.9097390524       -1.9544290347       -0.8740308781
 C          3.9285797197       -2.7523586345       -1.4810861596
 C          2.5897393590       -2.5428018880       -1.2561340952
 C          2.2324021802       -1.5007711454       -0.3996281423
 C          3.1406505538        1.2846126146        1.7440925217
 C          3.4997987471        2.4838515421        0.8577144368
 C          2.2501684418        3.1291093134        0.2603235171
 C          2.5650940880        4.1934764415       -0.7878805550
 C          3.2536241362        5.4144535896       -0.1931046763
 F          3.3805119417        6.3945971999       -1.1486003261
 H         -6.4066253216       -1.5805614432        1.5334450981
 H         -5.0168123791       -1.5618663766        2.6222392151
 H         -5.4550091868        0.7073124858        1.7130298771
 H         -5.1698239861        1.1246893614       -0.7185369981
 H         -6.4964277089       -0.0035248568       -0.4276625152
 H         -5.0378030930       -0.8062241205       -2.2738457069
 H         -6.1572537972       -2.4782698841       -0.8166523980
 H         -4.5866322647       -3.0731075075       -1.3668874614
 H         -4.8852519055       -3.4894166872        1.0626774248
 H         -2.6018030836       -3.0337850623        0.1761907047
 H         -2.7736300200       -2.4213411351        1.8257959455
 H         -3.1784141510        1.1541885787        0.8312389547
 H         -3.1154183309        0.0452043225        2.2103698879
 H         -2.6906485527       -1.4704530893       -1.7674044338
 H         -2.9266164895        0.2629175858       -1.5114162285
 H         -0.9693591243        0.0526121856        1.0023331343
 H          5.3458960344       -0.3135780335        0.4390396727
 H          5.9496469800       -2.1598726086       -1.0819978395
 H          4.2440197035       -3.5487485424       -2.1385008802
 H          1.8228305985       -3.1474777769       -1.7120481117
 H          4.0335936636        0.9163255620        2.2575200241
 H          2.3969205315        1.5801045673        2.4876087622
 H          4.0468964116        3.2061733993        1.4645100409
 H          4.1560200756        2.1456124268        0.0529777172
 H          1.6536804162        3.5711441955        1.0615645525
 H          1.6440035269        2.3524137752       -0.2096482841
 H          3.1989239863        3.7722051740       -1.5707585267
 H          1.6359257680        4.5255763788       -1.2555228934
 H          2.6647819929        5.8479276616        0.6226079962
 H          4.2669849989        5.1916197302        0.1542070312
  58
        -82.23556058
 C         -5.0681900247       -2.3717355274       -0.4887118744
 C         -4.6500432735       -2.3132790094        0.9795140707
 C         -5.3514595434       -1.1420310470        1.6663037264
 C         -4.9571462708        0.1612340494        0.9729955839
 C         -5.3779621742        0.1062570687       -0.4948693297
 C         -4.6764638391       -1.0664286762       -1.1790780777
 C         -3.1634049532       -0.8787654223       -1.0926553398
 C         -2.7385732674       -0.8202110054        0.3790556769
 C         -3.1368810416       -2.1286780151        1.0711481105
 C         -3.4427521948        0.3510827124        1.0641053413
 N         -1.2999320358       -0.6142505589        0.4791154208
 C         -0.3515482413       -1.4410444056       -0.0090220570
 O         -0.5688541845       -2.4785561698       -0.6116688742
 C          1.0160879201       -0.9528930076        0.2580462465
 N          1.2541910924        0.1735857722        0.9071737203
 N          2.5761298040        0.3347379319        0.9881052630
 C          3.2371936747       -0.6854004360        0.3748724053
 C          4.5947980796       -0.9460163421        0.2011827231
 C          4.9267513093       -2.0986442789       -0.4716665857
 C          3.9502530622       -2.9773926074       -0.9638850846
 C          2.6093521037       -2.7301563059       -0.7967484807
 C          2.2451422521       -1.5666940493       -0.1179128704
 C          3.1365062301        1.5142316181        1.5828684769
 C          3.4829858969        2.5726208477        0.5278679552
 C          2.2246348986        3.1209593278       -0.1436089992
 C          2.5234591728        4.0146481769       -1.3447015741
 C          3.2208302757        5.3096683594       -0.9508758687
 F          3.3325334976        6.1348267351       -2.0446941437
 H         -6.1475314896       -2.5236910443       -0.5632645258
 H         -4.5737846203       -3.2117308850       -0.9799922801
 H         -4.9294738701       -3.2485225340        1.4770911242
 H         -5.0678874663       -1.1038454020        2.7207080615
 H         -6.4344164238       -1.2747450972        1.6158637558
 H         -5.4559573763        1.0038842490        1.4658509956
 H         -6.4611455922       -0.0152779946       -0.5647390278
 H         -5.1134118905        1.0415716442       -0.9937064704
 H         -4.9747284586       -1.1057671229       -2.2325615413
 H         -2.8658690936        0.0457732853       -1.5938867598
 H         -2.6481502160       -1.7086803389       -1.5765832383
 H         -2.8201746817       -2.0978171340        2.1167356386
 H         -2.6216938618       -2.9570220612        0.5843715549
 H         -3.1552987930        1.2874651368        0.5788755292
 H         -3.1365915084        0.4019068281        2.1122223969
 H         -0.9660742762        0.2051154840        0.9638786139
 H          5.3524379041       -0.2753580551        0.5777161060
 H          5.9684737740       -2.3376759625       -0.6281656750
 H          4.2710033738       -3.8673131524       -1.4845669824
 H          1.8459172152       -3.3949955408       -1.1666488934
 H          4.0337733748        1.2307829586        2.1403412908
 H          2.3936604285        1.9113655584        2.2784735240
 H          4.0335323373        3.3769364415        1.0170625605
 H          4.1325092955        2.1217863123       -0.2255770928
 H          1.6383430149        3.6793827812        0.5896338667
 H          1.6134401264        2.2823065938       -0.4823308257
 H          3.1453497326        3.4789401094       -2.0646898321
 H          1.5871441789        4.2746111724       -1.8429346436
 H          2.6446120894        5.8620512798       -0.2006248539
 H          4.2395197678        5.1393123592       -0.5896252558
  58
        -82.23555249
 C         -5.5707065522       -1.8308626955        1.6761287850
 C         -5.3628649410       -0.3570328607        1.3304528386
 C         -5.8985983694       -0.0814652209       -0.0737839479
 C         -5.1480811485       -0.9510005239       -1.0817543265
 C         -5.3531020138       -2.4257561990       -0.7395838042
 C         -4.8205955956       -2.6984503062        0.6661510603
 C         -3.3298475775       -2.3713291589        0.7178851754
 C         -3.1182895554       -0.8923160216        0.3747305007
 C         -3.8714036905       -0.0245258445        1.3830855363
 C         -3.6580798859       -0.6197650615       -1.0338482907
 N         -1.7026067748       -0.5565191800        0.4451445258
 C         -0.7243316435       -1.1168349371       -0.2962712944
 O         -0.8920848926       -1.9816076676       -1.1396858152
 C          0.6094467339       -0.5666604564        0.0179489327
 N          0.7936045851        0.3840050687        0.9165214631
 N          2.0989336157        0.6541682386        0.9755185068
 C          2.8032398202       -0.1160112537        0.1001466397
 C          4.1635143205       -0.2008662683       -0.1928053120
 C          4.5424904205       -1.1119711943       -1.1503900404
 C          3.6108098705       -1.9292422538       -1.8073403182
 C          2.2692076774       -1.8612294435       -1.5211897720
 C          1.8578853060       -0.9425167084       -0.5547413489
 C          2.5705417001        1.7136781432        1.8227953848
 C          2.3244799169        3.0889849497        1.1888305553
 C          3.1263443618        3.3158170956       -0.0933972971
 C          4.6028962408        3.5953889991        0.1748689689
 C          5.3857324395        3.6843177934       -1.1268827438
 F          6.7134242674        3.9270933987       -0.8665473470
 H         -6.6363453990       -2.0693279674        1.6534086613
 H         -5.2043085536       -2.0321239932        2.6855582075
 H         -5.8969748754        0.2682962743        2.0554409730
 H         -5.7680258560        0.9744741311       -0.3220962271
 H         -6.9671148121       -0.3044020059       -0.1123907975
 H         -5.5289437031       -0.7527045129       -2.0898082166
 H         -6.4152797661       -2.6761475874       -0.7909223597
 H         -4.8236150590       -3.0492880785       -1.4622039214
 H         -4.9661413502       -3.7556795963        0.9140790019
 H         -2.7803240093       -2.9824993412        0.0016195705
 H         -2.9306841665       -2.5735911255        1.7149988972
 H         -3.7169142720        1.0315847542        1.1471369338
 H         -3.4845069863       -0.2095725366        2.3884958926
 H         -3.1080141388       -1.2331521412       -1.7477567917
 H         -3.4938006285        0.4302105966       -1.2891087002
 H         -1.4088635519        0.1459069091        1.1070788432
 H          4.8933909068        0.4168874074        0.3075218406
 H          5.5880857468       -1.2044226470       -1.4056100927
 H          3.9673428562       -2.6264465225       -2.5507921904
 H          1.5386765978       -2.4844152843       -2.0106522939
 H          3.6315875016        1.5537162706        2.0188121974
 H          2.0239822766        1.6531771211        2.7679948858
 H          1.2591189884        3.1619808356        0.9625688951
 H          2.5705366930        3.8614733309        1.9190045248
 H          2.7008002794        4.1658763761       -0.6305095713
 H          3.0308492878        2.4412665684       -0.7407254832
 H          4.7120391123        4.5346306092        0.7210484249
 H          5.0420017239        2.8052516245        0.7856259421
 H          5.3413841440        2.7437758503       -1.6866294596
 H          5.0328716630        4.5076267797       -1.7563749003
  58
        -82.23554738
 C         -5.2867203598       -2.5040837389       -0.4463621686
 C         -4.8251657216       -2.4989008990        1.0099762268
 C         -5.5982209985       -1.4355604371        1.7891353628
 C         -5.3378571416       -0.0638460476        1.1683816292
 C         -5.8023679809       -0.0658047211       -0.2872831365
 C         -5.0291162145       -1.1307512966       -1.0640491238
 C         -3.5349516160       -0.8200413593       -1.0096066543
 C         -3.0665651765       -0.8143404793        0.4500138580
 C         -3.3304918851       -2.1914822004        1.0694651265
 C         -3.8423833931        0.2488734444        1.2276399588
 N         -1.6474951274       -0.4934622330        0.5217523384
 C         -0.6514221644       -1.2054057031       -0.0450945870
 O         -0.8020197761       -2.2220149898       -0.7016618874
 C          0.6796487786       -0.6197413797        0.2109567817
 N          0.8486368313        0.4820719442        0.9196484871
 N          2.1552931640        0.7454319416        0.9756147705
 C          2.8764879601       -0.1838960729        0.2895363809
 C          4.2443873187       -0.3370849568        0.0692427506
 C          4.6412623427       -1.4180476729       -0.6822390792
 C          3.7194563916       -2.3360351456       -1.2065963228
 C          2.3699377791       -2.2005362064       -0.9899870626
 C          1.9408150616       -1.1106149230       -0.2318561978
 C          2.6142833689        1.9381300440        1.6318307315
 C          2.4143000952        3.1763424592        0.7483590008
 C          3.2799239841        3.1690413496       -0.5108159427
 C          4.7485158640        3.4845297106       -0.2287298787
 C          5.5789160376        3.4527101674       -1.5034111258
 F          5.1854302551        4.4549372830       -2.3576166443
 H         -6.3514771323       -2.7430325390       -0.4992470419
 H         -4.7409055341       -3.2675505877       -1.0036542425
 H         -5.0083813318       -3.4829704931        1.4554889531
 H         -5.2831310348       -1.4370736695        2.8352687761
 H         -6.6674309354       -1.6570688836        1.7615381156
 H         -5.8882196243        0.7017931750        1.7275515007
 H         -6.8734105642       -0.2749628312       -0.3334630613
 H         -5.6339011376        0.9171139540       -0.7335054338
 H         -5.3588679012       -1.1317197136       -2.1088792655
 H         -3.3327645761        0.1550471385       -1.4599238513
 H         -2.9689538836       -1.5722342091       -1.5594710653
 H         -2.9821893752       -2.1967596314        2.1054076091
 H         -2.7647419370       -2.9419079989        0.5169150457
 H         -3.6508783457        1.2340282996        0.7944577500
 H         -3.5059769671        0.2622453953        2.2676086097
 H         -1.3669121189        0.3265257378        1.0382385094
 H          4.9665189133        0.3581432001        0.4699462233
 H          5.6935181865       -1.5683015952       -0.8754198996
 H          4.0899412182       -3.1657556711       -1.7897978194
 H          1.6463093451       -2.8976466670       -1.3798972456
 H          3.6650589380        1.8063840328        1.8942746227
 H          2.0329432857        2.0562145173        2.5506173032
 H          1.3622086271        3.2090517512        0.4595667294
 H          2.6306742653        4.0674316102        1.3398939868
 H          2.8986410432        3.9184811101       -1.2066389593
 H          3.2030343133        2.1960102358       -1.0014881769
 H          4.8297996108        4.4767881075        0.2199166016
 H          5.1784334271        2.7613866757        0.4650555441
 H          6.6411602896        3.6207855248       -1.2971211273
 H          5.4465415938        2.5099610094       -2.0448652941
  58
        -82.23553046
 C         -5.1409351361       -2.5683637568        0.4740685032
 C         -4.7440017034       -1.4745472572        1.4639790113
 C         -5.5579824594       -0.2114073395        1.1858236038
 C         -5.2798698466        0.2667872156       -0.2385264253
 C         -5.6797937594       -0.8245471677       -1.2303715211
 C         -4.8658370460       -2.0870959392       -0.9495448142
 C         -3.3777629189       -1.7817162903       -1.1051723368
 C         -2.9738739778       -0.6847784335       -0.1133477313
 C         -3.2556027756       -1.1676558164        1.3140650339
 C         -3.7906656681        0.5770382980       -0.3923331841
 N         -1.5618277138       -0.3628839934       -0.2662812030
 C         -0.5364720083       -1.2255714799       -0.1038865856
 O         -0.6517075638       -2.3994949043        0.2066862311
 C          0.7757201087       -0.5941152433       -0.3425164146
 N          0.9025138152        0.6856850320       -0.6475729584
 N          2.2000612480        0.9508564893       -0.8000535334
 C          2.9588233893       -0.1606958552       -0.5979613428
 C          4.3339077917       -0.3829494448       -0.6602500932
 C          4.7747982659       -1.6578745965       -0.3945031178
 C          3.8891087718       -2.6989640340       -0.0788088240
 C          2.5319711228       -2.4954822213       -0.0260375898
 C          2.0582262249       -1.2096856663       -0.2896000809
 C          2.6367063884        2.2908624859       -1.0807063243
 C          2.2089536350        3.2664191738        0.0203545429
 C          2.6344925715        2.8379776137        1.4259187056
 C          4.1425400207        2.6743811905        1.6276323434
 C          4.9478484522        3.9280498694        1.3143969044
 F          5.1223112995        4.0804211828       -0.0437702163
 H         -6.2006734585       -2.8082228682        0.5884895411
 H         -4.5657640263       -3.4740251885        0.6748839897
 H         -4.9399802128       -1.8172935176        2.4860798764
 H         -5.2894003090        0.5702170163        1.9004231360
 H         -6.6233966568       -0.4210478162        1.3041776134
 H         -5.8596779918        1.1751711499       -0.4398327391
 H         -6.7463653121       -1.0394469254       -1.1337260334
 H         -5.4984712197       -0.4837152165       -2.2524103386
 H         -5.1493071631       -2.8699729164       -1.6617322227
 H         -3.1625148586       -1.4480052128       -2.1233898721
 H         -2.7827609259       -2.6734945047       -0.9070645938
 H         -2.9533289936       -0.3948299113        2.0253799715
 H         -2.6606965598       -2.0602109026        1.5087843754
 H         -3.5870065995        0.9299291278       -1.4066214696
 H         -3.5005044736        1.3649771858        0.3075951024
 H         -1.3095069331        0.5781653984       -0.5283908521
 H          5.0274950610        0.4039390205       -0.9180270122
 H          5.8336385245       -1.8686246467       -0.4324977461
 H          4.2938027692       -3.6801259821        0.1201837391
 H          1.8352607457       -3.2842063098        0.2069445569
 H          2.1987257650        2.6174864482       -2.0299757690
 H          3.7209173053        2.2831942441       -1.1876392613
 H          2.6236870954        4.2450938623       -0.2205002907
 H          1.1205280807        3.3448469428        0.0065541521
 H          2.1528791779        1.8888024188        1.6706135368
 H          2.2644127775        3.5832397622        2.1342053871
 H          4.3248488499        2.4153437891        2.6721018676
 H          4.5207712211        1.8540790296        1.0166514424
 H          4.4465683471        4.8342315995        1.6690958620
 H          5.9539893661        3.8681665492        1.7414225194
  58
        -82.23552730
 C         -5.0866398926       -2.3200743823       -0.5793092563
 C         -4.6643397558       -2.3913075722        0.8871829952
 C         -5.3734759932       -1.2934155369        1.6789872069
 C         -4.9916420465        0.0706159571        1.1060673439
 C         -5.4164960643        0.1456259515       -0.3597860926
 C         -4.7079718639       -0.9542935470       -1.1495189570
 C         -3.1961770767       -0.7629165681       -1.0501490014
 C         -2.7670067159       -0.8341020765        0.4199016676
 C         -3.1525062717       -2.2028510190        0.9919636488
 C         -3.4785218009        0.2640631919        1.2103782366
 N         -1.3296311483       -0.6263497568        0.5345735348
 C         -0.3765143511       -1.4090739390       -0.0133032003
 O         -0.5874174969       -2.4144622463       -0.6701554084
 C          0.9881837231       -0.9193317940        0.2657219117
 N          1.2206559626        0.2060805361        0.9187939042
 N          2.5419046861        0.3681736097        1.0091263010
 C          3.2081847427       -0.6507757532        0.3994843733
 C          4.5672415415       -0.9117412706        0.2381867327
 C          4.9049666924       -2.0626040993       -0.4347557521
 C          3.9327150649       -2.9393847286       -0.9386869901
 C          2.5904386474       -2.6925912204       -0.7823651441
 C          2.2204257851       -1.5308305518       -0.1037744735
 C          3.0981644549        1.5522597639        1.5986322826
 C          3.5001712280        2.5797714457        0.5328413284
 C          2.2777000638        3.1254493474       -0.2041409833
 C          2.6380970534        3.9611071213       -1.4299120437
 C          3.3612671861        5.2508622959       -1.0666232630
 F          3.5317163910        6.0262791498       -2.1888993065
 H         -6.1648805545       -2.4738599476       -0.6648076629
 H         -4.5868844201       -3.1078513409       -1.1458734176
 H         -4.9342317619       -3.3702583765        1.2984382530
 H         -5.0871919967       -1.3488733324        2.7318771891
 H         -6.4554835342       -1.4300237623        1.6189234651
 H         -5.4956725157        0.8608994232        1.6745050177
 H         -6.4988733016        0.0220044413       -0.4378607170
 H         -5.1610723970        1.1246109347       -0.7722390182
 H         -5.0095609370       -0.9002630976       -2.2014240018
 H         -2.9075798682        0.2055139485       -1.4667822535
 H         -2.6758733580       -1.5417831139       -1.6081142538
 H         -2.8331212035       -2.2633585179        2.0353648290
 H         -2.6319305671       -2.9797820305        0.4319007714
 H         -3.2006724308        1.2433338859        0.8117437710
 H         -3.1691388298        0.2218182217        2.2578518804
 H         -1.0017645485        0.1827788462        1.0400975864
 H          5.3216374888       -0.2432840909        0.6250686028
 H          5.9480157855       -2.3018299763       -0.5819379514
 H          4.2579160239       -3.8276405896       -1.4594481975
 H          1.8302308219       -3.3559178823       -1.1614839153
 H          3.9699618930        1.2698148815        2.1960940328
 H          2.3353688264        1.9749293039        2.2563776530
 H          4.0408845953        3.3897853861        1.0235881857
 H          4.1736484883        2.1021072013       -0.1819386613
 H          1.6786879573        3.7258514730        0.4842237017
 H          1.6602264332        2.2864838122       -0.5305679202
 H          3.2655036783        3.3791828860       -2.1080727422
 H          1.7252703807        4.2263891219       -1.9672459062
 H          2.7788920530        5.8502996242       -0.3584506205
 H          4.3626570190        5.0662828054       -0.6660858368
  58
        -82.23551699
 C         -5.2048071320       -0.9210030604        1.4308965313
 C         -4.7714292895        0.3695558056        0.7371057865
 C         -5.1840063042        0.3219832261       -0.7333457744
 C         -4.5094552592       -0.8706545612       -1.4101182012
 C         -4.9402942024       -2.1633290372       -0.7192747267
 C         -4.5304377198       -2.1123010657        0.7515652038
 C         -3.0135545638       -1.9678052961        0.8528087984
 C         -2.5759841467       -0.6722457359        0.1601780337
 C         -3.2530954073        0.5193222409        0.8375963322
 C         -2.9925247201       -0.7230748821       -1.3141046435
 N         -1.1330942583       -0.5044267381        0.2693003432
 C         -0.2031516293       -1.3567718129       -0.2115640274
 O         -0.4452057174       -2.3892517112       -0.8132056305
 C          1.1751070687       -0.9043393501        0.0610143544
 N          1.4416991253        0.2158714779        0.7107609724
 N          2.7669595791        0.3435697230        0.7915649764
 C          3.4022853760       -0.6945631559        0.1833638544
 C          4.7530579642       -0.9936188084        0.0176898042
 C          5.0561344337       -2.1554501748       -0.6523977448
 C          4.0580177392       -3.0070263280       -1.1494116303
 C          2.7238011279       -2.7233530811       -0.9881846121
 C          2.3884770674       -1.5498596613       -0.3114843364
 C          3.3505910867        1.5117896009        1.3870537129
 C          3.8320676545        2.5184875654        0.3335302125
 C          2.7666428438        2.8801582631       -0.7036994865
 C          1.4533292441        3.4149421561       -0.1283796012
 C          1.6165789750        4.7103837826        0.6530283323
 F          2.1204105470        5.7030970668       -0.1554304240
 H         -6.2905478281       -1.0249122630        1.3736025751
 H         -4.9272485393       -0.8877343971        2.4870821877
 H         -5.2507837354        1.2264461253        1.2246910203
 H         -4.8916300008        1.2486986642       -1.2327008057
 H         -6.2695379611        0.2289714161       -0.8099102567
 H         -4.8017583895       -0.9046756860       -2.4654345495
 H         -6.0227286922       -2.2867698185       -0.8006695940
 H         -4.4651999331       -3.0174162157       -1.2052206596
 H         -4.8379405250       -3.0384503689        1.2495754996
 H         -2.5173243164       -2.8107219511        0.3714256832
 H         -2.7030620214       -1.9427771146        1.9004328309
 H         -2.9377907593        1.4464286400        0.3516024390
 H         -2.9526641608        0.5649227210        1.8877090365
 H         -2.4963333884       -1.5675999226       -1.7925880885
 H         -2.6670524628        0.1919182985       -1.8154610845
 H         -0.7818117438        0.3064469093        0.7552325307
 H          5.5269973069       -0.3452510701        0.3997196620
 H          6.0915539705       -2.4241290805       -0.8026270887
 H          4.3566152824       -3.9058233144       -1.6680787950
 H          1.9441358233       -3.3677609583       -1.3603883235
 H          4.1941537130        1.2061916073        2.0140002130
 H          2.5857063453        1.9588788657        2.0249342711
 H          4.1799767613        3.4141807684        0.8493436988
 H          4.6858665887        2.0936754449       -0.1983084850
 H          2.5361313016        1.9951263197       -1.3004437541
 H          3.1868056404        3.6305802601       -1.3759521099
 H          0.7701339628        3.6009008599       -0.9596030925
 H          0.9947870601        2.6693495945        0.5213820902
 H          0.6515014021        5.0720666026        1.0234501079
 H          2.3154707253        4.6082961310        1.4887785773
  58
        -82.23546633
 C         -5.2551302135       -2.4010378005       -0.5027170950
 C         -4.8087621450       -2.4634041589        0.9570509321
 C         -5.5636045101       -1.4117664178        1.7692704557
 C         -5.2628588199       -0.0241546780        1.2046725598
 C         -5.7117485351        0.0417144969       -0.2544204417
 C         -4.9572660407       -1.0119072509       -1.0643825370
 C         -3.4565548733       -0.7414566882       -0.9836386677
 C         -3.0034966626       -0.8034833030        0.4796350603
 C         -3.3075816210       -2.1962171724        1.0428297017
 C         -3.7608360771        0.2482325438        1.2904013432
 N         -1.5780158645       -0.5202171983        0.5763107113
 C         -0.5934103121       -1.2313477251       -0.0111176453
 O         -0.7592961084       -2.2277733732       -0.6942819006
 C          0.7455495661       -0.6685073463        0.2550019330
 N          0.9281569976        0.4164271439        0.9859052432
 N          2.2367123845        0.6709600832        1.0345285287
 C          2.9455007144       -0.2462007856        0.3198708321
 C          4.3097468878       -0.4003422314        0.0795100426
 C          4.6926909463       -1.4656468052       -0.7009904124
 C          3.7604848406       -2.3676050916       -1.2345668690
 C          2.4142737647       -2.2311432688       -0.9987719874
 C          1.9992568800       -1.1566008962       -0.2114308585
 C          2.7086000909        1.8531287290        1.7006793649
 C          2.3885054281        3.1131183068        0.8864481092
 C          3.0898957185        3.1523504909       -0.4704152320
 C          4.5851446821        3.4503097369       -0.3674542448
 C          5.2349491985        3.5052270981       -1.7422753988
 F          4.7361752584        4.5612893013       -2.4671089610
 H         -6.3248653960       -2.6109241156       -0.5748635363
 H         -4.7226033579       -3.1559615652       -1.0839968960
 H         -5.0209776897       -3.4589637484        1.3623224572
 H         -5.2598296397       -1.4613866905        2.8175511457
 H         -6.6375994677       -1.6051547621        1.7227247485
 H         -5.7999733639        0.7330018179        1.7877550944
 H         -6.7871379724       -0.1381136304       -0.3190686090
 H         -5.5138931500        1.0364573489       -0.6606124228
 H         -5.2759434098       -0.9643683400       -2.1115827799
 H         -3.2253223131        0.2447045709       -1.3942007339
 H         -2.9037602904       -1.4862345625       -1.5566218286
 H         -2.9705650198       -2.2498462765        2.0810749378
 H         -2.7545694943       -2.9387926760        0.4673253759
 H         -3.5404971381        1.2442425414        0.8975421359
 H         -3.4350506278        0.2130962065        2.3332001133
 H         -1.2844573045        0.2843650483        1.1095913457
 H          5.0404799489        0.2810657138        0.4886418878
 H          5.7418467024       -1.6160748755       -0.9100551156
 H          4.1201604192       -3.1857300593       -1.8405046751
 H          1.6828077091       -2.9159771894       -1.3957706310
 H          3.7819783270        1.7507639371        1.8646697371
 H          2.2083116215        1.9179592272        2.6715018587
 H          1.3087901135        3.1380199450        0.7289578454
 H          2.6666439334        3.9899978457        1.4732519162
 H          2.6290933833        3.9302221916       -1.0818949773
 H          2.9433293170        2.1997135883       -0.9849840521
 H          4.7337853967        4.4104226420        0.1311464456
 H          5.0984882688        2.6812768092        0.2100271295
 H          6.3164285109        3.6613715160       -1.6716151146
 H          5.0239349548        2.6001187877       -2.3215439558
  58
        -82.23546042
 C         -4.8583457572       -0.1951516029        1.3697622331
 C         -4.2775108425        0.9419587850        0.5303256089
 C         -4.6912951136        0.7626975189       -0.9294232479
 C         -4.1614239447       -0.5745111594       -1.4455394878
 C         -4.7387299698       -1.7142723278       -0.6077773143
 C         -4.3252335848       -1.5302392885        0.8514017579
 C         -2.8017030954       -1.5497602583        0.9560963058
 C         -2.2187203960       -0.4082279910        0.1166258041
 C         -2.7525224459        0.9277981386        0.6335500825
 C         -2.6378680802       -0.5910548825       -1.3466038237
 N         -0.7668675743       -0.3903816519        0.2251162881
 C          0.0649108825       -1.3958449964       -0.1165237180
 O         -0.2842045531       -2.5002758092       -0.4988974229
 C          1.4866349685       -1.0181498048        0.0214633805
 N          1.8523373570        0.1779342227        0.4454348072
 N          3.1827948282        0.2392197622        0.4336213862
 C          3.7243146912       -0.9316158227       -0.0023465610
 C          5.0454366063       -1.3357277663       -0.1814666408
 C          5.2477998937       -2.6145068947       -0.6456367042
 C          4.1791032136       -3.4779009941       -0.9292973884
 C          2.8730386576       -3.0883976837       -0.7567770081
 C          2.6390982245       -1.7961020943       -0.2856983230
 C          3.8995699699        1.4261266946        0.8308885115
 C          2.9557581106        2.5072780257        1.3496216063
 C          2.1154205374        3.1339940116        0.2390371765
 C          1.1071351690        4.1377845720        0.7950957455
 C          0.1535068333        4.6315127106       -0.2825336239
 F         -0.6561341911        3.6035159947       -0.7080848559
 H         -5.9490646794       -0.1808339718        1.3093149939
 H         -4.5797999050       -0.0645220810        2.4182046351
 H         -4.6550853362        1.9016595810        0.9020457016
 H         -4.2879775106        1.5799587925       -1.5314304032
 H         -5.7803125922        0.7893084081       -1.0122779195
 H         -4.4566378402       -0.7044350197       -2.4928302116
 H         -5.8284183409       -1.7217188071       -0.6884182471
 H         -4.3659557658       -2.6707778045       -0.9789610270
 H         -4.7380905773       -2.3469839038        1.4542419311
 H         -2.4060943395       -2.4974313895        0.5905118328
 H         -2.4908867014       -1.4305584661        1.9970358324
 H         -2.3308981179        1.7444099560        0.0434314803
 H         -2.4492415742        1.0642927318        1.6749017965
 H         -2.2419019580       -1.5390182226       -1.7126096051
 H         -2.2095534016        0.2146653968       -1.9478022789
 H         -0.3272361710        0.4836742406        0.4720809206
 H          5.8715178603       -0.6749259141        0.0341626715
 H          6.2571315441       -2.9680918982       -0.7980454346
 H          4.3993844268       -4.4710087433       -1.2917892594
 H          2.0404434017       -3.7387642801       -0.9703105663
 H          4.4675852683        1.8020886729       -0.0294283004
 H          4.6141897709        1.1490355102        1.6151971643
 H          2.2946645025        2.0597730368        2.0929324686
 H          3.5506513906        3.2799845994        1.8406559440
 H          1.5734908749        2.3438094324       -0.2812924894
 H          2.7692477063        3.6337530350       -0.4798628315
 H          0.5203831165        3.6646406053        1.5849709271
 H          1.6213910012        5.0007099380        1.2216860669
 H         -0.5135532901        5.4133212085        0.0946327243
 H          0.6899929047        4.9910085934       -1.1663985782
  58
        -82.23540807
 C         -4.7827446708       -1.6628625036       -0.6240407332
 C         -4.4403383212       -1.5371048802        0.8595923729
 C         -5.0221571735       -0.2358756770        1.4106858519
 C         -4.4265187034        0.9476277673        0.6493425702
 C         -4.7705390421        0.8261686807       -0.8342948845
 C         -4.1905442382       -0.4766129640       -1.3832371181
 C         -2.6732097427       -0.4700182601       -1.2140787203
 C         -2.3253600895       -0.3472668881        0.2738787033
 C         -2.9231203948       -1.5351508322        1.0344093644
 C         -2.9078312432        0.9552628695        0.8220329581
 N         -0.8806649735       -0.3082301484        0.4504142144
 C         -0.0179053537       -1.2769208757        0.0865065585
 O         -0.3309820424       -2.3641708529       -0.3706021280
 C          1.3937719375       -0.8882456657        0.2901856689
 N          1.7446671573        0.2464669222        0.8658069317
 N          3.0780851729        0.3257746093        0.8598518772
 C          3.6323744253       -0.7669045328        0.2643444426
 C          4.9546441010       -1.1303219007        0.0163681154
 C          5.1652783797       -2.3350864909       -0.6124333267
 C          4.1039209892       -3.1695628219       -0.9925682013
 C          2.7966854344       -2.8211248883       -0.7554320886
 C          2.5555305501       -1.6031147720       -0.1189741452
 C          3.7419225383        1.5061265405        1.3425410855
 C          3.4590578308        2.7075694928        0.4303625402
 C          2.0703094630        3.2932978582        0.6947652603
 C          1.5314192664        4.1020406371       -0.4873870570
 C          0.8823987844        3.2045211321       -1.5322655655
 F         -0.2983081954        2.6946578206       -1.0412932299
 H         -5.8672549639       -1.6862648117       -0.7557135290
 H         -4.3742986588       -2.5949552374       -1.0190749219
 H         -4.8647941497       -2.3869068404        1.4060429590
 H         -4.7934656552       -0.1470120208        2.4753596555
 H         -6.1091382018       -0.2380313447        1.3010542715
 H         -4.8393926778        1.8828306840        1.0452632441
 H         -5.8550456881        0.8365667802       -0.9659393291
 H         -4.3570184545        1.6763714815       -1.3812687494
 H         -4.4349535685       -0.5650448462       -2.4478885411
 H         -2.2328258979        0.3709873016       -1.7548164295
 H         -2.2422836644       -1.3927432000       -1.6041021703
 H         -2.6625109182       -1.4570175012        2.0927970062
 H         -2.4930153964       -2.4585090180        0.6462108856
 H         -2.4732301203        1.8008563220        0.2844522828
 H         -2.6537201209        1.0535633051        1.8804800311
 H         -0.4737653311        0.5645215013        0.7500944127
 H          5.7816502881       -0.4977159245        0.3029323112
 H          6.1769342919       -2.6511854854       -0.8214119041
 H          4.3307110387       -4.1049681199       -1.4820867977
 H          1.9673075279       -3.4485595482       -1.0385975069
 H          4.8115220488        1.2929979140        1.3772881334
 H          3.3910826279        1.7231105643        2.3560572378
 H          4.2215020971        3.4711215859        0.5939118720
 H          3.5391000356        2.3764310117       -0.6074956222
 H          2.1163119245        3.9263330706        1.5824023849
 H          1.3768359537        2.4765248198        0.9014283553
 H          0.7751557327        4.8069501298       -0.1373374891
 H          2.3332931402        4.6711960904       -0.9599842534
 H          0.6256416900        3.7588444088       -2.4405992056
 H          1.5070470567        2.3424399050       -1.7846832974
  58
        -82.23539249
 C         -5.4422138032       -1.6644292593       -1.3017681073
 C         -4.7039016079       -2.4027339148       -0.1858885174
 C         -5.1310810994       -1.8425642587        1.1697218115
 C         -4.7927030726       -0.3540950244        1.2317324258
 C         -5.5312013000        0.3866919887        0.1176393571
 C         -5.1011432217       -0.1764710743       -1.2361174845
 C         -3.5940307825        0.0110095848       -1.4127729238
 C         -2.8529868182       -0.7279179190       -0.2984191250
 C         -3.1978365904       -2.2202328844       -0.3606539319
 C         -3.2868550988       -0.1665196175        1.0604023137
 N         -1.4219064253       -0.5335545902       -0.4894869084
 C         -0.4487848162       -1.0372625026        0.2973382559
 O         -0.6327069489       -1.7223929653        1.2894144674
 C          0.9031263325       -0.6667677836       -0.1664762929
 N          1.1087904263        0.0992002859       -1.2233592601
 N          2.4246674283        0.2472951451       -1.3803402729
 C          3.1167634674       -0.4215205957       -0.4165487852
 C          4.4807024176       -0.5611643141       -0.1664407756
 C          4.8430916238       -1.3211511559        0.9205627623
 C          3.8907364711       -1.9357644904        1.7470746688
 C          2.5442260073       -1.8116042156        1.5067040120
 C          2.1495732003       -1.0435384822        0.4105306091
 C          2.9355679269        1.0997058976       -2.4160238699
 C          2.8151462653        2.5896731218       -2.0709793904
 C          3.6113721570        3.0019815279       -0.8291638043
 C          2.8159014400        2.8733489504        0.4711365052
 C          3.6591014665        3.2530242404        1.6786742627
 F          4.0393667775        4.5734842180        1.6084846578
 H         -6.5199547201       -1.8020743731       -1.1900448832
 H         -5.1520270682       -2.0708297053       -2.2734969494
 H         -4.9450126099       -3.4704355812       -0.2330633308
 H         -4.6102359264       -2.3730169468        1.9689184634
 H         -6.2046516805       -1.9871236239        1.3113982805
 H         -5.0976096256        0.0502884841        2.2032645807
 H         -6.6097155270        0.2673930580        0.2421124824
 H         -5.3049710393        1.4544533325        0.1659960510
 H         -5.6264582408        0.3554877944       -2.0378238654
 H         -3.3448918242        1.0747426440       -1.3775697153
 H         -3.2818034554       -0.3804909749       -2.3843994335
 H         -2.6566210709       -2.7413998625        0.4293047743
 H         -2.8743446328       -2.6281855353       -1.3215990158
 H         -3.0273016548        0.8937377041        1.1151927042
 H         -2.7454997024       -0.6902505044        1.8485183113
 H         -1.1137994412        0.0146558476       -1.2784273091
 H          5.2247435078       -0.0983845590       -0.7974015022
 H          5.8910631748       -1.4520868507        1.1473405888
 H          4.2348800654       -2.5203990706        2.5870302270
 H          1.7976958810       -2.2795775051        2.1274071399
 H          2.3652265383        0.8982362735       -3.3277547150
 H          3.9810978434        0.8354237603       -2.5881357293
 H          3.1737714004        3.1493966290       -2.9363087070
 H          1.7611244632        2.8322945433       -1.9275427954
 H          3.9171982757        4.0450088207       -0.9301600674
 H          4.5202783339        2.4005492761       -0.7586177075
 H          1.9442350139        3.5296140702        0.4285171857
 H          2.4671116219        1.8534094336        0.6261403734
 H          3.0975614262        3.1389248566        2.6109964019
 H          4.5814941296        2.6644601565        1.7248786060
  58
        -82.23537912
 C         -5.4896215701        0.4111014949        0.2109134388
 C         -5.0936144004       -0.1175044072       -1.1669619654
 C         -5.4498645973       -1.6000002607       -1.2667595954
 C         -4.6949193685       -2.3758737724       -0.1880961540
 C         -5.0881683412       -1.8503766744        1.1914734903
 C         -4.7348254753       -0.3672336531        1.2879039336
 C         -3.2312684138       -0.1881908775        1.0897330519
 C         -2.8314425963       -0.7148313356       -0.2933263390
 C         -3.5888890273        0.0616749867       -1.3704837151
 C         -3.1912284436       -2.2016775870       -0.3899278670
 N         -1.4030460980       -0.5269733543       -0.5090388957
 C         -0.4181132203       -1.0601927081        0.2428641194
 O         -0.5867896138       -1.7802503722        1.2127033704
 C          0.9263781603       -0.6723261234       -0.2279967941
 N          1.1147683667        0.1372360530       -1.2553299684
 N          2.4278836458        0.2979261127       -1.4231143121
 C          3.1353484683       -0.4054778096       -0.4958288665
 C          4.5029869358       -0.5480131201       -0.2686964589
 C          4.8828418915       -1.3503603585        0.7812915021
 C          3.9440579746       -2.0037043571        1.5935085332
 C          2.5940559860       -1.8767389009        1.3754960843
 C          2.1818766686       -1.0661661672        0.3170045373
 C          2.9219327927        1.2028787844       -2.4216782742
 C          2.7777102321        2.6731257912       -2.0075210920
 C          3.5381807027        3.0264703777       -0.7253939467
 C          2.6998042181        2.8473866658        0.5416894077
 C          3.5100409071        3.1477602750        1.7932162381
 F          3.9175852709        4.4619015717        1.8030335447
 H         -6.5663307970        0.2979114086        0.3550441571
 H         -5.2522968649        1.4750225601        0.2842919882
 H         -5.6308152465        0.4414318200       -1.9420759855
 H         -5.1841216232       -1.9814098467       -2.2554498989
 H         -6.5262294934       -1.7313328657       -1.1357956135
 H         -4.9468897560       -3.4396873752       -0.2599137843
 H         -6.1597976546       -1.9895476421        1.3519712470
 H         -4.5555139117       -2.4076066602        1.9642317618
 H         -5.0153666650        0.0123221448        2.2766816128
 H         -2.6783656502       -0.7388004780        1.8510894786
 H         -2.9606138419        0.8677935600        1.1687354571
 H         -3.3008194575       -0.3050503987       -2.3590504583
 H         -3.3291298135        1.1218041184       -1.3108269187
 H         -2.6381914511       -2.7496714599        0.3731981483
 H         -2.8920403932       -2.5850593580       -1.3686642416
 H         -1.1068235302        0.0517818247       -1.2805559562
 H          5.2369571355       -0.0559419601       -0.8893109993
 H          5.9342517705       -1.4848203157        0.9893497147
 H          4.3017283416       -2.6208819851        2.4040262335
 H          1.8577471606       -2.3739785297        1.9855585318
 H          2.3541683802        1.0333680604       -3.3415058167
 H          3.9714707565        0.9638728029       -2.6056509170
 H          3.1516271562        3.2787142876       -2.8345558466
 H          1.7181739634        2.8988912454       -1.8780897334
 H          3.8544761382        4.0701847165       -0.7708329803
 H          4.4399691678        2.4147840907       -0.6519480350
 H          1.8417693435        3.5217903225        0.5058783612
 H          2.3272696414        1.8281925380        0.6328454708
 H          2.9160598532        2.9981952069        2.7001270582
 H          4.4188273212        2.5383735928        1.8385992464
  58
        -82.23536747
 C         -5.5377243744       -1.7195425472       -1.3035420074
 C         -4.7798554156       -2.5404437353       -0.2608427027
 C         -5.2036031182       -2.1054445973        1.1410132640
 C         -4.8855879164       -0.6230631183        1.3289338896
 C         -5.6435969772        0.2000049826        0.2880526999
 C         -5.2168271832       -0.2379274746       -1.1122683149
 C         -3.7139873693       -0.0138467559       -1.2825334835
 C         -2.9532198374       -0.8350836549       -0.2413821938
 C         -3.2780514443       -2.3213712588       -0.4298487446
 C         -3.3840559126       -0.3994204674        1.1637938505
 N         -1.5269401125       -0.6040201326       -0.4244446818
 C         -0.5403639530       -1.1606998377        0.3095592725
 O         -0.7097782646       -1.9338389682        1.2372739787
 C          0.8023110153       -0.7331436452       -0.1304177383
 N          0.9886956876        0.0913305738       -1.1460185228
 N          2.3018893315        0.2713797936       -1.2994870439
 C          3.0095587844       -0.4322991759       -0.3728674399
 C          4.3772024667       -0.5630673308       -0.1394937382
 C          4.7587995493       -1.3801650030        0.8983357149
 C          3.8218838984       -2.0579892100        1.6922677807
 C          2.4719098316       -1.9401605956        1.4688494028
 C          2.0578884952       -1.1166100053        0.4212911649
 C          2.7878866960        1.1668962686       -2.3112014615
 C          2.7396070573        2.6287565702       -1.8522278981
 C          3.7219585581        2.9177073672       -0.7207482961
 C          3.6494233504        4.3758918617       -0.2710676389
 C          4.6164024925        4.6635640587        0.8680667562
 F          4.2580752489        3.9596326060        1.9922400202
 H         -6.6125748578       -1.8820195389       -1.1965864688
 H         -5.2498941274       -2.0364039822       -2.3087672826
 H         -5.0065726410       -3.6035588833       -0.3983404364
 H         -4.6685254216       -2.6949553979        1.8876698884
 H         -6.2738783154       -2.2775559032        1.2774277956
 H         -5.1882417273       -0.3083794828        2.3338335248
 H         -6.7193798696        0.0546929818        0.4092889165
 H         -5.4318431016        1.2628237350        0.4268528333
 H         -5.7563160686        0.3534006970       -1.8614224123
 H         -3.4793637636        1.0464019173       -1.1573018706
 H         -3.4042293172       -0.3154474612       -2.2865360457
 H         -2.7228510083       -2.9004529618        0.3083102248
 H         -2.9567799505       -2.6401940829       -1.4246772306
 H         -3.1386226922        0.6557049475        1.3082346422
 H         -2.8286377231       -0.9810820024        1.8997014159
 H         -1.2318110343        0.0127846377       -1.1662035982
 H          5.1073012318       -0.0459731708       -0.7434617790
 H          5.8101305383       -1.5055493927        1.1123833973
 H          4.1809122892       -2.6848366721        2.4948352925
 H          1.7372450314       -2.4547158147        2.0664881512
 H          2.1531281088        1.0432122342       -3.1930797599
 H          3.8109062592        0.8798957140       -2.5650621097
 H          2.9674008128        3.2680976386       -2.7075738731
 H          1.7232543398        2.8527456568       -1.5228081454
 H          4.7385754214        2.6959907059       -1.0558273632
 H          3.5015614955        2.2751395330        0.1336809216
 H          3.8944081093        5.0400416235       -1.1020153095
 H          2.6359935500        4.6047776822        0.0638436591
 H          5.6369683087        4.3537693275        0.6191414420
 H          4.6049116347        5.7223041038        1.1471080911
  58
        -82.23536610
 C         -5.4215517337       -1.7504913575        1.6693449891
 C         -5.1242465476       -0.2684638392        1.4458951696
 C         -5.6426016386        0.1545420949        0.0721559381
 C         -4.9464551510       -0.6723340012       -1.0081623950
 C         -5.2410650012       -2.1551729652       -0.7883260404
 C         -4.7257328125       -2.5752093176        0.5871550402
 C         -3.2178493749       -2.3446283646        0.6582373007
 C         -2.9164763606       -0.8578486856        0.4373462359
 C         -3.6152872927       -0.0327782239        1.5181666566
 C         -3.4391359380       -0.4371234402       -0.9409950957
 N         -1.4831102005       -0.6156402006        0.5269380746
 C         -0.5416764084       -1.1712002819       -0.2649791647
 O         -0.7647051418       -1.9524433679       -1.1743524312
 C          0.8233121188       -0.7307687652        0.0842945036
 N          1.0691425232        0.0992796598        1.0825453387
 N          2.3879343189        0.2916173742        1.1477966819
 C          3.0388893602       -0.4089992753        0.1783022130
 C          4.3890681177       -0.5276228263       -0.1456726883
 C          4.7083322741       -1.3451706740       -1.2039951212
 C          3.7270809820       -2.0349530251       -1.9312527768
 C          2.3939638416       -1.9288721069       -1.6185508859
 C          2.0429395170       -1.1051706818       -0.5483630964
 C          2.9319512741        1.1959274532        2.1214210925
 C          2.8294974872        2.6557780575        1.6650908522
 C          3.7199199505        2.9544779572        0.4622867166
 C          3.5922990998        4.4097591694        0.0154163000
 C          4.4649237873        4.7067223799       -1.1952668529
 F          4.0315332844        3.9935551108       -2.2866997459
 H         -6.4998174239       -1.9210971120        1.6324578065
 H         -5.0679496401       -2.0567710009        2.6567028136
 H         -5.6191932915        0.3256441407        2.2230764945
 H         -5.4478896261        1.2175341849       -0.0885114790
 H         -6.7228332741        0.0009103004        0.0210629298
 H         -5.3147901374       -0.3683727886       -1.9942578386
 H         -6.3165606945       -2.3357194390       -0.8548030220
 H         -4.7503250129       -2.7474596555       -1.5627213475
 H         -4.9355054568       -3.6386038971        0.7474804935
 H         -2.7066045968       -2.9263055275       -0.1090734746
 H         -2.8315784652       -2.6527531494        1.6331319140
 H         -3.3968800202        1.0279198992        1.3695921287
 H         -3.2400649058       -0.3235931923        2.5028365936
 H         -2.9275294054       -1.0212467765       -1.7061337845
 H         -3.2111280630        0.6183685755       -1.1093533951
 H         -1.1454133256        0.0078221855        1.2445662344
 H          5.1528792679       -0.0011453796        0.4062786294
 H          5.7441482849       -1.4612962185       -1.4876051109
 H          4.0377275030       -2.6615680840       -2.7539378431
 H          1.6260160104       -2.4526409243       -2.1640653146
 H          3.9745748023        0.9241321547        2.3014237528
 H          2.3641211976        1.0651793496        3.0469017736
 H          1.7883473008        2.8650696110        1.4124459142
 H          3.1122162091        3.3004719590        2.4997485068
 H          3.4452611439        2.3056363365       -0.3714315507
 H          4.7619369262        2.7484955894        0.7204869370
 H          2.5529941008        4.6230006021       -0.2415216511
 H          3.8905308986        5.0805219485        0.8233388490
 H          4.4168603494        5.7641228548       -1.4754609863
 H          5.5058939182        4.4122903633       -1.0245845313
  58
        -82.23536716
 C         -5.6489337257        0.0671937612       -0.3074625198
 C         -4.8959977439       -1.0860062558       -0.9697970751
 C         -5.2071513642       -2.3895940669       -0.2364516606
 C         -4.7707405412       -2.2664399944        1.2224287644
 C         -5.5233652394       -1.1145029233        1.8873202834
 C         -5.2095834018        0.1871258262        1.1510841550
 C         -3.7063165408        0.4594468540        1.2117705691
 C         -2.9506503875       -0.6921901886        0.5484696337
 C         -3.3940310898       -0.8160058266       -0.9137142475
 C         -3.2684531357       -1.9993239657        1.2837434578
 N         -1.5239114728       -0.4083286611        0.6192171831
 C         -0.5406054874       -1.1977574871        0.1375750546
 O         -0.7138248880       -2.2594379258       -0.4367501123
 C          0.8035790509       -0.6374164944        0.3792904214
 N          0.9937133577        0.5003953048        1.0236497392
 N          2.3071183072        0.7260083651        1.0899872001
 C          3.0111843152       -0.2654268143        0.4769014664
 C          4.3776765533       -0.4698690525        0.2953358806
 C          4.7553864987       -1.6078124410       -0.3775314647
 C          3.8157842391       -2.5295368728       -0.8624609368
 C          2.4669792089       -2.3408317245       -0.6855158194
 C          2.0568331684       -1.1933715422       -0.0056646637
 C          2.7959997593        1.9283299224        1.7040716360
 C          2.7406862969        3.1236453132        0.7458506306
 C          3.7197217092        2.9853573250       -0.4164959874
 C          3.6400012839        4.1804823455       -1.3647079275
 C          4.6067198798        4.0403186605       -2.5314359468
 F          4.2540706377        2.9739189971       -3.3227209786
 H         -6.7250783607       -0.1135182520       -0.3559143872
 H         -5.4421909496        1.0003040532       -0.8368273469
 H         -5.2076600691       -1.1717293122       -2.0166880077
 H         -4.6758900391       -3.2160774426       -0.7118580497
 H         -6.2778416981       -2.6007389041       -0.2888975877
 H         -4.9924966813       -3.2003133799        1.7508759741
 H         -6.5983997876       -1.3058054091        1.8585820945
 H         -5.2263742622       -1.0306734603        2.9354037663
 H         -5.7453740987        1.0161615209        1.6281600821
 H         -3.3876500542        0.5569820088        2.2528718892
 H         -3.4765457589        1.3952250706        0.6956697608
 H         -2.8422317869       -1.6310223236       -1.3823512976
 H         -3.1536619967        0.1078932803       -1.4456945156
 H         -2.9381575441       -1.9214495221        2.3226864567
 H         -2.7169786078       -2.8128450494        0.8119709802
 H         -1.2251508387        0.4374989168        1.0808099793
 H          5.1097885219        0.2327360316        0.6635027019
 H          5.8056612581       -1.8006460103       -0.5404916627
 H          4.1717905620       -3.4048093458       -1.3850605770
 H          1.7303928201       -3.0390094216       -1.0483644027
 H          3.8212597621        1.7541614624        2.0386216782
 H          2.1663567044        2.1327007967        2.5745401981
 H          1.7227340593        3.2095277724        0.3609920263
 H          2.9674224789        4.0306212111        1.3100049703
 H          3.5007798440        2.0755793173       -0.9784999429
 H          4.7378599802        2.9041018425       -0.0269236249
 H          2.6256729382        4.2668811369       -1.7588141617
 H          3.8807274432        5.1021360435       -0.8316332149
 H          4.5894652117        4.9252274140       -3.1760118921
 H          5.6287369525        3.8482772695       -2.1878267380
  58
        -82.23536323
 C         -5.4826057973       -1.5670820068       -1.3349121483
 C         -4.7356534529       -2.4019497967       -0.2954442322
 C         -5.1683755541       -1.9808074415        1.1078720294
 C         -4.8467439018       -0.5016541812        1.3142635655
 C         -5.5943436847        0.3352209440        0.2768753774
 C         -5.1583213302       -0.0887628903       -1.1248702503
 C         -3.6534852802        0.1321028320       -1.2813582975
 C         -2.9034494408       -0.7031862991       -0.2436234777
 C         -3.2318997296       -2.1862747230       -0.4505385453
 C         -3.3431951609       -0.2812143268        1.1628976686
 N         -1.4747959475       -0.4755769221       -0.4138706227
 C         -0.4955046793       -1.0453874335        0.3199496237
 O         -0.6747355929       -1.8149096360        1.2489457185
 C          0.8524411321       -0.6350273631       -0.1193474892
 N          1.0484562452        0.2166646527       -1.1105248993
 N          2.3630681258        0.3790363171       -1.2656694630
 C          3.0636338630       -0.3741528602       -0.3725930967
 C          4.4305017888       -0.5309509998       -0.1464062342
 C          4.8023502358       -1.3827040972        0.8668028116
 C          3.8573606373       -2.0695344513        1.6435971398
 C          2.5085571298       -1.9226968084        1.4302824016
 C          2.1036809766       -1.0618759364        0.4092773174
 C          2.8591990851        1.2704077065       -2.2780321695
 C          2.4632646055        2.7293181997       -2.0224675882
 C          3.2959922157        3.4337369138       -0.9518665232
 C          3.0107986049        2.9559286316        0.4719619083
 C          3.7840191299        3.7743072817        1.4952985206
 F          5.1371018721        3.5862486806        1.3308489194
 H         -6.5587214710       -1.7270507001       -1.2380815119
 H         -5.1880092412       -1.8738647862       -2.3412694133
 H         -4.9648254099       -3.4626807832       -0.4462624971
 H         -4.6410483066       -2.5804146947        1.8520248816
 H         -6.2401798064       -2.1505795441        1.2343159828
 H         -5.1558157047       -0.1969513619        2.3203033678
 H         -6.6713873519        0.1918622466        0.3883116887
 H         -5.3805615035        1.3958478373        0.4288700570
 H         -5.6900240373        0.5126164813       -1.8715026195
 H         -3.4162603519        1.1901373407       -1.1427773141
 H         -3.3373147210       -0.1594449218       -2.2863069280
 H         -2.6844207173       -2.7752793192        0.2856128141
 H         -2.9040538294       -2.4955256086       -1.4462410686
 H         -3.0957964580        0.7716705063        1.3204014352
 H         -2.7952759925       -0.8725145822        1.8967383159
 H         -1.1714851074        0.1314582642       -1.1604169360
 H          5.1683955765       -0.0047487034       -0.7329335041
 H          5.8521915382       -1.5279981170        1.0743244668
 H          4.2091856746       -2.7255659961        2.4257568016
 H          1.7677715033       -2.4404475654        2.0175612865
 H          2.4402620138        0.9552050645       -3.2400466418
 H          3.9449516814        1.1696616764       -2.3186730431
 H          2.5793328862        3.2730681391       -2.9617159113
 H          1.4073198490        2.7534864331       -1.7469011878
 H          3.0836939381        4.5048104974       -1.0056844723
 H          4.3583299790        3.2990123029       -1.1663470535
 H          1.9460989821        3.0468879797        0.6939012196
 H          3.2986956822        1.9117000818        0.5907218317
 H          3.6044430071        4.8484315363        1.3786701990
 H          3.5488446841        3.4631465518        2.5179200159
  58
        -82.23535926
 C         -5.5367216487        0.3320996587        0.4274094709
 C         -5.1469496498        0.0209351437       -1.0169215989
 C         -5.4962118465       -1.4314492094       -1.3382847090
 C         -4.7302310794       -2.3572117330       -0.3940038303
 C         -5.1171438400       -2.0492809599        1.0514996753
 C         -4.7707412542       -0.5957740819        1.3696450584
 C         -3.2694605500       -0.3795180544        1.1923008574
 C         -2.8757730543       -0.6879414252       -0.2567996703
 C         -3.6445247162        0.2381372117       -1.1994266570
 C         -3.2288610669       -2.1452013361       -0.5755988628
 N         -1.4499253766       -0.4608623829       -0.4494635564
 C         -0.4566349696       -1.0983047936        0.2056750519
 O         -0.6177170039       -1.9528029549        1.0607463156
 C          0.8823125426       -0.6466394488       -0.2203227042
 N          1.0575740473        0.3071363058       -1.1180142164
 N          2.3684622050        0.4887243003       -1.2816972215
 C          3.0875418966       -0.3543719521       -0.4896111319
 C          4.4587533127       -0.5311340219       -0.3095184761
 C          4.8518449142       -1.4857947044        0.5985523193
 C          3.9233949077       -2.2544479704        1.3163840869
 C          2.5704503818       -2.0889960162        1.1476809163
 C          2.1442719989       -1.1244968229        0.2336338845
 C          2.8439596797        1.4880206682       -2.1992209008
 C          2.3847503846        2.8985021950       -1.8134393749
 C          3.1724419025        3.5283010930       -0.6653165210
 C          2.9229102211        2.8717925230        0.6925950240
 C          3.6089368268        3.6385442985        1.8134441387
 F          4.9747966294        3.5976609574        1.6522897809
 H         -6.6118829983        0.1916505016        0.5587661037
 H         -5.3046538458        1.3741550061        0.6598752089
 H         -5.6921128598        0.6876309635       -1.6952711190
 H         -5.2349112698       -1.6569580330       -2.3748618016
 H         -6.5710206881       -1.5875975177       -1.2227059168
 H         -4.9772545563       -3.3993881570       -0.6248398954
 H         -6.1869829437       -2.2176772972        1.1952176709
 H         -4.5764765838       -2.7139068801        1.7277508076
 H         -5.0468076013       -0.3721443594        2.4061402296
 H         -2.7084234521       -1.0356112669        1.8580670831
 H         -3.0038358178        0.6539846173        1.4289507948
 H         -3.3610889269        0.0273450795       -2.2338618332
 H         -3.3898703011        1.2786086596       -0.9813282894
 H         -2.6679325742       -2.7989517050        0.0925849920
 H         -2.9340159002       -2.3741463977       -1.6027938561
 H         -1.1610855256        0.2190705925       -1.1365587362
 H          5.1842503985        0.0558874654       -0.8522313110
 H          5.9057991926       -1.6499706124        0.7676825220
 H          4.2915928419       -2.9897896896        2.0161044848
 H          1.8421929767       -2.6687110602        1.6910457248
 H          2.4538709473        1.2496534937       -3.1952052768
 H          3.9333426010        1.4336635067       -2.2277059588
 H          2.4899523431        3.5354104268       -2.6935131289
 H          1.3253889105        2.8522416917       -1.5543876723
 H          2.8892395119        4.5820291905       -0.5978667913
 H          4.2408226645        3.4897116095       -0.8883152765
 H          1.8528239244        2.8394353183        0.9049753525
 H          3.3060434936        1.8515181109        0.7006629863
 H          3.3289408883        4.6974193625        1.8143800148
 H          3.3976337553        3.1936218573        2.7909073054
  58
        -82.23535734
 C         -5.5171431245       -1.5871081176       -1.3131815124
 C         -4.7622170493       -2.3927389050       -0.2565484901
 C         -5.1893928908       -1.9370872356        1.1376765718
 C         -4.8714291148       -0.4521813620        1.3045543546
 C         -5.6266460937        0.3556556422        0.2497952906
 C         -5.1964381959       -0.1029085144       -1.1428458345
 C         -3.6931255461        0.1183526724       -1.3126219614
 C         -2.9352054327       -0.6876870115       -0.2576203425
 C         -3.2599438422       -2.1765359816       -0.4248708526
 C         -3.3693790228       -0.2312987753        1.1399352203
 N         -1.5083409172       -0.4598779245       -0.4407356038
 C         -0.5233323526       -1.0072103546        0.3023972930
 O         -0.6947778516       -1.7620553712        1.2448837032
 C          0.8200780390       -0.5911274339       -0.1450632696
 N          1.0061024517        0.2484062674       -1.1486189367
 N          2.3189877127        0.4213954712       -1.3079259967
 C          3.0285314628       -0.3091066989       -0.4024477621
 C          4.3970091318       -0.4448081382       -0.1736736964
 C          4.7787497989       -1.2755623224        0.8529558927
 C          3.8418610014       -1.9620269356        1.6399099130
 C          2.4914012181       -1.8360142608        1.4238372658
 C          2.0762949918       -0.9963346178        0.3893083606
 C          2.8053702881        1.3126294072       -2.3235198469
 C          2.5616530654        2.7901284025       -1.9915317334
 C          3.4750655434        3.3544188557       -0.9021124782
 C          3.0467517155        2.9872333199        0.5190294488
 C          3.9908297484        3.5870454931        1.5504218221
 F          5.2500407689        3.0502980408        1.4119710783
 H         -6.5922596054       -1.7477914799       -1.2066498917
 H         -5.2267501384       -1.9187556386       -2.3128482088
 H         -4.9887716427       -3.4576764710       -0.3789261436
 H         -4.6564564454       -2.5157749494        1.8942886384
 H         -6.2600402798       -2.1068126582        1.2738486969
 H         -5.1764968461       -0.1227201576        2.3040027237
 H         -6.7027038596        0.2121995440        0.3703980637
 H         -5.4151944123        1.4204362097        0.3734395007
 H         -5.7338129776        0.4774965179       -1.9019249442
 H         -3.4585408444        1.1803409935       -1.2025902840
 H         -3.3810301012       -0.1980761679       -2.3112788537
 H         -2.7068291861       -2.7448925051        0.3231777277
 H         -2.9362286132       -2.5100918891       -1.4140439919
 H         -3.1242992511        0.8259744414        1.2693270460
 H         -2.8159601106       -0.8022263639        1.8857332623
 H         -1.2111695477        0.1421156276       -1.1938216533
 H          5.1280435094        0.0843380371       -0.7654089167
 H          5.8300015022       -1.4023657043        1.0646107940
 H          4.2012696681       -2.6007019906        2.4329503578
 H          1.7568757301       -2.3536644604        2.0190361030
 H          2.2821731632        1.0718611321       -3.2547679722
 H          3.8719328364        1.1245897321       -2.4600803770
 H          2.7225919850        3.3582620053       -2.9095841268
 H          1.5170252651        2.9118082166       -1.6993150457
 H          3.4809243544        4.4443317500       -0.9863626219
 H          4.4976398313        3.0081392384       -1.0659298805
 H          2.0404868439        3.3605855170        0.7168394170
 H          3.0442672007        1.9062909845        0.6534945060
 H          4.1001347337        4.6693595717        1.4219656984
 H          3.6666071209        3.3607264519        2.5708835915
  58
        -82.23535671
 C         -5.6309933981        0.3075541537        0.4368265091
 C         -5.2418233841       -0.0116406118       -1.0059134484
 C         -5.5609029345       -1.4749361994       -1.3086803081
 C         -4.7699393530       -2.3727065342       -0.3580065749
 C         -5.1559815876       -2.0566213116        1.0859709391
 C         -4.8399561569       -0.5922889844        1.3855295007
 C         -3.3447427650       -0.3452435899        1.1976178709
 C         -2.9516829668       -0.6617008390       -0.2499546725
 C         -3.7454787506        0.2362922916       -1.1989843532
 C         -3.2746066505       -2.1299145708       -0.5501579750
 N         -1.5321450492       -0.4066954424       -0.4531805169
 C         -0.5223917808       -1.0185997124        0.2010947833
 O         -0.6616936902       -1.8683164971        1.0648374073
 C          0.8049923625       -0.5475325730       -0.2396754020
 N          0.9571384427        0.4013863534       -1.1469482638
 N          2.2639747911        0.5973101773       -1.3282173665
 C          3.0035938754       -0.2278085686       -0.5349019354
 C          4.3789137296       -0.3827548870       -0.3683799043
 C          4.7950099328       -1.3223178520        0.5447155944
 C          3.8851345245       -2.0973549082        1.2794086856
 C          2.5281437255       -1.9540651714        1.1231076447
 C          2.0785009624       -1.0046581959        0.2043559274
 C          2.7164161808        1.6033004927       -2.2473824654
 C          2.5286753803        3.0306951458       -1.7177154060
 C          3.4979313682        3.4250344581       -0.6016314192
 C          3.0876116576        2.9212268360        0.7825724111
 C          4.0994148285        3.3355002057        1.8406316679
 F          5.3166273118        2.7440171884        1.5930647265
 H         -6.7021544847        0.1450314406        0.5755437515
 H         -5.4207398714        1.3570731694        0.6560805582
 H         -5.8050261651        0.6350575239       -1.6888879244
 H         -5.3000562182       -1.7066859761       -2.3439949847
 H         -6.6314873834       -1.6531767583       -1.1855563876
 H         -4.9951876008       -3.4226299076       -0.5755249290
 H         -6.2211043076       -2.2468169006        1.2375254665
 H         -4.5972388329       -2.7013094914        1.7668100634
 H         -5.1156187298       -0.3627745272        2.4208314529
 H         -2.7659872236       -0.9812163692        1.8677458924
 H         -3.1006182691        0.6964773031        1.4210074953
 H         -3.4627601318        0.0196998833       -2.2324219210
 H         -3.5125752962        1.2845551401       -0.9943259550
 H         -2.6959915285       -2.7634948918        0.1223542854
 H         -2.9801029758       -2.3641371882       -1.5762490487
 H         -1.2611965978        0.2763003008       -1.1444956460
 H          5.0896191273        0.2129098664       -0.9201984670
 H          5.8527404134       -1.4673014668        0.7061807598
 H          4.2709597427       -2.8196031126        1.9833002931
 H          1.8140471598       -2.5387414667        1.6798207095
 H          2.1370163293        1.4928349227       -3.1696534940
 H          3.7691074742        1.4157556169       -2.4677798012
 H          2.6726088763        3.7082692422       -2.5613021279
 H          1.4995947642        3.1399774219       -1.3705411113
 H          3.5583806178        4.5158455004       -0.5636420971
 H          4.4967019445        3.0502226692       -0.8345585041
 H          2.1149484505        3.3318618813        1.0588839399
 H          3.0160373788        1.8343869593        0.7916277573
 H          4.2743939650        4.4168250957        1.8352582722
 H          3.7923423055        3.0096278932        2.8392078339
  58
        -82.23535309
 C         -5.3935719904       -1.7187095197        1.5978697939
 C         -5.0869047663       -0.2248495418        1.5031392324
 C         -5.6117428010        0.3207677665        0.1758503855
 C         -4.9296530697       -0.4127246077       -0.9783471438
 C         -5.2337068580       -1.9070593366       -0.8872009251
 C         -4.7116400148       -2.4497596466        0.4420667057
 C         -3.2016143225       -2.2366024808        0.5213997706
 C         -2.8908413713       -0.7383043417        0.4296463727
 C         -3.5757770643       -0.0067380846        1.5841141050
 C         -3.4201334827       -0.1947146010       -0.9024824027
 N         -1.4550865115       -0.5145171925        0.5293215411
 C         -0.5221673931       -1.0087878710       -0.3118006352
 O         -0.7555140819       -1.7113386663       -1.2809361543
 C          0.8470187879       -0.6038783291        0.0618309128
 N          1.0976183961        0.1903698796        1.0879718885
 N          2.4172044656        0.3687156730        1.1630786821
 C          3.0661227613       -0.3123802056        0.1773399482
 C          4.4159798937       -0.4238728567       -0.1526857161
 C          4.7302066253       -1.2029723683       -1.2409069701
 C          3.7449301257       -1.8619219858       -1.9914684938
 C          2.4121588356       -1.7589786735       -1.6760778333
 C          2.0652125002       -0.9716710175       -0.5772862495
 C          2.9677681545        1.2191878253        2.1810013629
 C          2.6550965573        2.7031286895        1.9526651759
 C          3.4559312510        3.3541344355        0.8240269513
 C          2.9362610118        3.0262408788       -0.5760559461
 C          3.7519555597        3.7358341204       -1.6464962314
 F          5.0495614949        3.2786693609       -1.6372104735
 H         -6.4732572173       -1.8781167341        1.5545514868
 H         -5.0351882567       -2.1128952401        2.5517113418
 H         -5.5717922342        0.3020627062        2.3332359628
 H         -5.4103430902        1.3924707311        0.1076873807
 H         -6.6933474132        0.1795634357        0.1197291258
 H         -5.3027708723       -0.0207591730       -1.9310812380
 H         -6.3109342336       -2.0735941323       -0.9607999689
 H         -4.7531296091       -2.4324344607       -1.7144745325
 H         -4.9280355100       -3.5216451422        0.5099360844
 H         -2.7002027881       -2.7522309050       -0.2978480576
 H         -2.8107033968       -2.6316396705        1.4624470811
 H         -3.3505180697        1.0614729864        1.5278176715
 H         -3.1956360966       -0.3856271581        2.5363413202
 H         -2.9184562743       -0.7131980044       -1.7197779826
 H         -3.1855791187        0.8700556628       -0.9794422228
 H         -1.1091856377        0.0512746233        1.2896179051
 H          5.1833264365        0.0841636826        0.4110507442
 H          5.7648643660       -1.3101349825       -1.5308238432
 H          4.0520093762       -2.4602679729       -2.8362282151
 H          1.6410520472       -2.2556341101       -2.2421568073
 H          4.0467878145        1.0578731301        2.2131478788
 H          2.5364671960        0.9137978109        3.1401115153
 H          1.5863943074        2.8047371327        1.7551718220
 H          2.8768625472        3.2279438889        2.8837125283
 H          4.5026316538        3.0510721561        0.8948559598
 H          3.4191301977        4.4385588931        0.9571712115
 H          2.9914610138        1.9551528850       -0.7664436173
 H          1.8955138784        3.3397884183       -0.6738873376
 H          3.3589866961        3.5363535138       -2.6482590662
 H          3.8032258971        4.8157638812       -1.4709285962
  58
        -82.23534625
 C         -5.4088648621       -1.7487370226        1.6237049946
 C         -5.1339307737       -0.2500725831        1.5091448767
 C         -5.6792931787        0.2685842496        0.1793537388
 C         -4.9898356761       -0.4641787234       -0.9709349330
 C         -5.2622828850       -1.9633145910       -0.8601096878
 C         -4.7200663682       -2.4793272227        0.4716710301
 C         -3.2143258025       -2.2339769968        0.5375934259
 C         -2.9350785290       -0.7306801450        0.4260800848
 C         -3.6271083417        0.0003020453        1.5767121668
 C         -3.4846494211       -0.2138853098       -0.9083647481
 N         -1.5034264532       -0.4772356023        0.5134332644
 C         -0.5666912892       -0.9638510616       -0.3279620178
 O         -0.7947741985       -1.6695430338       -1.2961457390
 C          0.7996592260       -0.5494666728        0.0456180204
 N          1.0464233126        0.2387527400        1.0773380637
 N          2.3658039922        0.4186432647        1.1567945225
 C          3.0182860121       -0.2560717823        0.1686526477
 C          4.3694188017       -0.3658431752       -0.1568117726
 C          4.6873736253       -1.1374305467       -1.2491772064
 C          3.7047021750       -1.7912151633       -2.0076210771
 C          2.3708680575       -1.6912759667       -1.6957351522
 C          2.0200640908       -0.9113981398       -0.5928203448
 C          2.9126805895        1.2578062658        2.1856439595
 C          2.7073370286        2.7545505165        1.9181794297
 C          3.6042516578        3.3313193302        0.8212284361
 C          3.0954618029        3.0703216179       -0.5968762182
 C          4.0521126725        3.6355604122       -1.6361990364
 F          5.2644691091        2.9886677319       -1.5688167236
 H         -6.4853035208       -1.9309528985        1.5901416032
 H         -5.0356832460       -2.1240667216        2.5794896257
 H         -5.6239115104        0.2765463678        2.3364561076
 H         -5.5009447233        1.3433766447        0.0971680653
 H         -6.7580923978        0.1040732675        0.1326761382
 H         -5.3775354876       -0.0914279559       -1.9255157650
 H         -6.3363350985       -2.1529236203       -0.9241677704
 H         -4.7765541806       -2.4884963816       -1.6845058605
 H         -4.9137337404       -3.5545865757        0.5537293994
 H         -2.7081695315       -2.7487693227       -0.2793092551
 H         -2.8087197622       -2.6098582615        1.4803062606
 H         -3.4244350384        1.0721453687        1.5061639554
 H         -3.2327694312       -0.3591985590        2.5307123260
 H         -2.9778212149       -0.7312389673       -1.7231643990
 H         -3.2729653093        0.8545289610       -0.9991583125
 H         -1.1617980104        0.0887880591        1.2754888833
 H          5.1347063313        0.1394372315        0.4117459704
 H          5.7229597782       -1.2414592793       -1.5366003849
 H          4.0145564703       -2.3832381076       -2.8558738534
 H          1.6017915360       -2.1848140372       -2.2672838593
 H          3.9766183473        1.0320991739        2.2813572497
 H          2.4104257450        0.9976112569        3.1228329428
 H          1.6585653087        2.9224569718        1.6666253646
 H          2.9169003856        3.2795344742        2.8519493102
 H          4.6110897186        2.9201779099        0.9187300367
 H          3.6771856218        4.4125706344        0.9643537195
 H          2.9928730747        2.0012704726       -0.7785540930
 H          2.1196224852        3.5379560659       -0.7382804751
 H          3.6754676420        3.4854588856       -2.6526718162
 H          4.2585046670        4.6975339779       -1.4645824597
  58
        -82.23533216
 C         -5.5646473269        0.2262427025        0.4426747540
 C         -5.1905968236       -0.1009578119       -1.0022485082
 C         -5.5474439344       -1.5554577451       -1.3051189240
 C         -4.7745734039       -2.4739372231       -0.3592972342
 C         -5.1459427944       -2.1500409096        1.0867947795
 C         -4.7920523956       -0.6944325690        1.3865634680
 C         -3.2921003780       -0.4848283191        1.1917942406
 C         -2.9138950257       -0.8091719275       -0.2580180552
 C         -3.6895095954        0.1095956690       -1.2022268580
 C         -3.2744724902       -2.2684624587       -0.5583712755
 N         -1.4897437148       -0.5877791337       -0.4669040031
 C         -0.4916458227       -1.2161371082        0.1896105798
 O         -0.6460906256       -2.0684291128        1.0478537087
 C          0.8436904158       -0.7567130654       -0.2409046125
 N          1.0111313491        0.1508524623       -1.1863966876
 N          2.3210985752        0.3487730524       -1.3450765569
 C          3.0456556254       -0.4252757529       -0.4905847856
 C          4.4170945343       -0.5644468926       -0.2864889190
 C          4.8179935862       -1.4625611319        0.6741916565
 C          3.8963217344       -2.2114868813        1.4206432632
 C          2.5426138164       -2.0846946310        1.2263016835
 C          2.1090874731       -1.1793354189        0.2570970853
 C          2.7878652161        1.3339009656       -2.2795463588
 C          2.6792396736        2.7524592362       -1.7091991657
 C          3.6135161971        2.9753642133       -0.5233195295
 C          3.4731636468        4.3862429987        0.0453569850
 C          4.3817678238        4.6035916788        1.2464408788
 F          3.9996224953        3.7960751628        2.2902578937
 H         -6.6389590450        0.0909235270        0.5863730410
 H         -5.3265811113        1.2697212421        0.6620428284
 H         -5.7407670386        0.5604202115       -1.6818746630
 H         -5.2974302084       -1.7922946686       -2.3419603380
 H         -6.6215493653       -1.7071255166       -1.1769499105
 H         -5.0271990307       -3.5176450484       -0.5769635911
 H         -6.2148208272       -2.3138297493        1.2430309215
 H         -4.6003200123       -2.8092429294        1.7643072794
 H         -5.0569482637       -0.4594125922        2.4233872899
 H         -2.7263218360       -1.1358846454        1.8584964369
 H         -3.0205198308        0.5499287994        1.4153895489
 H         -3.4171339306       -0.1126033742       -2.2372841494
 H         -3.4294578172        1.1513672428       -0.9972570250
 H         -2.7085088278       -2.9169276055        0.1106803165
 H         -2.9908119016       -2.5087375814       -1.5861477605
 H         -1.2057181100        0.0920233648       -1.1560219463
 H          5.1357267885        0.0074661820       -0.8539217776
 H          5.8729428333       -1.5973377545        0.8635711577
 H          4.2702440726       -2.9008225851        2.1628916561
 H          1.8195264121       -2.6522765886        1.7889794462
 H          2.1718697099        1.2572400701       -3.1801112366
 H          3.8240728353        1.1025586143       -2.5357778604
 H          2.9147360214        3.4650400186       -2.5022251069
 H          1.6461696840        2.9192457227       -1.3984513583
 H          4.6479050431        2.8158054753       -0.8385891345
 H          3.3876124695        2.2550598102        0.2652110212
 H          3.7287391269        5.1271011901       -0.7144475159
 H          2.4396069715        4.5538931717        0.3541232723
 H          5.4214435191        4.3459912667        1.0181521905
 H          4.3237749089        5.6338103535        1.6128101049
  58
        -82.23532472
 C         -5.0059103290       -1.9068337282        0.5063624246
 C         -4.5771335923       -0.6070599438        1.1850656595
 C         -5.2983263869        0.5730926092        0.5350041958
 C         -4.9380846634        0.6314734905       -0.9487820463
 C         -5.3696928190       -0.6661922736       -1.6302991123
 C         -4.6485545985       -1.8449797602       -0.9777172773
 C         -3.1392456217       -1.6701567462       -1.1311222599
 C         -2.7038351364       -0.3673568801       -0.4508045648
 C         -3.0676685219       -0.4290533693        1.0369437126
 C         -3.4274388484        0.8115422260       -1.1016683348
 N         -1.2687052690       -0.1705794409       -0.6089021125
 C         -0.3081281857       -1.0089569879       -0.1658575531
 O         -0.5096474388       -2.0448899186        0.4445068664
 C          1.0523474905       -0.5356541944       -0.4898835511
 N          1.2786325930        0.6015158257       -1.1250643619
 N          2.5979928072        0.7420050818       -1.2687215639
 C          3.2696187129       -0.2994696151       -0.7048936296
 C          4.6298076465       -0.5810905293       -0.5939252405
 C          4.9739853199       -1.7463186731        0.0506108252
 C          4.0071005500       -2.6185076218        0.5725469651
 C          2.6638130205       -2.3528912707        0.4634328630
 C          2.2873710503       -1.1750694132       -0.1832311804
 C          3.1483388018        1.9546990675       -1.8032105484
 C          3.5675106923        2.9069066506       -0.6758028002
 C          2.3660833574        3.3482806349        0.1741117370
 C          2.6339331887        3.2755495172        1.6766158120
 C          2.6495547675        1.8383701765        2.1831046367
 F          2.8882396857        1.8237686774        3.5363663219
 H         -6.0821877433       -2.0519868761        0.6249469834
 H         -4.4973968125       -2.7521668530        0.9734308439
 H         -4.8317143601       -0.6488007319        2.2498129056
 H         -5.0072749493        1.5045990894        1.0261719883
 H         -6.3784892770        0.4583471344        0.6489679511
 H         -5.4508522439        1.4795608175       -1.4173670303
 H         -6.4505098644       -0.7918543292       -1.5355352890
 H         -5.1297730049       -0.6255094836       -2.6954204236
 H         -4.9546121621       -2.7762100691       -1.4670954606
 H         -2.8658518424       -1.6369737789       -2.1888374140
 H         -2.6103657561       -2.5041716921       -0.6693544033
 H         -2.7438872523        0.4915868494        1.5290375376
 H         -2.5387056197       -1.2642589967        1.4963349275
 H         -3.1646699653        0.8647365392       -2.1614481489
 H         -3.1140360380        1.7441291086       -0.6251664662
 H         -0.9508481197        0.6425027100       -1.1143669775
 H          5.3799187563        0.0837489027       -0.9952492834
 H          6.0180273579       -2.0002124220        0.1611354085
 H          4.3374456827       -3.5181119463        1.0697909069
 H          1.9077860471       -3.0125293573        0.8568147286
 H          2.3766447620        2.4181060866       -2.4215305263
 H          4.0092807232        1.7066440848       -2.4304473204
 H          4.3002834361        2.3953206384       -0.0502979604
 H          4.0614955134        3.7726129094       -1.1180191840
 H          1.5070121061        2.7129468419       -0.0535606245
 H          2.0916702026        4.3713220380       -0.0856226791
 H          3.5883998171        3.7495376119        1.9153130415
 H          1.8514192915        3.8144890759        2.2143520503
 H          1.6837030482        1.3460529596        2.0265666978
 H          3.4432069876        1.2394244803        1.7245383301
  58
        -82.23530854
 C         -5.4491295021        0.3537983296        0.3835973263
 C         -5.0532304820        0.0211053269       -1.0542222673
 C         -5.4166457338       -1.4310183528       -1.3608583574
 C         -4.6677701355       -2.3540868468       -0.4003596613
 C         -5.0605944454       -2.0244727897        1.0387347413
 C         -4.6999195342       -0.5712129529        1.3419157085
 C         -3.1951493911       -0.3737125705        1.1722030202
 C         -2.7954908464       -0.7040961428       -0.2702632167
 C         -3.5472642386        0.2194061246       -1.2288830232
 C         -3.1629007543       -2.1610937071       -0.5739756787
 N         -1.3656844678       -0.4961086552       -0.4566892740
 C         -0.3848678885       -1.1341004399        0.2149972466
 O         -0.5599445704       -1.9648110303        1.0905667982
 C          0.9631198681       -0.7165861184       -0.2192808688
 N          1.1596688630        0.1847289595       -1.1648849852
 N          2.4741009187        0.3400874176       -1.3253661611
 C          3.1745019939       -0.4651597972       -0.4795124863
 C          4.5412219257       -0.6490208071       -0.2754491375
 C          4.9133791400       -1.5589840571        0.6859373424
 C          3.9682481666       -2.2763564919        1.4342228811
 C          2.6191863579       -2.1037654792        1.2422148125
 C          2.2144341326       -1.1847799041        0.2733935767
 C          2.9745729731        1.2881763192       -2.2814965291
 C          2.6551440296        2.7379352242       -1.9007467279
 C          3.4397139235        3.2661451874       -0.6993356923
 C          2.9231862512        2.7648342379        0.6503051247
 C          3.5865779382        3.5029244578        1.8037674510
 F          3.2563407330        4.8382624358        1.7783280781
 H         -6.5266449352        0.2268235204        0.5092600124
 H         -5.2069718501        1.3958148857        0.6052897636
 H         -5.5862301876        0.6856635113       -1.7441343236
 H         -5.1508391981       -1.6717917426       -2.3928751641
 H         -6.4939102126       -1.5738377364       -1.2509602124
 H         -4.9250362249       -3.3960945424       -0.6205782474
 H         -6.1331946854       -2.1791350868        1.1770969146
 H         -4.5320771185       -2.6870975194        1.7264906933
 H         -4.9802230180       -0.3322105646        2.3737678935
 H         -2.6461244846       -1.0277063119        1.8498938864
 H         -2.9197357816        0.6595170731        1.3980072441
 H         -3.2594729618       -0.0067308851       -2.2589044816
 H         -3.2823604911        1.2593263287       -1.0211283212
 H         -2.6141292033       -2.8131030554        0.1059935796
 H         -2.8637422112       -2.4058112449       -1.5963146010
 H         -1.0648657237        0.1580515719       -1.1634183886
 H          5.2790874502       -0.1027303476       -0.8437691978
 H          5.9635190234       -1.7290719700        0.8731240839
 H          4.3200729314       -2.9785434060        2.1751221003
 H          1.8781517899       -2.6460709542        1.8064391357
 H          2.5119273947        1.0695096212       -3.2499875273
 H          4.0531439247        1.1449283469       -2.3681248710
 H          2.8836259576        3.3595779293       -2.7684066747
 H          1.5846985880        2.8150484939       -1.7036983560
 H          3.3676037347        4.3559852939       -0.6990973343
 H          4.4955072268        3.0048322787       -0.8062136715
 H          1.8440127253        2.9204486633        0.7083051698
 H          3.1247306452        1.7026826885        0.7846254620
 H          3.2512004581        3.1169945036        2.7713659434
 H          4.6785887207        3.4523816385        1.7393079871
  58
        -82.23529658
 C         -5.3136580183       -1.4642396532       -1.3508753479
 C         -4.6226898926       -2.1559262363       -0.1763982313
 C         -5.0390850374       -1.4845129978        1.1312409614
 C         -4.6333651575       -0.0121270012        1.0960066839
 C         -5.3237427505        0.6822699723       -0.0773480722
 C         -4.9048314331        0.0076366637       -1.3828120915
 C         -3.3886998954        0.1140295844       -1.5497170281
 C         -2.6955495581       -0.5785407492       -0.3762902427
 C         -3.1079273542       -2.0543075105       -0.3416062018
 C         -3.1185682196        0.0945491113        0.9344779049
 N         -1.2546429441       -0.4612095318       -0.5587008986
 C         -0.3147265337       -0.9699330590        0.2655068429
 O         -0.5425814936       -1.6105814978        1.2774245170
 C          1.0586077953       -0.6645245278       -0.1826594742
 N          1.3117539935        0.1046679149       -1.2275874540
 N          2.6359740630        0.1867635475       -1.3724778498
 C          3.2829796569       -0.5163029921       -0.4024788741
 C          4.6372458778       -0.7124597495       -0.1394344610
 C          4.9538301302       -1.4970713124        0.9449060673
 C          3.9656556043       -2.0795492028        1.7524909700
 C          2.6281144853       -1.8975298438        1.4980012423
 C          2.2794333271       -1.1027072363        0.4054066100
 C          3.2090323961        1.0791489215       -2.3391618594
 C          3.6042231015        2.4096931714       -1.6856237156
 C          2.3847945583        3.1502582330       -1.1154384859
 C          2.6196945762        3.7002420321        0.2906420255
 C          2.6227493225        2.5963863528        1.3412886380
 F          2.8343303158        3.1388662366        2.5860944465
 H         -6.3978047876       -1.5446793770       -1.2455075236
 H         -5.0316638234       -1.9498582787       -2.2880484923
 H         -4.9119237845       -3.2123754725       -0.1535101984
 H         -4.5523935461       -1.9812982928        1.9724636139
 H         -6.1197050910       -1.5703112132        1.2668646487
 H         -4.9304999587        0.4721468555        2.0327446358
 H         -6.4079622304        0.6209018375        0.0391873860
 H         -5.0490576026        1.7395137231       -0.0992609860
 H         -5.3956530776        0.5060398603       -2.2268626426
 H         -3.0916222605        1.1655462231       -1.5843689745
 H         -3.0834210265       -0.3578093994       -2.4872638972
 H         -2.6004221336       -2.5442785796        0.4894361975
 H         -2.7928856296       -2.5413256571       -1.2678842906
 H         -2.8112334312        1.1434113997        0.9207689448
 H         -2.6113878771       -0.3977680660        1.7645905069
 H         -0.9146058236        0.0536254968       -1.3568039180
 H          5.4036830871       -0.2701889308       -0.7581000870
 H          5.9922943662       -1.6712627188        1.1855723008
 H          4.2746548257       -2.6844959392        2.5916556150
 H          1.8561217310       -2.3384792775        2.1071661427
 H          2.4570297888        1.2468320871       -3.1130315937
 H          4.0849412157        0.6017386198       -2.7876521050
 H          4.3201371550        2.2006976810       -0.8895949399
 H          4.1114679167        3.0249058073       -2.4294336271
 H          1.5298468590        2.4710093473       -1.0812515669
 H          2.1174433754        3.9756771369       -1.7762019134
 H          3.5693733624        4.2377561786        0.3339321796
 H          1.8263528377        4.4058759853        0.5448746796
 H          1.6594988960        2.0765173122        1.3818924324
 H          3.4245926360        1.8676592474        1.1834017217
  58
        -82.23531640
 C         -5.0681451507       -2.1860311168        0.5737411224
 C         -4.6772935664       -0.8716504986        1.2472279014
 C         -5.4415472580        0.2830883563        0.6007719365
 C         -5.0943989723        0.3505653518       -0.8857493282
 C         -5.4882133035       -0.9618097375       -1.5620014919
 C         -4.7238744512       -2.1150897382       -0.9130258070
 C         -3.2223035866       -1.8909758992       -1.0779326327
 C         -2.8247652483       -0.5733134460       -0.4029673786
 C         -3.1756265666       -0.6445076916        1.0875827557
 C         -3.5916744388        0.5799113619       -1.0502054267
 N         -1.3983799707       -0.3306681422       -0.5727927933
 C         -0.4071725155       -1.1335968230       -0.1336337532
 O         -0.5680892895       -2.1777943854        0.4755779150
 C          0.9334575854       -0.6116731923       -0.4657084706
 N          1.1151719925        0.5284444271       -1.1079061261
 N          2.4266373063        0.7210810063       -1.2513142234
 C          3.1401335813       -0.2989719521       -0.6989675317
 C          4.5095936051       -0.5373176110       -0.5947686634
 C          4.8967923298       -1.6911185783        0.0451665208
 C          3.9637341526       -2.5955699312        0.5735622028
 C          2.6120153675       -2.3718089917        0.4767060844
 C          2.1920873730       -1.2070785110       -0.1668414214
 C          2.9136733691        1.9133018479       -1.8867058388
 C          2.6774155560        3.1733295023       -1.0462813843
 C          3.5103179841        3.2456475403        0.2347415674
 C          2.9470957638        2.4147524078        1.3890243750
 C          3.7007646952        2.6849920560        2.6829065809
 F          3.5320410001        3.9921460887        3.0778480061
 H         -6.1381944072       -2.3662193872        0.7005580982
 H         -4.5286950179       -3.0134176350        1.0383262675
 H         -4.9226947638       -0.9198669008        2.3139348610
 H         -5.1773546317        1.2244455677        1.0882947615
 H         -6.5165161994        0.1332884797        0.7231238377
 H         -5.6383424047        1.1804632219       -1.3516984528
 H         -6.5636115734       -1.1227760961       -1.4589934863
 H         -5.2576139944       -0.9151767437       -2.6289199918
 H         -5.0028166453       -3.0567975649       -1.3986133820
 H         -2.9580537998       -1.8506143381       -2.1376789659
 H         -2.6626135558       -2.7062374287       -0.6189592066
 H         -2.8782514008        0.2869789713        1.5758574117
 H         -2.6159899314       -1.4612829305        1.5438842418
 H         -3.3384877685        0.6398252291       -2.1118898145
 H         -3.3055305881        1.5230505982       -0.5774861082
 H         -1.1089451521        0.5002841985       -1.0663823857
 H          5.2381411159        0.1508321824       -0.9965252922
 H          5.9495568685       -1.9108428752        0.1459358701
 H          4.3271161977       -3.4855849142        1.0651037342
 H          1.8801009103       -3.0549556986        0.8756909702
 H          2.3903670261        2.0250195728       -2.8421453472
 H          3.9792339713        1.7811649410       -2.0835519042
 H          2.9228885576        4.0311373885       -1.6750700447
 H          1.6163398450        3.2307292931       -0.7983530522
 H          3.5447654239        4.2870305950        0.5621966747
 H          4.5358555103        2.9315262070        0.0252638572
 H          1.8944877574        2.6643107078        1.5373812065
 H          3.0214268240        1.3470797964        1.1861852401
 H          3.3276293764        2.0611926176        3.5010668791
 H          4.7784876632        2.5345721314        2.5599739366
  58
        -82.23527385
 C         -5.4386491781       -1.4383753385       -1.3207264406
 C         -4.7073347692       -2.2518306819       -0.2535329908
 C         -5.1217366462       -1.7664758053        1.1345108355
 C         -4.7614128316       -0.2892976580        1.2828206814
 C         -5.4926840748        0.5264195419        0.2172871764
 C         -5.0754030346        0.0380097983       -1.1691173418
 C         -3.5663140856        0.2137620678       -1.3406540193
 C         -2.8320494380       -0.6001235323       -0.2749740390
 C         -3.1994608638       -2.0809584028       -0.4236498100
 C         -3.2536349098       -0.1137557090        1.1164016197
 N         -1.3993916846       -0.4153058644       -0.4594083002
 C         -0.4302508632       -0.9832800539        0.2899425142
 O         -0.6245531403       -1.7289175924        1.2354128255
 C          0.9235949508       -0.6003912747       -0.1530816392
 N          1.1318366036        0.2421406042       -1.1516095201
 N          2.4483979860        0.3852239889       -1.3051932514
 C          3.1382406937       -0.3624925903       -0.3999724786
 C          4.5027912631       -0.5308099868       -0.1758680995
 C          4.8651396595       -1.3752106177        0.8464723968
 C          3.9124935352       -2.0427374239        1.6310254699
 C          2.5651111436       -1.8875651701        1.4151861185
 C          2.1693290961       -1.0340667185        0.3842984739
 C          2.9699047068        1.3039901869       -2.2753865781
 C          3.4928506310        2.6017744162       -1.6472221684
 C          2.4202058683        3.3625181026       -0.8587424516
 C          2.3154017690        2.9716727830        0.6186561440
 C          3.5078180630        3.4082789741        1.4594237359
 F          4.6059157057        2.6068178392        1.2428065866
 H         -6.5180064317       -1.5667087442       -1.2128004772
 H         -5.1576935820       -1.7908953042       -2.3159240779
 H         -4.9643759635       -3.3112673565       -0.3624866758
 H         -4.6058426162       -2.3505487840        1.8987584696
 H         -6.1968776766       -1.9037475437        1.2720868241
 H         -5.0573508324        0.0614805675        2.2777512935
 H         -6.5724749853        0.4155438233        0.3389306132
 H         -5.2507159155        1.5861979108        0.3275359476
 H         -5.5956738908        0.6239160855       -1.9358639704
 H         -3.3013899286        1.2699612183       -1.2440160105
 H         -3.2630397441       -0.1242815527       -2.3349153107
 H         -2.6628909910       -2.6554247606        0.3317019124
 H         -2.8851821988       -2.4360402351       -1.4083324198
 H         -2.9781559314        0.9376187671        1.2326718853
 H         -2.7170071200       -0.6910261924        1.8695714938
 H         -1.0848324908        0.1795442338       -1.2109825139
 H          5.2416717753       -0.0189542026       -0.7721217155
 H          5.9130295048       -1.5296440164        1.0570130498
 H          4.2572284146       -2.6922521046        2.4220106943
 H          1.8197359305       -2.3929343783        2.0075833802
 H          2.1513077764        1.5264932854       -2.9644435692
 H          3.7777863551        0.8146920793       -2.8292721097
 H          4.3388982639        2.3745645107       -1.0014557042
 H          3.8556975465        3.2296184364       -2.4631936227
 H          1.4490209067        3.1944623833       -1.3291237032
 H          2.6306715375        4.4333991267       -0.9116680347
 H          1.4309915153        3.4510623947        1.0427738279
 H          2.1926074426        1.8953288914        0.7305837459
 H          3.8201818710        4.4306607018        1.2209590906
 H          3.2823322438        3.3263331872        2.5273806409
  58
        -82.23524492
 C         -5.5611263213       -0.7755444543       -1.0641318235
 C         -4.7936272218       -2.0953874533       -0.9980232880
 C         -5.1742157925       -2.8464152054        0.2767480234
 C         -4.8232260098       -1.9905408902        1.4925640908
 C         -5.5905923151       -0.6704784100        1.4293628366
 C         -5.2071118342        0.0773252914        0.1532693245
 C         -3.7049197945        0.3620753937        0.1591440348
 C         -2.9346329917       -0.9568914234        0.2237884704
 C         -3.2924788699       -1.8150455157       -0.9949909868
 C         -3.3221478919       -1.7100695055        1.5015115961
 N         -1.5090796351       -0.6581780948        0.2281932205
 C         -0.5151830547       -1.5699731767        0.2793070762
 O         -0.6754967223       -2.7782539657        0.3198762887
 C          0.8237787830       -0.9487774435        0.2803131440
 N          1.0017699354        0.3601577986        0.2281327178
 N          2.3128361944        0.6017247619        0.2573626841
 C          3.0285420525       -0.5547741578        0.3162701922
 C          4.3989645611       -0.8019756665        0.3645224170
 C          4.7922761341       -2.1179658133        0.4325252722
 C          3.8636979574       -3.1693415663        0.4535805730
 C          2.5107250160       -2.9359365181        0.4093796691
 C          2.0843823745       -1.6091136968        0.3392976177
 C          2.8132052574        1.9424785262        0.1458230839
 C          3.2404741216        2.2564423434       -1.2927366824
 C          3.9157083241        3.6190614817       -1.4268386556
 C          2.9623015088        4.7900446173       -1.1903574974
 C          3.6647954942        6.1263692626       -1.3820216693
 F          4.6374747588        6.2952804098       -0.4246652676
 H         -6.6358797601       -0.9697514233       -1.0797965637
 H         -5.3044534674       -0.2404057560       -1.9814453755
 H         -5.0440027134       -2.7071880118       -1.8717973421
 H         -4.6324773557       -3.7928306458        0.3230422974
 H         -6.2439136119       -3.0686521060        0.2733987065
 H         -5.0948731084       -2.5269713693        2.4084537099
 H         -6.6656425473       -0.8635699766        1.4360228666
 H         -5.3549186793       -0.0599140735        2.3041885720
 H         -5.7534115745        1.0266851664        0.1068371234
 H         -3.4469692631        0.9810569654        1.0223888574
 H         -3.4258776461        0.9066158080       -0.7466855485
 H         -2.7304351886       -2.7479252574       -0.9474308512
 H         -3.0021764943       -1.2886757701       -1.9077788703
 H         -3.0528396784       -1.1087858369        2.3735260916
 H         -2.7601968262       -2.6432147420        1.5456073804
 H         -1.2212327381        0.3083363465        0.2028715506
 H          5.1198630925        0.0014309437        0.3509911903
 H          5.8458668580       -2.3532468046        0.4711758469
 H          4.2318518240       -4.1830870094        0.5075215661
 H          1.7836280046       -3.7313731289        0.4275225547
 H          3.6644760131        2.0602873887        0.8231311868
 H          2.0080795002        2.6075903444        0.4624875384
 H          3.9370998507        1.4819263136       -1.6213788509
 H          2.3630067572        2.2112669452       -1.9411388076
 H          4.3312846278        3.7031913151       -2.4337177756
 H          4.7444800548        3.6877585881       -0.7193542261
 H          2.1259299856        4.7404467076       -1.8892992316
 H          2.5673027840        4.7542685239       -0.1744534009
 H          4.1698133240        6.1834854139       -2.3518765673
 H          2.9710536551        6.9659508697       -1.2711682987
  58
        -82.23523508
 C         -5.5894209085       -1.6446384483       -1.1961344440
 C         -4.8021366247       -2.6116047985       -0.3126310179
 C         -5.1868686780       -2.3984990970        1.1504266641
 C         -4.8648810164       -0.9607675394        1.5543511782
 C         -5.6523828420        0.0080545859        0.6730575817
 C         -5.2646171461       -0.2081674787       -0.7890217624
 C         -3.7673214437        0.0469695003       -0.9642453784
 C         -2.9771122959       -0.9201382499       -0.0825068732
 C         -3.3057981437       -2.3617200401       -0.4872533315
 C         -3.3686751729       -0.7068590728        1.3841670416
 N         -1.5566600929       -0.6564735903       -0.2676123251
 C         -0.5488794172       -1.3140342678        0.3437008469
 O         -0.6902136009       -2.2188090240        1.1491364643
 C          0.7800341932       -0.8185556244       -0.0656345825
 N          0.9352376895        0.1739161015       -0.9242818004
 N          2.2428000957        0.3777340529       -1.0923889650
 C          2.9789759944       -0.4805447613       -0.3335460451
 C          4.3536558435       -0.6501450866       -0.1777068347
 C          4.7672568010       -1.6402873251        0.6819305228
 C          3.8553693073       -2.4499266688        1.3755880066
 C          2.4989098645       -2.2935611288        1.2278569604
 C          2.0522016516       -1.2951653139        0.3611873745
 C          2.6984157151        1.4444780405       -1.9389938708
 C          2.6336016441        2.8026840707       -1.2305950411
 C          3.6188715510        2.8902469255       -0.0669653547
 C          3.5042791117        4.1957185251        0.7224070593
 C          4.0039012742        5.4077833532       -0.0518259083
 F          5.3361076486        5.2633069199       -0.3618552255
 H         -6.6606831366       -1.8270684411       -1.0858928129
 H         -5.3294336340       -1.8023824169       -2.2455004029
 H         -5.0316668430       -3.6422466098       -0.6050187281
 H         -4.6308112963       -3.0927429318        1.7830206765
 H         -6.2527627229       -2.5947516199        1.2881642328
 H         -5.1395397126       -0.8051718377        2.6035689981
 H         -6.7241712760       -0.1596801619        0.8001205627
 H         -5.4378640310        1.0382300972        0.9670903204
 H         -5.8252694502        0.4881330030       -1.4236086498
 H         -3.5301640319        1.0768029159       -0.6847143157
 H         -3.4855952158       -0.0958551220       -2.0107064503
 H         -2.7297804070       -3.0442368743        0.1379598421
 H         -3.0122014756       -2.5229345308       -1.5275895115
 H         -3.1202978407        0.3150931232        1.6816412414
 H         -2.7924291208       -1.3915282592        2.0067612644
 H         -1.2833846689        0.0671295867       -0.9153264098
 H          5.0645210059       -0.0323147449       -0.7048380847
 H          5.8248384264       -1.8022244311        0.8303759342
 H          4.2393055967       -3.2114741942        2.0379007145
 H          1.7832173868       -2.9069455022        1.7505849712
 H          2.0534963054        1.4650270334       -2.8220671046
 H          3.7222551992        1.2259654943       -2.2497224587
 H          2.8485691072        3.5763666075       -1.9684316246
 H          1.6159364071        2.9519069867       -0.8631322584
 H          4.6397832913        2.7967604130       -0.4429133046
 H          3.4367829981        2.0597641509        0.6181318957
 H          2.4657285871        4.3762253721        1.0041821999
 H          4.0958852886        4.1077420979        1.6356588710
 H          3.4763120420        5.5396576641       -1.0010272327
 H          3.9207028588        6.3210196486        0.5461594477
  58
        -82.23521250
 C         -5.2607531097       -2.6381200219        0.4295440577
 C         -4.8942515055       -1.5564769449        1.4442579531
 C         -5.7561851124       -0.3171407896        1.2064187854
 C         -5.5093936142        0.2075069108       -0.2073046925
 C         -5.8790600685       -0.8717113912       -1.2238486608
 C         -5.0170019865       -2.1104433736       -0.9832866726
 C         -3.5425385902       -1.7470032720       -1.1438154759
 C         -3.1691115467       -0.6620227979       -0.1271592784
 C         -3.4195294112       -1.1916025676        1.2894907871
 C         -4.0339869664        0.5758329092       -0.3659042899
 N         -1.7712578335       -0.2848918675       -0.2835992103
 C         -0.7135578908       -1.1131795184       -0.1489017689
 O         -0.7849245255       -2.2976187985        0.1329484619
 C          0.5730192014       -0.4285200023       -0.3807993786
 N          0.6485773165        0.8557324807       -0.6836119284
 N          1.9358437508        1.1704923381       -0.8405242452
 C          2.7391826426        0.0896495815       -0.6330092577
 C          4.1222155483       -0.0758147682       -0.6844006435
 C          4.6115093989       -1.3326157271       -0.4185123260
 C          3.7660046725       -2.4096751940       -0.1138681748
 C          2.4016111524       -2.2604672110       -0.0666101216
 C          1.8789056991       -0.9934571884       -0.3292881770
 C          2.3040634275        2.5295542097       -1.1236456381
 C          2.3257885315        3.3839015175        0.1506390511
 C          3.5004531228        3.0609783891        1.0743288064
 C          4.8113484646        3.6825335732        0.5917998733
 C          5.9930281842        3.2444616583        1.4447805975
 F          6.2560527349        1.9099869760        1.2453333535
 H         -6.3099443673       -2.9195095344        0.5468056257
 H         -4.6510808873       -3.5269598633        0.6015558651
 H         -5.0678361312       -1.9324617287        2.4586831936
 H         -5.5091413658        0.4550258353        1.9388439618
 H         -6.8121490810       -0.5684213338        1.3285727530
 H         -6.1237799519        1.0990164614       -0.3797126776
 H         -6.9361469601       -1.1279157478       -1.1234599681
 H         -5.7202065048       -0.4981613192       -2.2381994691
 H         -5.2788095769       -2.8844684135       -1.7132598731
 H         -3.3493480529       -1.3794750649       -2.1548188164
 H         -2.9135723439       -2.6211546335       -0.9741907780
 H         -3.1385408643       -0.4269347722        2.0180784164
 H         -2.7906440783       -2.0664290433        1.4555909286
 H         -3.8530901060        0.9620062857       -1.3723987785
 H         -3.7657972161        1.3555535593        0.3517418217
 H         -1.5557082153        0.6704052990       -0.5259631734
 H          4.7883039925        0.7412779874       -0.9117430067
 H          5.6785887465       -1.4956382998       -0.4405788597
 H          4.2079455293       -3.3744086627        0.0865612490
 H          1.7354027520       -3.0759181101        0.1636665411
 H          1.5591498233        2.9335923467       -1.8148607894
 H          3.2786411712        2.5290543335       -1.6145300430
 H          2.3615547944        4.4379645624       -0.1310266113
 H          1.3875701076        3.2084972045        0.6801593174
 H          3.6193689266        1.9787863345        1.1526997150
 H          3.2824697675        3.4419216085        2.0745010973
 H          5.0111577239        3.3944843044       -0.4417779336
 H          4.7447698719        4.7712695343        0.6318708911
 H          6.9068838747        3.7836153802        1.1740702308
 H          5.7883901153        3.3671752768        2.5131300964
  58
        -82.23517709
 C         -5.0569991807       -2.3151437709        0.5910263816
 C         -4.6653384365       -0.9973914876        1.2573573174
 C         -5.4199186493        0.1555969400        0.5965936898
 C         -5.0617358567        0.2102848702       -0.8878135822
 C         -5.4562309365       -1.1054862991       -1.5569824748
 C         -4.7015852812       -2.2569507522       -0.8936485645
 C         -3.1979169275       -2.0404836099       -1.0492754615
 C         -2.7995771013       -0.7194694602       -0.3814216342
 C         -3.1615738103       -0.7778454542        1.1069955221
 C         -3.5568830493        0.4319860177       -1.0429667438
 N         -1.3709234755       -0.4842022241       -0.5429913139
 C         -0.3863681149       -1.2897165532       -0.0931743218
 O         -0.5569783175       -2.3291896472        0.5211823821
 C          0.9592465183       -0.7782977761       -0.4224717898
 N          1.1513021079        0.3595376696       -1.0658131118
 N          2.4655638063        0.5359083597       -1.2155374851
 C          3.1688986190       -0.4884564776       -0.6583556534
 C          4.5354786291       -0.7452908187       -0.5646907753
 C          4.9113210177       -1.9055004333        0.0704143408
 C          3.9697956499       -2.7984337511        0.6034128184
 C          2.6205991124       -2.5571645256        0.5146621192
 C          2.2124043464       -1.3859164178       -0.1247455898
 C          2.9614439256        1.7367624655       -1.8274389385
 C          2.9311760445        2.9187061833       -0.8514387535
 C          3.8966816960        2.7239492664        0.3164595792
 C          3.9225347892        3.9131237306        1.2744520319
 C          2.6275333430        4.0585377244        2.0622406183
 F          2.7608234067        5.0567679340        2.9981922931
 H         -6.1287026481       -2.4897832207        0.7113813896
 H         -4.5245123548       -3.1412395224        1.0657727974
 H         -4.9186972914       -1.0364234725        2.3225554835
 H         -5.1553552411        1.0995211732        1.0789224452
 H         -6.4963489595        0.0112052933        0.7121823174
 H         -5.5986827691        1.0389248848       -1.3640121460
 H         -6.5330194060       -1.2610883188       -1.4606600883
 H         -5.2176090717       -1.0679901468       -2.6224930618
 H         -4.9809670217       -3.2011328094       -1.3741014792
 H         -2.9257179968       -2.0092933584       -2.1073151080
 H         -2.6451263757       -2.8545849640       -0.5800722479
 H         -2.8637274070        0.1560083168        1.5904430797
 H         -2.6088169049       -1.5935051785        1.5735028545
 H         -3.2956648615        0.4827419556       -2.1031846804
 H         -3.2701051897        1.3774598240       -0.5752907875
 H         -1.0745383204        0.3423970966       -1.0396749274
 H          5.2693745392       -0.0659533143       -0.9710873268
 H          5.9617036244       -2.1394593907        0.1638487191
 H          4.3244211007       -3.6938401664        1.0915954321
 H          1.8821647413       -3.2320336896        0.9158169545
 H          2.3250391474        1.9604801072       -2.6882219542
 H          3.9798897138        1.5515533758       -2.1752992296
 H          3.1937327200        3.8266664501       -1.3969717784
 H          1.9103964646        3.0229757942       -0.4821180438
 H          4.9045125258        2.5800228474       -0.0795466398
 H          3.6262678193        1.8222939158        0.8704010587
 H          4.7365810902        3.7819458228        1.9904921811
 H          4.1097940522        4.8361987019        0.7218559322
 H          1.7835559854        4.3444448332        1.4275293746
 H          2.3887957287        3.1419311671        2.6120091601
  58
        -82.23514800
 C         -5.6119423800       -1.1966468372        1.4915389301
 C         -5.3221816645       -0.1106328878        0.4564907174
 C         -5.7322849122       -0.6042555280       -0.9302204333
 C         -4.9359072833       -1.8618733965       -1.2759928425
 C         -5.2229192095       -2.9505391926       -0.2433294114
 C         -4.8157715421       -2.4535698737        1.1427754361
 C         -3.3229093318       -2.1321757421        1.1504454148
 C         -3.0293883874       -1.0404837946        0.1150551519
 C         -3.8285004085        0.2156933532        0.4621787622
 C         -3.4433509241       -1.5389141322       -1.2742578964
 N         -1.6125661558       -0.7029315209        0.1271939870
 C         -0.5991068037       -1.5555730144       -0.1311240872
 O         -0.7306111409       -2.7336512389       -0.4182558029
 C          0.7241467674       -0.9084893328       -0.0323525152
 N          0.8706427418        0.3694046581        0.2721349465
 N          2.1750457646        0.6439573751        0.2931468704
 C          2.9174062661       -0.4546483999       -0.0147846143
 C          4.2927555029       -0.6516567023       -0.1184224070
 C          4.7180824809       -1.9183681921       -0.4435264130
 C          3.8157410220       -2.9700712170       -0.6617817219
 C          2.4581046756       -2.7866791419       -0.5599022881
 C          1.9996573967       -1.5101956814       -0.2321277914
 C          2.6410944073        1.9812527970        0.5274786153
 C          2.9247260258        2.7061255121       -0.7931495967
 C          3.3479039514        4.1595052616       -0.5935726000
 C          4.7414494625        4.3022171277        0.0183443965
 C          5.1382558422        5.7643679938        0.1630355743
 F          4.3199753178        6.3927302001        1.0717831875
 H         -6.6804601411       -1.4230672874        1.5008644147
 H         -5.3357896510       -0.8447800301        2.4883000689
 H         -5.8892344277        0.7937839243        0.7059933275
 H         -5.5427055721        0.1733891264       -1.6738406962
 H         -6.8018717418       -0.8253826699       -0.9427405496
 H         -5.2266619029       -2.2158095548       -2.2713496441
 H         -6.2861600005       -3.2017950730       -0.2519887950
 H         -4.6604262173       -3.8522927214       -0.4919510272
 H         -5.0201447382       -3.2326860685        1.8855245389
 H         -2.7406132032       -3.0198398686        0.9025057992
 H         -3.0132413077       -1.7871629089        2.1401635240
 H         -3.6161914776        1.0000524476       -0.2689200856
 H         -3.5309466798        0.5796884316        1.4489675467
 H         -2.8608492384       -2.4273385394       -1.5188800349
 H         -3.2199089543       -0.7696778786       -2.0177938773
 H         -1.3471236951        0.2437026943        0.3536303082
 H          4.9937958932        0.1520700646        0.0500445333
 H          5.7767420569       -2.1137707605       -0.5337432294
 H          4.2082976784       -3.9437528167       -0.9146290184
 H          1.7510457163       -3.5836983593       -0.7225854819
 H          3.5419121526        1.9294401956        1.1439794399
 H          1.8588808924        2.5074760880        1.0792532074
 H          3.7012415937        2.1668479074       -1.3406359085
 H          2.0136908627        2.6791697627       -1.3945177949
 H          2.6239810826        4.6660901362        0.0473461304
 H          3.3404484589        4.6603335746       -1.5644321091
 H          4.7688327348        3.8426079461        1.0072475185
 H          5.4819653935        3.8094925010       -0.6141371990
 H          6.1602915770        5.8689615130        0.5412692091
 H          5.0310168551        6.3083458576       -0.7811265525
  58
        -82.23512518
 C         -5.3411979263        0.3348489971        0.4456274989
 C         -4.9705018447        0.0207613444       -1.0030679051
 C         -5.3828981535       -1.4122000719       -1.3365135073
 C         -4.6539831527       -2.3789364967       -0.4039996328
 C         -5.0222285125       -2.0683011230        1.0458095122
 C         -4.6126611896       -0.6340774356        1.3761107612
 C         -3.1041506405       -0.4809798260        1.1948228837
 C         -2.7293851472       -0.7923744324       -0.2586732602
 C         -3.4608144709        0.1748307115       -1.1895821404
 C         -3.1454552808       -2.2299920234       -0.5896518010
 N         -1.2957150154       -0.6239100777       -0.4546086131
 C         -0.3278715610       -1.3031342743        0.1954426439
 O         -0.5198096509       -2.1632188818        1.0382675988
 C          1.0280974204       -0.8879801855       -0.2165517435
 N          1.2396158327        0.0547913610       -1.1175738042
 N          2.5577862495        0.2009440508       -1.2650571464
 C          3.2438955623       -0.6427482081       -0.4454421235
 C          4.6069869803       -0.8491723752       -0.2417805164
 C          4.9634955287       -1.8078040207        0.6772455662
 C          4.0062962968       -2.5513698081        1.3834965848
 C          2.6603735385       -2.3574490826        1.1902740814
 C          2.2715870386       -1.3891413404        0.2636981406
 C          3.0705307231        1.2224001538       -2.1348133087
 C          2.9181708062        2.6126412385       -1.5074032304
 C          3.7672801610        2.7667940478       -0.2466763852
 C          3.6408499915        4.1481843173        0.3922496293
 C          2.2694932543        4.3815811826        1.0120143035
 F          2.2601299494        5.5795628379        1.6865208316
 H         -6.4209209786        0.2398360985        0.5800390487
 H         -5.0633705600        1.3635747314        0.6868327539
 H         -5.4888835521        0.7165917674       -1.6730174726
 H         -5.1353821631       -1.6388585430       -2.3762264649
 H         -6.4629812232       -1.5232016292       -1.2179830631
 H         -4.9463666041       -3.4072734886       -0.6435518259
 H         -6.0977973703       -2.1919613622        1.1920488683
 H         -4.5083455473       -2.7618979645        1.7138058229
 H         -4.8750293241       -0.4086164169        2.4156722184
 H         -2.5697696313       -1.1669190262        1.8524240513
 H         -2.7934788244        0.5378036429        1.4400853817
 H         -3.1903669328       -0.0381530527       -2.2270568399
 H         -3.1610226158        1.2012659426       -0.9626406604
 H         -2.6107462411       -2.9135796807        0.0701230080
 H         -2.8644911040       -2.4615632322       -1.6201342360
 H         -0.9812256446        0.0559601942       -1.1304017936
 H          5.3529784688       -0.2829543964       -0.7787450920
 H          6.0105640434       -1.9964303837        0.8638594088
 H          4.3460672316       -3.2912100848        2.0927523833
 H          1.9102507120       -2.9194017546        1.7224087044
 H          2.5082158738        1.1828424322       -3.0722560099
 H          4.1205390390        1.0045106131       -2.3394704731
 H          3.2120591090        3.3628168424       -2.2433372304
 H          1.8638459637        2.7580483870       -1.2699850580
 H          4.8156024548        2.5996758532       -0.5043428885
 H          3.4806734684        2.0069445253        0.4838577646
 H          4.3867386371        4.2498541636        1.1833482065
 H          3.8341922098        4.9248032374       -0.3506428809
 H          1.4777294732        4.4476265448        0.2599037452
 H          2.0249635859        3.6057597348        1.7453847605
  58
        -82.23510713
 C         -5.6239582896       -1.6203549468       -1.1950783681
 C         -4.8405972425       -2.7246081874       -0.4862458779
 C         -5.2187427785       -2.7524421716        0.9936807210
 C         -4.8850875567       -1.4028297672        1.6270469164
 C         -5.6685400181       -0.2971086392        0.9206717728
 C         -5.2873964695       -0.2725223718       -0.5588198976
 C         -3.7888568699       -0.0018941668       -0.6965599633
 C         -3.0026948493       -1.1059928808        0.0105862292
 C         -3.3430584967       -2.4591978552       -0.6242078071
 C         -3.3876692672       -1.1341477136        1.4941308231
 N         -1.5808428634       -0.8248021960       -0.1351586906
 C         -0.5763481388       -1.5783026401        0.3588554925
 O         -0.7213998809       -2.6022590900        1.0050868118
 C          0.7557602921       -1.0298094781        0.0351127725
 N          0.9190366726        0.0767223098       -0.6688097593
 N          2.2282666076        0.2967100217       -0.7976585036
 C          2.9566762612       -0.6625417262       -0.1628083289
 C          4.3298870998       -0.8515439398       -0.0233723047
 C          4.7377934738       -1.9562713336        0.6869753727
 C          3.8205005415       -2.8569541184        1.2483300846
 C          2.4647158429       -2.6807663763        1.1144373169
 C          2.0239855105       -1.5670266368        0.3986517528
 C          2.7111516435        1.4699889633       -1.4675576894
 C          3.0691272674        2.5793788397       -0.4729400574
 C          3.5815241005        3.8263979321       -1.1876922783
 C          3.9376371345        4.9324465589       -0.1985903547
 C          4.4416754259        6.1754124982       -0.9177870900
 F          4.7561782337        7.1562832862       -0.0090745859
 H         -6.6961347429       -1.8114124408       -1.1113255742
 H         -5.3688259787       -1.6051025417       -2.2573215191
 H         -5.0785150294       -3.6916246534       -0.9430415386
 H         -4.6654937818       -3.5448763887        1.5009586195
 H         -6.2855437751       -2.9617407022        1.1021581544
 H         -5.1549303069       -1.4201173278        2.6888004378
 H         -6.7410917376       -0.4763380334        1.0233179348
 H         -5.4454304486        0.6691788610        1.3790821200
 H         -5.8451518982        0.5223312837       -1.0677160271
 H         -3.5433116029        0.9662877692       -0.2524771457
 H         -3.5117899110        0.0274499906       -1.7535932255
 H         -2.7699149346       -3.2390598436       -0.1223347865
 H         -3.0542000764       -2.4490379774       -1.6782366425
 H         -3.1308912775       -0.1767013560        1.9543742426
 H         -2.8143536042       -1.9156310423        1.9931743678
 H         -1.3048803159       -0.0053727040       -0.6548387168
 H          5.0424559419       -0.1641480076       -0.4537744255
 H          5.7942014432       -2.1392316558        0.8190661520
 H          4.1996770960       -3.7067493813        1.7960902893
 H          1.7460701606       -3.3639420705        1.5368820233
 H          1.9176617774        1.8102937795       -2.1369619253
 H          3.5885521731        1.2009945946       -2.0636180611
 H          2.1813202225        2.8271598551        0.1118907134
 H          3.8307638177        2.2102957345        0.2170418433
 H          2.8158572782        4.1887387665       -1.8773411243
 H          4.4643235643        3.5699097419       -1.7781569409
 H          3.0605378200        5.1997607179        0.3938927154
 H          4.7116542687        4.5848545214        0.4885317810
 H          5.3549521467        5.9704175839       -1.4864854287
 H          3.6778406651        6.5951932796       -1.5809187381
  58
        -82.23509985
 C         -5.6023308662       -0.4235557070        1.0626714964
 C         -5.2803144642       -0.1837318308       -0.4116082140
 C         -5.6558999667       -1.4219466791       -1.2242877186
 C         -4.8564247820       -2.6217747911       -0.7176401810
 C         -5.1758192562       -2.8650239464        0.7563946133
 C         -4.8030768511       -1.6246610776        1.5666296796
 C         -3.3094024946       -1.3462919053        1.4133487677
 C         -2.9836155781       -1.1020345514       -0.0645327793
 C         -3.7857746747        0.0974632780       -0.5694193280
 C         -3.3628411918       -2.3457223739       -0.8764185648
 N         -1.5660839710       -0.8080350073       -0.2253196465
 C         -0.5493239427       -1.6294058734        0.1100292784
 O         -0.6770742625       -2.7406778423        0.5955112918
 C          0.7730833696       -1.0363929641       -0.1727760831
 N          0.9146743917        0.1687017436       -0.6964084775
 N          2.2191055743        0.4100532774       -0.8351586514
 C          2.9667507232       -0.6358315967       -0.3868335355
 C          4.3434964264       -0.8401990750       -0.3264397532
 C          4.7730855104       -2.0428601519        0.1838871418
 C          3.8736132537       -3.0246107638        0.6253434830
 C          2.5144105665       -2.8335462465        0.5683479373
 C          2.0518016376       -1.6211805523        0.0553101987
 C          2.6791773911        1.6800127867       -1.3189983633
 C          3.0407575308        2.6223911712       -0.1660115810
 C          3.5132278462        3.9794378307       -0.6793206820
 C          3.8632365363        4.9211676269        0.4691705667
 C          4.3243282611        6.2761140344       -0.0481648440
 F          4.6335265648        7.1061514127        1.0017190801
 H         -6.6717477976       -0.6109278893        1.1819460719
 H         -5.3508499439        0.4639121241        1.6481825487
 H         -5.8495895273        0.6797180990       -0.7752159631
 H         -5.4430861145       -1.2519087974       -2.2823256795
 H         -6.7257874289       -1.6185019806       -1.1256859274
 H         -5.1224333205       -3.5101317546       -1.3011602255
 H         -6.2396157442       -3.0830293498        0.8764190052
 H         -4.6113081509       -3.7259331119        1.1190404356
 H         -5.0306667344       -1.7964997158        2.6245030687
 H         -2.7249242980       -2.1953181599        1.7683585263
 H         -3.0243463695       -0.4681530179        1.9982468703
 H         -3.5505657933        0.2804490618       -1.6211113370
 H         -3.5126488176        0.9888029277        0.0013767933
 H         -2.7782171232       -3.1933162846       -0.5182553231
 H         -3.1161246833       -2.1820466142       -1.9284590862
 H         -1.3030471329        0.0828161879       -0.6188839564
 H          5.0423837847       -0.0902948351       -0.6651845586
 H          5.8330016118       -2.2410807134        0.2488648646
 H          4.2694949198       -3.9497777827        1.0169686749
 H          1.8092380745       -3.5775644369        0.9011901476
 H          1.8714226816        2.1121456195       -1.9143786168
 H          3.5491420763        1.5192889254       -1.9627136170
 H          2.1620051509        2.7532737929        0.4683024635
 H          3.8244920503        2.1632989921        0.4401635614
 H          2.7271684251        4.4288562681       -1.2903198896
 H          4.3901640461        3.8421398124       -1.3163915322
 H          2.9918481471        5.0671832731        1.1103942498
 H          4.6581699270        4.4878728559        1.0793538971
 H          5.2308724606        6.1889463238       -0.6565130611
 H          3.5382370223        6.7770120205       -0.6231577167
  58
        -82.23505874
 C         -4.9247668290       -0.5082963242        1.3793113647
 C         -4.3668488007        0.7785347421        0.7733262765
 C         -4.7599663610        0.8623466973       -0.7007253482
 C         -4.1867912460       -0.3419465084       -1.4467351632
 C         -4.7418443403       -1.6312996093       -0.8437977430
 C         -4.3505116779       -1.7105093741        0.6308506848
 C         -2.8284136036       -1.7103392715        0.7543233956
 C         -2.2664627715       -0.4191188667        0.1493046207
 C         -2.8426778967        0.7850075318        0.8945580535
 C         -2.6642172763       -0.3386709272       -1.3287559701
 N         -0.8152843391       -0.3913560311        0.2799791944
 C          0.0433782825       -1.2946177115       -0.2388671114
 O         -0.2771510145       -2.2787348458       -0.8829010256
 C          1.4533257431       -0.9554398941        0.0416524074
 N          1.7960880405        0.1411069353        0.6944244150
 N          3.1278891525        0.1942253677        0.7507504494
 C          3.6898810218       -0.8841596192        0.1386935573
 C          5.0173472123       -1.2646088622       -0.0480145606
 C          5.2396629716       -2.4379245213       -0.7299289490
 C          4.1850664770       -3.2240864197       -1.2177909368
 C          2.8731571758       -2.8596909948       -1.0374567341
 C          2.6193916059       -1.6728068815       -0.3488234850
 C          3.8049097439        1.2942431279        1.3906148210
 C          2.9330259971        2.5477458249        1.3681320165
 C          2.7060120474        3.0553075624       -0.0573400964
 C          1.5425676944        4.0399241778       -0.1584062288
 C          0.1985307366        3.3352334013       -0.0312318256
 F         -0.8290696716        4.2205729979       -0.2608038064
 H         -6.0145095622       -0.5095388074        1.3059479771
 H         -4.6608355273       -0.5672597567        2.4379325403
 H         -4.7730796851        1.6434552136        1.3099716383
 H         -4.3761552185        1.7881965611       -1.1350259809
 H         -5.8481481709        0.8746253891       -0.7935371424
 H         -4.4657783470       -0.2828951594       -2.5045847375
 H         -5.8296895556       -1.6505008130       -0.9422598151
 H         -4.3388175203       -2.4929066054       -1.3793441772
 H         -4.7467122762       -2.6349129681        1.0656010995
 H         -2.4028476342       -2.5633775680        0.2253812555
 H         -2.5323335282       -1.7784914358        1.8042064387
 H         -2.4453155383        1.7096390991        0.4690737698
 H         -2.5530411317        0.7390216373        1.9477888576
 H         -2.2384941628       -1.1919577918       -1.8574583340
 H         -2.2535812879        0.5746161528       -1.7668556063
 H         -0.3975645192        0.3666536160        0.7976858133
 H          5.8348812952       -0.6685635829        0.3284861359
 H          6.2546520287       -2.7683470430       -0.8953437973
 H          4.4211773552       -4.1362288106       -1.7451932136
 H          2.0504347167       -3.4510738908       -1.4050389523
 H          4.7437181317        1.4696736965        0.8571548601
 H          4.0410029176        1.0252642641        2.4282184873
 H          1.9799854013        2.2966356485        1.8305840063
 H          3.4126067077        3.3227263887        1.9673661925
 H          2.5007172044        2.2088555521       -0.7151270260
 H          3.6173935436        3.5396014557       -0.4135452760
 H          1.6253308334        4.8066997042        0.6142997635
 H          1.5699604302        4.5385586976       -1.1293409773
 H          0.0985048523        2.5362926464       -0.7735325256
 H          0.0354171206        2.9327510623        0.9728812106
  58
        -82.23502436
 C         -5.4655476918       -1.1456085092        1.5491197311
 C         -5.1381698377       -0.0164833201        0.5730918821
 C         -5.5742659918       -0.4169391084       -0.8355047931
 C         -4.8295159020       -1.6837259924       -1.2550194113
 C         -5.1541270407       -2.8154351608       -0.2814651886
 C         -4.7210926541       -2.4116643320        1.1268417037
 C         -3.2167096827       -2.1496960702        1.1413903708
 C         -2.8853536070       -1.0150465941        0.1652746597
 C         -3.6327493127        0.2504720957        0.5859818877
 C         -3.3253833354       -1.4199550003       -1.2462067971
 N         -1.4561616222       -0.7345667684        0.1860292490
 C         -0.4788026062       -1.6116050815       -0.1252686204
 O         -0.6594804797       -2.7655802656       -0.4759716653
 C          0.8701297008       -1.0254749975        0.0014050748
 N          1.0716978363        0.2223083397        0.3883864568
 N          2.3869171686        0.4413501917        0.4131308954
 C          3.0807587246       -0.6643217460        0.0266636018
 C          4.4459911117       -0.9114227107       -0.1014960437
 C          4.8152418403       -2.1708188350       -0.5123426591
 C          3.8679802014       -3.1672191484       -0.7912297082
 C          2.5200178321       -2.9344791463       -0.6652800741
 C          2.1180442897       -1.6643221649       -0.2503028642
 C          2.9069308882        1.7389582198        0.7388618697
 C          3.2573461469        2.5316397683       -0.5256560147
 C          3.9262570546        3.8689082951       -0.2181308132
 C          2.9958257596        4.8621235447        0.4782545958
 C          3.6442562859        6.2331195235        0.6080057741
 F          3.8551804685        6.7845712058       -0.6333626376
 H         -6.5420864242       -1.3302278287        1.5535230848
 H         -5.1709856153       -0.8600541181        2.5617309937
 H         -5.6680411152        0.8943369358        0.8755517532
 H         -5.3579086987        0.3923574689       -1.5368218566
 H         -6.6517640767       -0.5951113381       -0.8524498715
 H         -5.1387888070       -1.9708500684       -2.2661216563
 H         -6.2264225837       -3.0242050292       -0.2964059349
 H         -4.6287022933       -3.7234377948       -0.5828125289
 H         -4.9524338403       -3.2218169267        1.8272788282
 H         -2.6710149985       -3.0444680232        0.8412503225
 H         -2.8887964199       -1.8718543118        2.1462796963
 H         -3.3933753539        1.0647923043       -0.1027858596
 H         -3.3163058974        0.5479407532        1.5891198013
 H         -2.7794582603       -2.3156154417       -1.5431408396
 H         -3.0754731986       -0.6203790391       -1.9481010479
 H         -1.1520561874        0.1866247501        0.4626758397
 H          5.1815122183       -0.1506634430        0.1123395185
 H          5.8640726996       -2.4035818057       -0.6251596820
 H          4.2174631568       -4.1377221978       -1.1106794171
 H          1.7788734239       -3.6890417054       -0.8725916345
 H          3.7975047188        1.6157353611        1.3631643428
 H          2.1346107022        2.2543596762        1.3125441267
 H          3.9325265572        1.9283782981       -1.1365445010
 H          2.3458907688        2.6971160015       -1.1030967858
 H          4.2604349976        4.3135521147       -1.1574297793
 H          4.8089116118        3.7008885677        0.4039360122
 H          2.0749082842        4.9643870030       -0.0988476519
 H          2.7402654980        4.5180564249        1.4808246448
 H          3.0019566294        6.9320635834        1.1534190783
 H          4.6249941584        6.1710581639        1.0912303681
  58
        -82.23501885
 C         -5.5529917430       -1.2662353048       -1.1497523784
 C         -4.7905190092       -2.4822062114       -0.6248958968
 C         -5.1575315545       -2.7253180833        0.8380323524
 C         -4.7870620476       -1.4948057198        1.6642111466
 C         -5.5496626392       -0.2778198249        1.1419274158
 C         -5.1794773625       -0.0380408551       -0.3210185058
 C         -3.6760333976        0.2169661658       -0.4331873583
 C         -2.9107464297       -0.9986488704        0.0899810011
 C         -3.2882672140       -2.2322844465       -0.7381376728
 C         -3.2848311447       -1.2423891782        1.5564581888
 N         -1.4836928442       -0.7310237677       -0.0277673588
 C         -0.4945966621       -1.5745897120        0.3347081930
 O         -0.6614345290       -2.6804772223        0.8210646444
 C          0.8487304055       -1.0178514924        0.0805820466
 N          1.0376309099        0.1755264006       -0.4557634060
 N          2.3512780256        0.3773190182       -0.5650714722
 C          3.0573210322       -0.6837460734       -0.0865581166
 C          4.4258884543       -0.9279707396        0.0063847291
 C          4.8081858995       -2.1354745554        0.5420918271
 C          3.8704185668       -3.0839895949        0.9766935723
 C          2.5191196862       -2.8539953166        0.8864805574
 C          2.1040977572       -1.6358759291        0.3470371699
 C          2.8639408751        1.6219236478       -1.0635195673
 C          3.2912947257        2.5473219670        0.0816860560
 C          3.9836924822        3.8153879631       -0.4109341953
 C          3.0547105189        4.7458204061       -1.1907647311
 C          3.7373204170        6.0670865011       -1.5152539064
 F          4.0158352937        6.7604350555       -0.3614663711
 H         -6.6287030183       -1.4438052434       -1.0836157577
 H         -5.3059630195       -1.0961929604       -2.2003594469
 H         -5.0549071507       -3.3634385868       -1.2198945410
 H         -4.6191368905       -3.5974516839        1.2133536981
 H         -6.2280794327       -2.9249961961        0.9257804557
 H         -5.0488916919       -1.6665958671        2.7141431062
 H         -6.6253539563       -0.4467063469        1.2283018347
 H         -5.3002259525        0.6027546751        1.7385991944
 H         -5.7222797545        0.8368608736       -0.6975594354
 H         -3.4041504837        1.1010471459        0.1493515940
 H         -3.4066867497        0.3998185809       -1.4767323905
 H         -2.7297526693       -3.0916027711       -0.3664417088
 H         -3.0075886369       -2.0692031918       -1.7817909462
 H         -3.0018820638       -0.3715406267        2.1531146378
 H         -2.7262772557       -2.1028693544        1.9252260555
 H         -1.1915715296        0.1507030635       -0.4212384894
 H          5.1541003713       -0.2040599485       -0.3269611141
 H          5.8600833370       -2.3639296713        0.6330590686
 H          4.2299627078       -4.0147576762        1.3895485682
 H          1.7849611572       -3.5724929834        1.2126877558
 H          2.0664037254        2.0807163792       -1.6505564970
 H          3.7180324160        1.4148975354       -1.7161773046
 H          2.4116927050        2.8101106306        0.6722206011
 H          3.9763244152        1.9991721775        0.7322421759
 H          4.8363141648        3.5447598598       -1.0386894391
 H          4.3667579946        4.3599007115        0.4541252217
 H          2.7481240001        4.2889112894       -2.1320276221
 H          2.1617564563        4.9501908603       -0.5971995458
 H          4.6948704888        5.9119934976       -2.0234016845
 H          3.0939805952        6.7149185401       -2.1193381442
  58
        -82.23500743
 C         -4.7680531552       -1.5390263979       -0.7782294141
 C         -4.4449958019       -1.6504064537        0.7108297458
 C         -5.0369211888       -0.4538615009        1.4547359209
 C         -4.4366712051        0.8364576832        0.8982479109
 C         -4.7613621134        0.9522676246       -0.5902189095
 C         -4.1703631650       -0.2463121997       -1.3312313042
 C         -2.6549038567       -0.2636269781       -1.1442907436
 C         -2.3266972455       -0.3790735872        0.3485586533
 C         -2.9301358518       -1.6736576398        0.9029102286
 C         -2.9197536324        0.8202752009        1.0878740380
 N         -0.8827954859       -0.3694446956        0.5450450515
 C         -0.0058353628       -1.2475316883        0.0154500681
 O         -0.3054752185       -2.2299160780       -0.6412276995
 C          1.3983546239       -0.8788722522        0.2901015678
 N          1.7245374782        0.2502269541        0.8937694710
 N          3.0560566039        0.3371248987        0.9271189360
 C          3.6346908385       -0.7488674473        0.3449047592
 C          4.9671294068       -1.1054943638        0.1456221141
 C          5.2053922752       -2.2976626095       -0.4968418443
 C          4.1618550523       -3.1267013482       -0.9348268597
 C          2.8452538061       -2.7869819166       -0.7417620687
 C          2.5755586498       -1.5814044616       -0.0927757944
 C          3.6954078881        1.5046215267        1.4767569605
 C          2.9461010349        2.7672980853        1.0494703392
 C          2.9860937763        2.9812251290       -0.4684585264
 C          1.7366294959        3.6969985265       -0.9842750375
 C          0.5679186520        2.7262095807       -1.1000464706
 F         -0.6124761178        3.4076949479       -1.2922562906
 H         -5.8505441946       -1.5421432063       -0.9259275543
 H         -4.3519125163       -2.3960757339       -1.3111204935
 H         -4.8728132516       -2.5767961151        1.1101100807
 H         -4.8214515348       -0.5352275840        2.5228401252
 H         -6.1222696649       -0.4393683716        1.3328323714
 H         -4.8566217173        1.6963864609        1.4326048691
 H         -5.8439610951        0.9819194888       -0.7321638995
 H         -4.3441571572        1.8790417573       -0.9901489864
 H         -4.3999887330       -0.1643659065       -2.3993164827
 H         -2.2155072485        0.6544910266       -1.5419989336
 H         -2.2153913557       -1.1107964873       -1.6716243174
 H         -2.6828765787       -1.7652450029        1.9635924525
 H         -2.4913608804       -2.5220567093        0.3772515463
 H         -2.4898577854        1.7444410904        0.6931924765
 H         -2.6776264543        0.7543579211        2.1520104695
 H         -0.4849500679        0.3876831884        1.0794561407
 H          5.7787790748       -0.4781767262        0.4823165774
 H          6.2250966145       -2.6089073494       -0.6702004238
 H          4.4104708005       -4.0516937989       -1.4332293830
 H          2.0301168784       -3.4101151829       -1.0718100704
 H          4.7260354722        1.5253197167        1.1162372436
 H          3.7078112238        1.4366296274        2.5714751068
 H          1.9138931661        2.6632515298        1.3821916801
 H          3.3794841323        3.6269434402        1.5615085770
 H          3.0631986057        2.0170799754       -0.9760361757
 H          3.8724486269        3.5605678430       -0.7310151216
 H          1.4605306498        4.5048571135       -0.3036110081
 H          1.9314639975        4.1378372182       -1.9632619431
 H          0.6853529105        2.0523819357       -1.9547759567
 H          0.4428422497        2.1348392313       -0.1882253032
  58
        -82.23500037
 C         -5.7242524626       -1.4172501402       -1.1098901506
 C         -4.9087552068       -2.6005654377       -0.5901293510
 C         -5.2507402764       -2.8539385961        0.8771101563
 C         -4.9206218845       -1.6074653652        1.6964223063
 C         -5.7361790913       -0.4230142452        1.1793716368
 C         -5.3911898569       -0.1729484480       -0.2879970188
 C         -3.9003600554        0.1410419905       -0.4166183058
 C         -3.0820804168       -1.0418521642        0.1013728752
 C         -3.4188284070       -2.2917660476       -0.7197955459
 C         -3.4307378263       -1.2961894302        1.5723162393
 N         -1.6683396592       -0.7176337690       -0.0320673396
 C         -0.6415364416       -1.5189701510        0.3210971993
 O         -0.7566448097       -2.6312792838        0.8077536621
 C          0.6739956489       -0.9038595802        0.0559428363
 N          0.8033513995        0.2990111665       -0.4766561483
 N          2.1051815042        0.5606285312       -0.5982485492
 C          2.8632875115       -0.4684336048       -0.1299586910
 C          4.2423591983       -0.6491538117       -0.0488842508
 C          4.6847090675       -1.8395168272        0.4788840534
 C          3.7954706819       -2.8319892374        0.9173108609
 C          2.4342486004       -2.6644926458        0.8393132651
 C          1.9586458183       -1.4650022172        0.3081826815
 C          2.5560943643        1.8321520040       -1.0884297551
 C          2.9002711968        2.7806102189        0.0656663076
 C          3.3003512176        4.1740164157       -0.4125321388
 C          4.6341406898        4.1961241033       -1.1596926249
 C          5.0746021693        5.6205642241       -1.4668536042
 F          5.3326936357        6.3047392172       -0.3030456723
 H         -6.7913303912       -1.6371529637       -1.0321525494
 H         -5.4950003435       -1.2403875351       -2.1633830150
 H         -5.1442173114       -3.4932295090       -1.1801922954
 H         -4.6744807843       -3.7030844711        1.2489017042
 H         -6.3116160609       -3.0954251030        0.9764838611
 H         -5.1645685919       -1.7865250419        2.7494447004
 H         -6.8033553606       -0.6340178080        1.2776537254
 H         -5.5155008478        0.4684279359        1.7712124448
 H         -5.9720851136        0.6787184807       -0.6609110756
 H         -3.6576258913        1.0368306491        0.1608561877
 H         -3.6492209221        0.3314578404       -1.4633143629
 H         -2.8228750217       -3.1272351643       -0.3519219153
 H         -3.1556549229       -2.1205516041       -1.7666728511
 H         -3.1761969722       -0.4132172744        2.1639478094
 H         -2.8346987879       -2.1329375059        1.9370705045
 H         -1.4163633215        0.1765675442       -0.4253106874
 H          4.9332676162        0.1093107007       -0.3851068805
 H          5.7467643291       -2.0192804541        0.5607439442
 H          4.2012125220       -3.7464651454        1.3237197125
 H          1.7370234646       -3.4172524667        1.1693096007
 H          1.7461185560        2.2541570067       -1.6881190889
 H          3.4278840244        1.6670599688       -1.7268524325
 H          2.0226824587        2.8628668999        0.7101605011
 H          3.7086309370        2.3473971742        0.6584836635
 H          3.3860325822        4.8276761224        0.4575212539
 H          2.5158359095        4.5769157267       -1.0572958577
 H          5.4026979552        3.7182892467       -0.5487438060
 H          4.5594964281        3.6600789024       -2.1064641374
 H          6.0010291531        5.6389014785       -2.0500385470
 H          4.2919153716        6.1799067896       -1.9900035521
  58
        -82.23492876
 C         -5.2905061536        0.3841847809       -0.5124322325
 C         -4.6073129821       -0.8650791258       -1.0673783726
 C         -5.0373924850       -2.0872534821       -0.2578403277
 C         -4.6365131170       -1.8931443284        1.2035382531
 C         -5.3196189315       -0.6450793799        1.7613909397
 C         -4.8871024444        0.5746368113        0.9489863242
 C         -3.3700973253        0.7400970219        1.0432357294
 C         -2.6840388033       -0.5078678551        0.4873096535
 C         -3.0916543450       -0.7022839811       -0.9775580541
 C         -3.1208444558       -1.7327899703        1.2989651380
 N         -1.2428322584       -0.3241912697        0.5879502717
 C         -0.3078656725       -1.2122767436        0.1905348770
 O         -0.5417327870       -2.2995375172       -0.3095950692
 C          1.0672002684       -0.7282055433        0.4245839245
 N          1.3244110875        0.4182647880        1.0292699899
 N          2.6486066434        0.5660105120        1.0926908451
 C          3.2920909811       -0.4836269454        0.5119085577
 C          4.6449118126       -0.7665272257        0.3356991508
 C          4.9573125310       -1.9461507706       -0.2987574904
 C          3.9661647883       -2.8300108251       -0.7504377907
 C          2.6298299326       -2.5613762573       -0.5792281455
 C          2.2853967389       -1.3707083785        0.0612422244
 C          3.2309888584        1.7550623577        1.6461983122
 C          3.6247856589        2.7523611279        0.5505291518
 C          2.3952177796        3.3156569035       -0.1587948621
 C          2.7538258558        4.2243201429       -1.3362638556
 C          3.1742155847        3.4415021276       -2.5728072471
 F          2.1066643558        2.7319314164       -3.0683045245
 H         -6.3753328686        0.2798234195       -0.5861167150
 H         -4.9979526865        1.2596035603       -1.0968853638
 H         -4.8932377775       -1.0017776385       -2.1161295645
 H         -4.5560495864       -2.9819952411       -0.6567308751
 H         -6.1189427894       -2.2228329742       -0.3329345995
 H         -4.9436295799       -2.7684939617        1.7866661021
 H         -6.4046727036       -0.7589891472        1.7082479097
 H         -5.0485392727       -0.5091071178        2.8110719609
 H         -5.3729502945        1.4722570676        1.3492552925
 H         -3.0759701724        0.8879027946        2.0856804107
 H         -3.0553170648        1.6171988728        0.4720050863
 H         -2.5894017124       -1.5867792065       -1.3696920215
 H         -2.7660706080        0.1611177611       -1.5629089160
 H         -2.8167850884       -1.6057702395        2.3410941733
 H         -2.6183755784       -2.6158224829        0.9036238503
 H         -0.8960398216        0.5321203930        0.9930858720
 H          5.4141922149       -0.0925402478        0.6823396604
 H          5.9948867543       -2.2027727184       -0.4562318677
 H          4.2717698254       -3.7412773754       -1.2426998547
 H          1.8553676986       -3.2301656282       -0.9176642066
 H          4.1105086639        1.4733994996        2.2329778802
 H          2.4866558078        2.2018245262        2.3093110091
 H          4.1933461236        3.5665478703        1.0046264702
 H          4.2743581916        2.2446950114       -0.1648134311
 H          1.8047771382        3.8836946172        0.5629099950
 H          1.7715831846        2.4969924013       -0.5223882737
 H          1.8842280522        4.8276261699       -1.6032206969
 H          3.5659917172        4.8989799189       -1.0602060742
 H          3.5027333861        4.1101974271       -3.3752708277
 H          3.9591673472        2.7104526211       -2.3566202874
  58
        -82.23492835
 C         -5.0088814655       -2.0776816083        0.4377067056
 C         -4.5515268945       -0.8503675256        1.2242738372
 C         -5.2521260119        0.3955730743        0.6837572318
 C         -4.8971342991        0.5757139239       -0.7914551769
 C         -5.3570643912       -0.6491703763       -1.5807529923
 C         -4.6565221413       -1.8940052749       -1.0374456500
 C         -3.1447531623       -1.7353167281       -1.1839609164
 C         -2.6807307849       -0.5052117469       -0.3955654568
 C         -3.0395558703       -0.6894059728        1.0833338778
 C         -3.3840237731        0.7395725825       -0.9368625830
 N         -1.2435795455       -0.3233596794       -0.5453010664
 C         -0.2964075474       -1.2095096603       -0.1735880314
 O         -0.5139146929       -2.2937824034        0.3402587907
 C          1.0704868326       -0.7274123974       -0.4551110439
 N          1.3084326067        0.4148505558       -1.0753882365
 N          2.6299992004        0.5617497748       -1.1821111453
 C          3.2914754751       -0.4835624094       -0.6138514150
 C          4.6492589711       -0.7647027909       -0.4771803197
 C          4.9816690200       -1.9396309059        0.1558193906
 C          4.0053288013       -2.8205910688        0.6439199101
 C          2.6641883508       -2.5533304519        0.5124496490
 C          2.2995765789       -1.3673847036       -0.1255612996
 C          3.1953661686        1.7485166607       -1.7577812054
 C          3.6062621820        2.7553470812       -0.6770676244
 C          2.3865243583        3.3324151577        0.0384862304
 C          2.7617222335        4.2093999175        1.2347713303
 C          3.1375562842        3.3902969887        2.4620846530
 F          2.0359233962        2.7192463916        2.9363713736
 H         -6.0874510020       -2.2118504308        0.5494509947
 H         -4.5151357164       -2.9700938332        0.8265167882
 H         -4.8026743644       -0.9796725796        2.2828378366
 H         -4.9399270673        1.2746910432        1.2522260568
 H         -6.3339958114        0.2924748663        0.7940373077
 H         -5.3955231457        1.4709544444       -1.1814497889
 H         -6.4398531267       -0.7619351473       -1.4910953651
 H         -5.1206947293       -0.5204987242       -2.6396912917
 H         -4.9832503741       -2.7731248461       -1.6040235605
 H         -2.8751441649       -1.6156044234       -2.2364019740
 H         -2.6299523081       -2.6159909271       -0.7994147052
 H         -2.6942369347        0.1776100239        1.6517738429
 H         -2.5251839006       -1.5716559617        1.4646693362
 H         -3.1243874437        0.8801373598       -1.9894488961
 H         -3.0500114522        1.6201703015       -0.3821691216
 H         -0.9100941806        0.5309813723       -0.9655342798
 H          5.4071310033       -0.0927892898       -0.8517740710
 H          6.0236951502       -2.1948638107        0.2829480207
 H          4.3264267490       -3.7284040094        1.1326756685
 H          1.9008440938       -3.2200014463        0.8791611073
 H          2.4362271498        2.1872732579       -2.4093199353
 H          4.0640079209        1.4652971402       -2.3595596951
 H          4.2599254006        2.2509021976        0.0370183166
 H          4.1755218936        3.5617162942       -1.1440428695
 H          1.7437937413        2.5207780809        0.3843778434
 H          1.8110784284        3.9264767336       -0.6742378234
 H          3.6007818451        4.8589673521        0.9801682458
 H          1.9111500841        4.8390033318        1.5021999349
 H          3.8922564089        2.6294595349        2.2404216642
 H          3.4868195546        4.0312306782        3.2783526399
  58
        -82.23492037
 C         -5.5145281559       -1.6843595784       -1.2366460531
 C         -4.7473620300       -2.6300157633       -0.3132961401
 C         -5.1431652732       -2.3628814290        1.1378980908
 C         -4.8076427174       -0.9161428086        1.4960239158
 C         -5.5750151469        0.0314534248        0.5748587131
 C         -5.1761653310       -0.2388398513       -0.8751771195
 C         -3.6742611436       -0.0074944464       -1.0442696945
 C         -2.9043373695       -0.9534258697       -0.1226081218
 C         -3.2464985165       -2.4039342077       -0.4816779803
 C         -3.3069454901       -0.6857144177        1.3320347136
 N         -1.4787892987       -0.7131248084       -0.3025185155
 C         -0.4858773511       -1.3595764751        0.3430605778
 O         -0.6456577827       -2.2322460410        1.1796909834
 C          0.8542515996       -0.8963078450       -0.0693332508
 N          1.0341336302        0.0492734961       -0.9741102465
 N          2.3469040436        0.2315871666       -1.1298227833
 C          3.0610640847       -0.5941860093       -0.3155860494
 C          4.4307976723       -0.7692710188       -0.1268691610
 C          4.8191180080       -1.7184542241        0.7890873912
 C          3.8869204139       -2.4825731887        1.5066782630
 C          2.5349070879       -2.3205308171        1.3270437591
 C          2.1140392020       -1.3633142612        0.4030553092
 C          2.8281268121        1.2460272110       -2.0247975167
 C          2.7554392932        2.6433830456       -1.3967958609
 C          3.7092587786        2.7934454015       -0.2127095722
 C          3.5522589201        4.1259069641        0.5170376633
 C          3.9845162198        5.3149609679       -0.3303600694
 F          3.9612644205        6.4626041940        0.4258395654
 H         -6.5888815457       -1.8502899469       -1.1306739034
 H         -5.2467708622       -1.8806934184       -2.2775394869
 H         -4.9865819845       -3.6672151173       -0.5729302417
 H         -4.6014599159       -3.0417519464        1.7989975272
 H         -6.2125612565       -2.5418255624        1.2718161760
 H         -5.0901278834       -0.7218674754        2.5366278156
 H         -6.6498803930       -0.1192722993        0.6969988214
 H         -5.3508000596        1.0683524712        0.8360251970
 H         -5.7222804593        0.4420714081       -1.5384127761
 H         -3.4273321680        1.0282743215       -0.7973299500
 H         -3.3845155324       -0.1890230075       -2.0825262456
 H         -2.6848526969       -3.0717265256        0.1719042228
 H         -2.9452005111       -2.6037806285       -1.5131107613
 H         -3.0491454502        0.3427585566        1.5970407662
 H         -2.7450555619       -1.3554741194        1.9832848257
 H         -1.1908932202       -0.0186020556       -0.9752127377
 H          5.1573424286       -0.1866370742       -0.6727893694
 H          5.8722263761       -1.8833755720        0.9638707188
 H          4.2512059575       -3.2131906843        2.2133222786
 H          1.8036433098       -2.8995278520        1.8670566959
 H          2.2040849084        1.2203594166       -2.9225094169
 H          3.8571805445        1.0040653818       -2.2990825566
 H          2.9946542568        3.3751220752       -2.1690693093
 H          1.7302141267        2.8168821967       -1.0645777363
 H          4.7404320625        2.6903130191       -0.5595073083
 H          3.5169473715        1.9906375754        0.5018732188
 H          2.5132479224        4.2639044628        0.8221976312
 H          4.1659320618        4.1165373279        1.4202882420
 H          5.0131758927        5.1982600622       -0.6887376810
 H          3.3112824198        5.4904556267       -1.1748629645
  58
        -82.23491770
 C         -5.5798881989       -0.0883854009        0.7433930606
 C         -5.2209504262       -0.1683034547       -0.7396760416
 C         -5.5585010777       -1.5601816854       -1.2720745208
 C         -4.7571454195       -2.6060771886       -0.4979570380
 C         -5.1124713691       -2.5291751001        0.9858535340
 C         -4.7782404578       -1.1356757315        1.5152906078
 C         -3.2847040519       -0.8693591862        1.3399955228
 C         -2.9224362452       -0.9457889375       -0.1474576541
 C         -3.7264620443        0.1001448209       -0.9198409048
 C         -3.2635700119       -2.3432004643       -0.6774704624
 N         -1.5046089370       -0.6685182454       -0.3353808302
 C         -0.4885424209       -1.3829369490        0.1914420365
 O         -0.6175035578       -2.3562021098        0.9148539151
 C          0.8356548671       -0.8612921930       -0.2022221463
 N          0.9831186877        0.1961031035       -0.9802518316
 N          2.2894386156        0.4024180120       -1.1584262768
 C          3.0321919676       -0.5217395225       -0.4882125403
 C          4.4076740075       -0.7168805076       -0.3771139730
 C          4.8284366019       -1.7781435844        0.3893017033
 C          3.9225189747       -2.6326775703        1.0350502130
 C          2.5650157702       -2.4520710482        0.9299165013
 C          2.1115006094       -1.3821817802        0.1573435505
 C          2.7389448166        1.5269920103       -1.9296871509
 C          2.7145442365        2.8268949234       -1.1159190928
 C          3.7271213119        2.8109874261        0.0280205171
 C          3.6322065235        4.0402284828        0.9293862777
 C          4.0520899270        5.3218448854        0.2222769435
 F          4.0894246546        6.3620189726        1.1200492224
 H         -6.6495012621       -0.2658210151        0.8752814347
 H         -5.3564836933        0.9096330593        1.1276367088
 H         -5.7915997426        0.5846720047       -1.2956754251
 H         -5.3194314747       -1.6201201083       -2.3364603854
 H         -6.6279655696       -1.7505563494       -1.1583277428
 H         -4.9956524523       -3.6047474260       -0.8802897574
 H         -6.1760507178       -2.7359191012        1.1256885916
 H         -4.5464695297       -3.2799861114        1.5402078853
 H         -5.0319797261       -1.0778349026        2.5795632446
 H         -2.6986534923       -1.6094638290        1.8851668213
 H         -3.0275360713        0.1202229756        1.7258644558
 H         -3.4655072159        0.0548906691       -1.9803972104
 H         -3.4806849118        1.0990935678       -0.5503798167
 H         -2.6777705602       -3.0818567215       -0.1299320476
 H         -2.9907972169       -2.4072702404       -1.7338596040
 H         -1.2418347547        0.1090249228       -0.9220245251
 H          5.1142095103       -0.0652464070       -0.8685728926
 H          5.8870716186       -1.9613235692        0.5011743005
 H          4.3117689470       -3.4495375977        1.6241912971
 H          1.8535093827       -3.0999667605        1.4152156028
 H          2.0713221154        1.6265753037       -2.7900720333
 H          3.7504328715        1.3192412784       -2.2855201972
 H          2.9246920017        3.6547533100       -1.7938862638
 H          1.7092447100        2.9602168127       -0.7119856518
 H          4.7379584705        2.7406938596       -0.3810938384
 H          3.5546787842        1.9250900859        0.6424180266
 H          2.6112450480        4.1540864449        1.2986117639
 H          4.2856120094        3.9043823915        1.7937532646
 H          5.0604481433        5.2354895159       -0.1971496465
 H          3.3454157332        5.6165686372       -0.5593618858
  58
        -82.23490221
 C         -5.2213438579       -1.1104899013        1.5475952471
 C         -4.7675111492        0.2998355603        1.1736438767
 C         -5.1894261155        0.6081901696       -0.2621867528
 C         -4.5417966528       -0.4022971925       -1.2081367175
 C         -4.9932369819       -1.8140200134       -0.8375174973
 C         -4.5736756226       -2.1190281292        0.5994887592
 C         -3.0537216298       -2.0285892606        0.7165810432
 C         -2.5958473773       -0.6137203273        0.3447884091
 C         -3.2461593526        0.3955981347        1.2910654263
 C         -3.0218994895       -0.3077247883       -1.0956132737
 N         -1.1498532613       -0.5009549081        0.4755503428
 C         -0.2399907149       -1.2222649922       -0.2114351808
 O         -0.5033302304       -2.0859035815       -1.0310513295
 C          1.1483036223       -0.8527193914        0.1298390978
 N          1.4392712103        0.0233758395        1.0750517628
 N          2.7668387018        0.1419163507        1.1372424819
 C          3.3775872953       -0.6480392654        0.2118638127
 C          4.7197696013       -0.8486349632       -0.1035889684
 C          4.9963367337       -1.7446914636       -1.1097303724
 C          3.9802748961       -2.4296085882       -1.7924747591
 C          2.6540796748       -2.2388613798       -1.4888991649
 C          2.3458483766       -1.3343212588       -0.4723717623
 C          3.3801458287        1.0882899399        2.0248275459
 C          3.6329923681        2.4275341826        1.3219816871
 C          2.3221762414        3.1546662411        1.0276876939
 C          2.5106960910        4.3733810912        0.1220104186
 C          2.6395812523        3.9886225823       -1.3456423495
 F          1.4473043140        3.4820320109       -1.8052106324
 H         -6.3092991559       -1.1795109983        1.4784897816
 H         -4.9369020813       -1.3323376924        2.5789372706
 H         -5.2278511235        1.0252974092        1.8546684951
 H         -4.8812429202        1.6210461355       -0.5316215757
 H         -6.2771419104        0.5552239747       -0.3476628773
 H         -4.8410451975       -0.1810864804       -2.2386015668
 H         -6.0784141753       -1.8963951264       -0.9345445066
 H         -4.5373381601       -2.5371397899       -1.5162145672
 H         -4.8961750281       -3.1312469026        0.8679397117
 H         -2.5762403525       -2.7422461965        0.0448607568
 H         -2.7367737308       -2.2569500985        1.7373547227
 H         -2.9159521778        1.4052247552        1.0336137404
 H         -2.9383631440        0.1871423589        2.3191019252
 H         -2.5450573687       -1.0240151853       -1.7649061715
 H         -2.6807782184        0.6933675158       -1.3703814320
 H         -0.7795952506        0.1761091498        1.1252544835
 H          5.5081585053       -0.3252970350        0.4167490141
 H          6.0245648975       -1.9282558868       -1.3858245008
 H          4.2580849189       -3.1212038992       -2.5739154870
 H          1.8607086221       -2.7572969916       -2.0021272315
 H          4.3215156676        0.6652924951        2.3863069111
 H          2.7039671925        1.2323949691        2.8707296024
 H          4.2651158722        3.0491202819        1.9591826967
 H          4.1762497236        2.2349639455        0.3946037205
 H          1.8792366604        3.4738267451        1.9731087793
 H          1.6201990003        2.4674471824        0.5515056870
 H          1.6470177878        5.0337387615        0.2186012497
 H          3.4013944928        4.9308966469        0.4163140738
 H          2.8687577824        4.8589558088       -1.9692452066
 H          3.3903953692        3.2091075840       -1.5076899901
  58
        -82.23490205
 C         -5.7093399735       -1.5673853867       -1.2001134395
 C         -4.9055349403       -2.6383653809       -0.4637053925
 C         -5.2798636216       -2.6324438559        1.0174427469
 C         -4.9679266195       -1.2606277933        1.6130313250
 C         -5.7718634161       -0.1880694953        0.8790365550
 C         -5.3945351651       -0.1972113528       -0.6016082076
 C         -3.9012315982        0.0951700965       -0.7507468310
 C         -3.0945133237       -0.9756342765       -0.0160748272
 C         -3.4131308157       -2.3511992275       -0.6129515204
 C         -3.4756562657       -0.9701766968        1.4687558979
 N         -1.6782335052       -0.6742510477       -0.1733853939
 C         -0.6591951233       -1.3988511274        0.3346127811
 O         -0.7851855846       -2.4098277755        1.0050077140
 C          0.6615849119       -0.8350312767       -0.0068176949
 N          0.8012054031        0.2703122562       -0.7183948478
 N          2.1051840622        0.5082709315       -0.8629451530
 C          2.8544413900       -0.4372466711       -0.2318490187
 C          4.2320473389       -0.6051732013       -0.1075101787
 C          4.6640399687       -1.6998096629        0.6041295434
 C          3.7663829480       -2.6105803329        1.1810868600
 C          2.4067071692       -2.4551341649        1.0619523315
 C          1.9413117287       -1.3518498992        0.3454222744
 C          2.5658967117        1.6877518795       -1.5381973056
 C          2.9339040695        2.7948936015       -0.5448895004
 C          3.4460541835        4.0361443876       -1.2703180535
 C          3.7753044722        5.1927384419       -0.3242172401
 C          5.0322765131        4.9467508211        0.4990649411
 F          6.1254608386        4.8178368603       -0.3255318738
 H         -6.7778847253       -1.7744130364       -1.1083702127
 H         -5.4568047425       -1.5766415601       -2.2630213499
 H         -5.1278848290       -3.6213817305       -0.8934264743
 H         -4.7119984170       -3.4012415523        1.5445345178
 H         -6.3426877645       -2.8568663775        1.1344394969
 H         -5.2351461106       -1.2536403184        2.6756014073
 H         -6.8409440762       -0.3827805034        0.9894862484
 H         -5.5643899444        0.7940578736        1.3104279245
 H         -5.9670591127        0.5738444180       -1.1303368568
 H         -3.6713041816        1.0791732262       -0.3338740444
 H         -3.6270058726        0.1004672086       -1.8088589343
 H         -2.8254368639       -3.1071331353       -0.0917372863
 H         -3.1268797833       -2.3647018685       -1.6676248010
 H         -3.2342498752        0.0036494982        1.9022704803
 H         -2.8878119651       -1.7279783414        1.9870660162
 H         -1.4175626114        0.1389932955       -0.7104314862
 H          4.9296694135        0.0892878320       -0.5507381950
 H          5.7244624897       -1.8667775387        0.7246103688
 H          4.1642859332       -3.4518887507        1.7288090301
 H          1.7032232649       -3.1465266504        1.4964494710
 H          1.7582620829        2.0233328535       -2.1927793335
 H          3.4355665422        1.4288158357       -2.1496793129
 H          2.0500090067        3.0480082850        0.0448938476
 H          3.6943787954        2.4112077154        0.1371977702
 H          2.6841243268        4.3706393636       -1.9774061178
 H          4.3417081098        3.7840842723       -1.8414944309
 H          3.9280389138        6.0991053397       -0.9132747918
 H          2.9459876220        5.3664486144        0.3630507035
 H          5.2415422563        5.7905813228        1.1642834272
 H          4.9716864782        4.0236985494        1.0828373647
  58
        -82.23490201
 C         -5.1023171884       -0.7336232711        1.3193149706
 C         -4.6015316431        0.5872805984        0.7367341013
 C         -4.9871812648        0.6732992483       -0.7392328120
 C         -4.3515194844       -0.4913347158       -1.4975102328
 C         -4.8494383520       -1.8142344576       -0.9177693554
 C         -4.4658348714       -1.8963958529        0.5587785567
 C         -2.9463048528       -1.8266255034        0.6947919643
 C         -2.4426830984       -0.5008945857        0.1137147104
 C         -3.0806502369        0.6625530750        0.8729409346
 C         -2.8318377737       -0.4177637269       -1.3664517664
 N         -0.9961083625       -0.4031636146        0.2586347185
 C         -0.0895050808       -1.2499667621       -0.2714164590
 O         -0.3554496460       -2.2377332282       -0.9347345452
 C          1.3014587819       -0.8516518324        0.0288777666
 N          1.5941584055        0.2639457235        0.6741242930
 N          2.9221556897        0.3502156307        0.7793318027
 C          3.5324596191       -0.7138713823        0.1895328899
 C          4.8749697435       -1.0593408269        0.0498625369
 C          5.1506706811       -2.2353612635       -0.6074056526
 C          4.1336823397       -3.0564091777       -1.1171548281
 C          2.8070767731       -2.7273236187       -0.9813202074
 C          2.4995223074       -1.5385982936       -0.3182606997
 C          3.5296910203        1.5076787986        1.3717495123
 C          4.0440328624        2.4963462024        0.3158602107
 C          2.9961756030        2.9407649806       -0.7075362431
 C          2.0004289231        3.9948475540       -0.2210419057
 C          0.9388928395        3.4593620423        0.7347253434
 F         -0.2166531995        4.2022946287        0.6179295375
 H         -6.1902256681       -0.7857411063        1.2367203574
 H         -4.8440787090       -0.7953765847        2.3791177236
 H         -5.0530481973        1.4235800000        1.2825210331
 H         -4.6450556310        1.6223822731       -1.1580439181
 H         -6.0740731076        0.6349105210       -0.8406117724
 H         -4.6248340907       -0.4301522746       -2.5567792220
 H         -5.9344206972       -1.8835458205       -1.0253519382
 H         -4.4020110966       -2.6478083607       -1.4623444094
 H         -4.8214043302       -2.8446687797        0.9770726998
 H         -2.4770274055       -2.6505149096        0.1565897844
 H         -2.6553340001       -1.8968182803        1.7459623441
 H         -2.7178660230        1.6113402259        0.4695229665
 H         -2.7994156756        0.6112898397        1.9280553771
 H         -2.3624284646       -1.2426223041       -1.9033037873
 H         -2.4598457600        0.5196501383       -1.7875322236
 H         -0.6280916551        0.3688524402        0.7932648620
 H          5.6633637390       -0.4347711501        0.4420063185
 H          6.1790398507       -2.5394795209       -0.7371478840
 H          4.4111219407       -3.9678857670       -1.6252193809
 H          2.0128062868       -3.3468829408       -1.3646533074
 H          4.3656645484        1.1828907112        1.9993381564
 H          2.7753643683        1.9734354501        2.0056176251
 H          4.4521919036        3.3676415010        0.8307663668
 H          4.8615725211        2.0154181146       -0.2259833776
 H          2.4488176308        2.0691522248       -1.0711406034
 H          3.5306650515        3.3654675274       -1.5599549799
 H          2.5337345504        4.8299946116        0.2370704442
 H          1.4688423629        4.3830985256       -1.0930702103
 H          0.6737114806        2.4253990343        0.4914749880
 H          1.2342396720        3.5353183109        1.7855109895
  58
        -82.23489462
 C         -5.3039678199       -2.7310981267       -0.3212697472
 C         -4.8699778481       -2.4918886105        1.1238672924
 C         -5.6400548947       -1.3044930522        1.7004948335
 C         -5.3452787664       -0.0575390439        0.8680839922
 C         -5.7822154228       -0.2934736382       -0.5769867375
 C         -5.0121187214       -1.4820713581       -1.1511068558
 C         -3.5143280855       -1.1864930216       -1.1164965629
 C         -3.0734551769       -0.9461134577        0.3319471167
 C         -3.3718118534       -2.1986467859        1.1637905611
 C         -3.8462681893        0.2409434630        0.9071487998
 N         -1.6511668967       -0.6362119008        0.3799150582
 C         -0.6554671676       -1.4443822332       -0.0407940354
 O         -0.8105038340       -2.5544925462       -0.5213526665
 C          0.6785432029       -0.8383357832        0.1386056859
 N          0.8475701276        0.3719341363        0.6427980194
 N          2.1559843000        0.6259672796        0.6813624833
 C          2.8779016573       -0.4162552655        0.1851179787
 C          4.2484679045       -0.6075813579        0.0227979423
 C          4.6503304857       -1.8094305221       -0.5113825173
 C          3.7299351989       -2.8025721028       -0.8783882611
 C          2.3770179309       -2.6242464745       -0.7205760938
 C          1.9419800713       -1.4129135073       -0.1814555750
 C          2.6420949661        1.9037064600        1.1177305005
 C          2.9290515370        2.8285681719       -0.0697999181
 C          3.4640005017        4.1783098920        0.4005031023
 C          3.7002406583        5.1640270220       -0.7456644628
 C          4.8970656848        4.7932840590       -1.6107701402
 F          6.0507865168        4.8095546579       -0.8622592249
 H         -6.3713760257       -2.9613725947       -0.3568684070
 H         -4.7603698618       -3.5831181701       -0.7334820796
 H         -5.0778890464       -3.3864618124        1.7213054435
 H         -5.3448631343       -1.1375192281        2.7390444001
 H         -6.7120833548       -1.5133874033        1.6869561257
 H         -5.8934657899        0.7970456556        1.2816373420
 H         -6.8555340796       -0.4931707595       -0.6110881079
 H         -5.5890386755        0.6000835577       -1.1752900755
 H         -5.3220809040       -1.6510061405       -2.1883695545
 H         -3.2874492444       -0.3018432495       -1.7169173305
 H         -2.9503724642       -2.0264871518       -1.5225398008
 H         -3.0432910652       -2.0375310348        2.1936049692
 H         -2.8079957910       -3.0372013977        0.7546103114
 H         -3.6302500314        1.1386414460        0.3219752823
 H         -3.5293826488        0.4211315841        1.9376486025
 H         -1.3670133486        0.2557160587        0.7560606641
 H          4.9635070088        0.1505344232        0.3045236723
 H          5.7043030530       -1.9979703425       -0.6544743633
 H          4.1045542845       -3.7265967684       -1.2930772778
 H          1.6564655326       -3.3773447482       -0.9950834024
 H          3.5526430570        1.7540067548        1.7054570953
 H          1.8734941016        2.3424941142        1.7581968240
 H          3.6518687701        2.3392018778       -0.7247109571
 H          2.0056314369        2.9722085032       -0.6353813575
 H          4.4028043654        4.0337861645        0.9387091187
 H          2.7464927702        4.6188639222        1.0958743655
 H          2.8190310614        5.2158133269       -1.3868490691
 H          3.8786437467        6.1565191509       -0.3274005777
 H          4.8106474983        3.7860608543       -2.0285068464
 H          5.0402135824        5.5168345500       -2.4196894059
  58
        -82.23488707
 C         -5.2408026445       -1.0661821100       -1.4100709346
 C         -4.5864865578       -2.0675634289       -0.4589537667
 C         -4.9696298826       -1.7317220878        0.9813420019
 C         -4.4901552903       -0.3205275596        1.3171722555
 C         -5.1444565022        0.6827203990        0.3681328924
 C         -4.7590725008        0.3437248167       -1.0710462323
 C         -3.2395165685        0.4154383888       -1.2234706164
 C         -2.5826051109       -0.5867873301       -0.2742607241
 C         -3.0684009629       -2.0010499494       -0.6110828981
 C         -2.9719614392       -0.2498661025        1.1695987732
 N         -1.1384823518       -0.4971186986       -0.4389941394
 C         -0.2236021385       -1.2186907478        0.2408348022
 O         -0.4802612313       -2.0663171685        1.0790775640
 C          1.1618666203       -0.8710341907       -0.1335229019
 N          1.4444767195       -0.0145066300       -1.0989305930
 N          2.7718689401        0.0896466364       -1.1868346745
 C          3.3913497562       -0.6898399153       -0.2583272819
 C          4.7368658641       -0.8975581195        0.0378981761
 C          5.0224932545       -1.7790778646        1.0543044978
 C          4.0121160819       -2.4428358506        1.7657701244
 C          2.6827103768       -2.2443352682        1.4819245663
 C          2.3652921223       -1.3542076521        0.4555389268
 C          3.3779227068        1.0175119312       -2.0986816920
 C          3.6166502875        2.3768704447       -1.4299749186
 C          2.2988234892        3.1060212900       -1.1737971675
 C          2.4646093411        4.3311402291       -0.2722523642
 C          2.5414478072        3.9556164166        1.2014265666
 F          1.3290913270        3.4648757990        1.6245127447
 H         -6.3278048284       -1.1183577379       -1.3158862461
 H         -4.9825169546       -1.3098310107       -2.4433617354
 H         -4.9291001676       -3.0795064202       -0.7024286074
 H         -4.5089761108       -2.4495689924        1.6624173162
 H         -6.0534537187       -1.7967566586        1.1036463765
 H         -4.7632538928       -0.0773185576        2.3499323501
 H         -6.2306546921        0.6470136633        0.4785269260
 H         -4.8160467562        1.6954681556        0.6128846138
 H         -5.2242267422        1.0639325574       -1.7543956928
 H         -2.8894873386        1.4243732670       -0.9907474250
 H         -2.9575351288        0.1850216351       -2.2542322801
 H         -2.5861661393       -2.7098098539        0.0623960585
 H         -2.7775009965       -2.2514991564       -1.6344330383
 H         -2.6105249179        0.7507091960        1.4190965365
 H         -2.4905800874       -0.9615078338        1.8406155089
 H         -0.7736079217        0.1668613194       -1.1049789313
 H          5.5210836953       -0.3903397534       -0.5042603144
 H          6.0536290297       -1.9680137195        1.3155540084
 H          4.2969628749       -3.1241624954        2.5536487100
 H          1.8935104153       -2.7462405361        2.0175237891
 H          2.7028599938        1.1340761053       -2.9497621268
 H          4.3234869604        0.5930192472       -2.4465947126
 H          4.1478413446        2.2118589208       -0.4902649004
 H          4.2554421629        2.9834943395       -2.0748044146
 H          1.5860298166        2.4215485626       -0.7096981809
 H          1.8789883422        3.4173007214       -2.1322474748
 H          3.3681328254        4.8809500966       -0.5406748498
 H          1.6089922245        4.9962135620       -0.4022357824
 H          3.2778033034        3.1689902801        1.3929733220
 H          2.7593935948        4.8275671733        1.8267575764
  58
        -82.23485519
 C         -5.1092901126       -0.8938506083        1.4721840914
 C         -4.5958915593        0.5167843867        1.1869783482
 C         -4.9818293513        0.9232405489       -0.2345199020
 C         -4.3576302476       -0.0558624122       -1.2280924298
 C         -4.8691448548       -1.4676579269       -0.9465806658
 C         -4.4856563667       -1.8709994945        0.4762191203
 C         -2.9654834444       -1.8473028016        0.6199640776
 C         -2.4477220497       -0.4324480540        0.3373928962
 C         -3.0740378651        0.5460143603        1.3313393605
 C         -2.8372661483       -0.0275441983       -1.0886779887
 N         -0.9999221265       -0.3804785281        0.4918064656
 C         -0.1062044703       -1.0966834234       -0.2250086615
 O         -0.3878245003       -1.8775129015       -1.1167997606
 C          1.2872656622       -0.8058187384        0.1661740425
 N          1.5875371562       -0.0220430215        1.1870630555
 N          2.9165212296        0.0780760171        1.2570524158
 C          3.5189374276       -0.6345285965        0.2655780241
 C          4.8586634413       -0.8176928842       -0.0695959155
 C          5.1250921613       -1.6220444307       -1.1527810754
 C          4.1016712316       -2.2329883472       -1.8927276286
 C          2.7776927194       -2.0582587191       -1.5711264481
 C          2.4795983360       -1.2468841646       -0.4757868943
 C          3.5248005479        0.9620202657        2.2083129842
 C          3.7286645567        2.3736311851        1.6391511391
 C          2.4148890543        2.9835507143        1.1333847114
 C          2.2190465573        2.8024348600       -0.3723106487
 C          0.7815046972        3.1041820832       -0.7697656687
 F          0.6448846519        3.0765441867       -2.1358194957
 H         -6.1977154945       -0.9158151578        1.3838917275
 H         -4.8505993252       -1.1854870955        2.4929194255
 H         -5.0388356051        1.2194693647        1.9025063780
 H         -4.6315522796        1.9373563582       -0.4406584116
 H         -6.0691184081        0.9174515971       -0.3382363856
 H         -4.6303151083        0.2358832774       -2.2480887199
 H         -5.9548522256       -1.5013507224       -1.0637098749
 H         -4.4304036288       -2.1679389635       -1.6596004267
 H         -4.8510200490       -2.8834409196        0.6810269699
 H         -2.5050536137       -2.5391316382       -0.0858040112
 H         -2.6743257180       -2.1467687752        1.6301510450
 H         -2.7022490662        1.5559580176        1.1381388821
 H         -2.7916857313        0.2676007909        2.3502827408
 H         -2.3771723547       -0.7214581739       -1.7921848055
 H         -2.4551445022        0.9738846920       -1.3022208653
 H         -0.6189818225        0.1758879558        1.2423788574
 H          5.6517420863       -0.3490862001        0.4934640070
 H          6.1509407309       -1.7891013759       -1.4469514813
 H          4.3719160515       -2.8531490710       -2.7342782707
 H          1.9788715943       -2.5194405342       -2.1285967205
 H          4.4836778983        0.5388211481        2.5192308760
 H          2.8600428608        1.0105362858        3.0744963663
 H          4.1483446584        2.9904387687        2.4348859039
 H          4.4547910544        2.3372969390        0.8253201675
 H          2.3904643851        4.0503170746        1.3625858962
 H          1.5813060649        2.5130847694        1.6589098711
 H          2.8861721908        3.4719943236       -0.9194849351
 H          2.4530031536        1.7822300217       -0.6776487928
 H          0.0933461891        2.3519709582       -0.3693195697
 H          0.4757683220        4.1053942877       -0.4457079283
  58
        -82.23485337
 C         -5.0033196028        0.7701589246       -0.6061361059
 C         -4.3720638575       -0.5122801679       -1.1467648538
 C         -4.8841393187       -1.7109609769       -0.3499339802
 C         -4.5093404071       -1.5387318667        1.1210795698
 C         -5.1399335726       -0.2571394776        1.6645894353
 C         -4.6257530388        0.9389957385        0.8648107228
 C         -3.1048351113        1.0259325175        0.9953839793
 C         -2.4715774730       -0.2560546588        0.4541295406
 C         -2.8526088211       -0.4279932199       -1.0205023300
 C         -2.9901730922       -1.4570984743        1.2531298237
 N         -1.0247516732       -0.1452672341        0.5853671954
 C         -0.1275156493       -1.0823016478        0.2082239256
 O         -0.4045283537       -2.1455221288       -0.3184003363
 C          1.2636285708       -0.6673427417        0.4760168056
 N          1.5594269493        0.4513600094        1.1146330346
 N          2.8884267935        0.5605141063        1.1672733829
 C          3.4957872622       -0.4881511650        0.5466918294
 C          4.8378024235       -0.7985768357        0.3384928637
 C          5.1093274687       -1.9649719805       -0.3375832872
 C          4.0887313359       -2.8086445646       -0.8009933993
 C          2.7625481191       -2.5114117326       -0.6015513783
 C          2.4592801541       -1.3335849873        0.0823305702
 C          3.4949942321        1.7406490800        1.7108526719
 C          3.7475573720        2.8092503960        0.6374026368
 C          2.4638436069        3.1794072663       -0.1167688498
 C          2.3111423849        2.4169936802       -1.4333702125
 C          0.8966996711        2.5555178174       -1.9771829244
 F          0.8043825992        1.9881776014       -3.2242166868
 H         -6.0899236872        0.7215910172       -0.7055307247
 H         -4.6528408356        1.6297070258       -1.1822825189
 H         -4.6387055630       -0.6333297141       -2.2022929665
 H         -4.4402332951       -2.6291424937       -0.7387194917
 H         -5.9690305060       -1.7903698666       -0.4513484827
 H         -4.8751486959       -2.3972200334        1.6952147145
 H         -6.2277556816       -0.3145363675        1.5854258183
 H         -4.8873894055       -0.1358850078        2.7206901245
 H         -5.0736958513        1.8604092185        1.2550174547
 H         -2.8287145699        1.1586519410        2.0449613904
 H         -2.7325093549        1.8865563174        0.4330670475
 H         -2.3873946886       -1.3365358002       -1.4029454402
 H         -2.4701719039        0.4173599388       -1.5981236590
 H         -2.7050711084       -1.3467441667        2.3026364723
 H         -2.5249463822       -2.3647907858        0.8679431700
 H         -0.6484157126        0.6587266903        1.0648853924
 H          5.6287068668       -0.1534140614        0.6903732831
 H          6.1371049424       -2.2421005434       -0.5210531881
 H          4.3629756239       -3.7108838996       -1.3269155824
 H          1.9658364531       -3.1475905905       -0.9509119070
 H          4.4352443658        1.4629989173        2.1948076948
 H          2.8100431870        2.1359389512        2.4651772665
 H          4.1564925517        3.6873556100        1.1388335522
 H          4.4970884993        2.4474065332       -0.0683295988
 H          2.4563271662        4.2496601421       -0.3304103637
 H          1.6039772721        2.9632006285        0.5206809679
 H          3.0147863023        2.8045084208       -2.1733698048
 H          2.5252127966        1.3563600815       -1.2987310565
 H          0.1738604878        2.0348918910       -1.3398188892
 H          0.6100508544        3.6071187663       -2.0906612081
  58
        -82.23475522
 C         -5.4962506197       -0.3439560475       -0.7749487571
 C         -4.7572989837       -1.6552997815       -1.0390272262
 C         -5.1302909764       -2.6786389135        0.0322329250
 C         -4.7372396834       -2.1392002081        1.4064565238
 C         -5.4760856946       -0.8283720281        1.6733772356
 C         -5.1003509849        0.1921678805        0.6000430214
 C         -3.5923566111        0.4416460527        0.6370475021
 C         -2.8506502465       -0.8685115765        0.3716645705
 C         -3.2504680781       -1.4094228416       -1.0058397142
 C         -3.2303672736       -1.8945431132        1.4454899223
 N         -1.4188800659       -0.6036632197        0.4124721092
 C         -0.4447753675       -1.5184316646        0.2254410384
 O         -0.6297013439       -2.6998293595       -0.0146850261
 C          0.9076413607       -0.9375922595        0.3412148964
 N          1.1132203863        0.3434401321        0.5931983028
 N          2.4294952359        0.5495824734        0.6482918848
 C          3.1208029911       -0.6004271939        0.4179613501
 C          4.4860066186       -0.8751819123        0.3743124841
 C          4.8519172127       -2.1768122916        0.1230096665
 C          3.9012362126       -3.1879971028       -0.0808917509
 C          2.5530444380       -2.9278580530       -0.0376779088
 C          2.1545028003       -1.6146955524        0.2148919512
 C          2.9578170417        1.8693454236        0.8448467263
 C          3.3480738909        2.5221996710       -0.4853275270
 C          3.9287016448        3.9162990937       -0.2644015394
 C          4.3708783294        4.5943757456       -1.5629175328
 C          3.1992229895        5.0698135832       -2.4108808743
 F          2.4904873346        6.0401746223       -1.7420367614
 H         -6.5751698720       -0.5104717938       -0.8104529664
 H         -5.2450843936        0.3875952283       -1.5465520366
 H         -5.0377790563       -2.0399236499       -2.0259077075
 H         -4.6090499015       -3.6185974039       -0.1580124848
 H         -6.2045553635       -2.8753603879        0.0020845358
 H         -5.0032743657       -2.8714754821        2.1768391382
 H         -6.5548419352       -0.9991840360        1.6599697736
 H         -5.2103068053       -0.4450375341        2.6613210922
 H         -5.6260640344        1.1349910771        0.7908892705
 H         -3.3043965585        0.8354764825        1.6151832676
 H         -3.3185747856        1.1793528732       -0.1216092408
 H         -2.7085814075       -2.3368475048       -1.1922612817
 H         -2.9661117184       -0.6879509929       -1.7759576223
 H         -2.9312961350       -1.5200265179        2.4277174840
 H         -2.6886350229       -2.8214442462        1.2558943071
 H         -1.1109539410        0.3371820012        0.6070450330
 H          5.2239770435       -0.1031278404        0.5323216488
 H          5.9007225996       -2.4322530844        0.0805562738
 H          4.2481450096       -4.1921099416       -0.2744633260
 H          1.8091995354       -3.6929367076       -0.1894213026
 H          3.8287362775        1.8063840614        1.5043654845
 H          2.1817970276        2.4604955500        1.3363181372
 H          4.0835394144        1.8921487173       -0.9915844592
 H          2.4591970220        2.5730690260       -1.1157577135
 H          4.7925135221        3.8371026352        0.3993263703
 H          3.1882472741        4.5487953812        0.2286407193
 H          4.9851209755        5.4632819876       -1.3189436301
 H          4.9712205763        3.9082606412       -2.1623789891
 H          3.5445850363        5.5246457389       -3.3448607197
 H          2.4929552522        4.2642851699       -2.6312476111
  58
        -82.23475144
 C         -5.4014234208       -1.2995493781        1.5714488819
 C         -5.0504096966       -0.0065122693        0.8369232652
 C         -5.4979917677       -0.1096881436       -0.6203923250
 C         -4.7830554037       -1.2840122963       -1.2876639407
 C         -5.1312649493       -2.5791114857       -0.5559847809
 C         -4.6864225473       -2.4723974631        0.9016476108
 C         -3.1764281281       -2.2514734722        0.9584358050
 C         -2.8216136415       -0.9530998604        0.2248552777
 C         -3.5393472915        0.2196545405        0.8931428469
 C         -3.2733334509       -1.0602388579       -1.2361461916
 N         -1.3865237420       -0.7128847309        0.2913220605
 C         -0.4290921148       -1.5307170022       -0.1935531354
 O         -0.6340455094       -2.5917141410       -0.7590313544
 C          0.9317610446       -1.0032831365        0.0294356849
 N          1.1570608774        0.1528003472        0.6289390197
 N          2.4758729612        0.3417697226        0.6841962893
 C          3.1485133281       -0.6894455300        0.1031632258
 C          4.5085158484       -0.9315458909       -0.0783061668
 C          4.8540670194       -2.1041210463       -0.7083521367
 C          3.8883975788       -3.0202869011       -1.1511396952
 C          2.5452474720       -2.7916916937       -0.9755405179
 C          2.1672252369       -1.6086068930       -0.3396287468
 C          3.0194829320        1.5562287815        1.2219118289
 C          3.3233237706        2.5718014046        0.1154527722
 C          3.9134232745        3.8556127754        0.6923295912
 C          4.2539364828        4.8927203779       -0.3801061052
 C          3.0198418345        5.5688580856       -0.9612544835
 F          2.3685723727        6.2887950717        0.0128650059
 H         -6.4818631745       -1.4579358537        1.5459469216
 H         -5.0985584571       -1.2271042998        2.6186417502
 H         -5.5588871818        0.8374448069        1.3174305482
 H         -5.2644805036        0.8178615502       -1.1483730523
 H         -6.5792993038       -0.2572299313       -0.6657300873
 H         -5.1006998306       -1.3579261941       -2.3336875977
 H         -6.2080650194       -2.7572245196       -0.6051861977
 H         -4.6271686258       -3.4204922935       -1.0349302930
 H         -4.9346435808       -3.4002608451        1.4288180021
 H         -2.6515607419       -3.0806145069        0.4834826791
 H         -2.8406071730       -2.1856315467        1.9963659410
 H         -3.2829202380        1.1492958778        0.3785702373
 H         -3.2143785444        0.3049292155        1.9332598813
 H         -2.7483967619       -1.8909308542       -1.7083177776
 H         -3.0067898608       -0.1428281647       -1.7670264617
 H         -1.0623652591        0.1328908938        0.7356925182
 H          5.2579605403       -0.2323571390        0.2609689159
 H          5.8981800184       -2.3299738330       -0.8691441934
 H          4.2195086336       -3.9245522201       -1.6397728019
 H          1.7901701716       -3.4853963111       -1.3076873030
 H          3.9309738167        1.3189525563        1.7785885747
 H          2.2787259544        1.9677833214        1.9112901724
 H          4.0262511166        2.1289311972       -0.5944631719
 H          2.3957435002        2.7831522516       -0.4185018866
 H          4.8245027464        3.6089852055        1.2418570430
 H          3.2092678350        4.2984502939        1.3990839360
 H          4.8858802794        5.6661654027        0.0605917267
 H          4.8051403191        4.4247842910       -1.1972346386
 H          3.2909970576        6.2818505539       -1.7464609951
 H          2.2963561283        4.8472289793       -1.3512345363
  58
        -82.23473856
 C         -5.2875985610       -2.9845088482       -0.1395343159
 C         -4.9018578203       -2.4133338121        1.2238826721
 C         -5.7140585786       -1.1482644331        1.4983815278
 C         -5.4220057295       -0.1136209626        0.4126007863
 C         -5.8108157133       -0.6816679283       -0.9515419008
 C         -4.9984315010       -1.9472231405       -1.2232061314
 C         -3.5090736244       -1.6097591335       -1.2208275341
 C         -3.1165296624       -1.0368044540        0.1457444792
 C         -3.4122472386       -2.0771061968        1.2321700946
 C         -3.9315729368        0.2274453887        0.4187110851
 N         -1.7030515095       -0.6850581334        0.1568536563
 C         -0.6790155375       -1.5401312328       -0.0467106320
 O         -0.7971439729       -2.7320211759       -0.2761429399
 C          0.6375575930       -0.8772368305        0.0352123368
 N          0.7705413924        0.4153249510        0.2776071127
 N          2.0731564448        0.7005586363        0.3006755134
 C          2.8273602278       -0.4061592076        0.0560810999
 C          4.2052616678       -0.5970366377       -0.0212058962
 C          4.6433971178       -1.8750065333       -0.2783363293
 C          3.7512575360       -2.9430492982       -0.4554006232
 C          2.3912203587       -2.7655246842       -0.3786826667
 C          1.9198286051       -1.4779672782       -0.1195997044
 C          2.5260985853        2.0514730228        0.4729117067
 C          2.8134617914        2.7130431029       -0.8799401384
 C          3.2116043297        4.1821492782       -0.7511164698
 C          4.5702178748        4.3758626740       -0.0818129914
 C          4.9842572988        5.8404943657       -0.1006357915
 F          6.1962225532        5.9984835365        0.5269953268
 H         -6.3482118914       -3.2465457209       -0.1476019078
 H         -4.7136462804       -3.8920797662       -0.3350673614
 H         -5.1078835860       -3.1554413897        2.0031384037
 H         -5.4533024076       -0.7431444866        2.4789541539
 H         -6.7804326019       -1.3844984625        1.5069072839
 H         -6.0005593656        0.7966666731        0.6088240305
 H         -6.8780367619       -0.9137955761       -0.9649430787
 H         -5.6196927092        0.0588331411       -1.7318139183
 H         -5.2738160644       -2.3544460286       -2.2023841513
 H         -3.2839320714       -0.8773054322       -2.0001464774
 H         -2.9153082679       -2.5036081780       -1.4129191554
 H         -3.1177265486       -1.6788450595        2.2063998864
 H         -2.8187001522       -2.9704297858        1.0367931547
 H         -3.7178760182        0.9754753788       -0.3492011701
 H         -3.6493839527        0.6443395322        1.3889882658
 H         -1.4488659925        0.2739734662        0.3394190727
 H          4.8985694071        0.2190774034        0.1159695587
 H          5.7043542480       -2.0662066683       -0.3467344864
 H          4.1537642201       -3.9249097782       -0.6553178180
 H          1.6918818893       -3.5750764189       -0.5098707385
 H          3.4236765306        2.0382649027        1.0959171946
 H          1.7346940563        2.5962905165        0.9930302838
 H          3.6056246784        2.1598744011       -1.3887555541
 H          1.9111121417        2.6399444800       -1.4905885053
 H          2.4462263803        4.7169330043       -0.1845883312
 H          3.2478650034        4.6191472648       -1.7514947926
 H          4.5390097295        4.0428032209        0.9566300824
 H          5.3298771853        3.7901310089       -0.6036345069
 H          5.1088406037        6.2130926928       -1.1227604373
 H          4.2672808432        6.4684022857        0.4388134395
  58
        -82.23470253
 C         -5.4299182685       -0.5463012919        1.3675145484
 C         -5.1198547865        0.0476413436       -0.0057403399
 C         -5.5520348785       -0.9326389697       -1.0952205213
 C         -4.7901598889       -2.2464479749       -0.9253921293
 C         -5.0972777518       -2.8436601631        0.4468214626
 C         -4.6680163275       -1.8604673643        1.5344828059
 C         -3.1674387502       -1.6000491726        1.4222623158
 C         -2.8537464457       -1.0013039218        0.0464215799
 C         -3.6183472604        0.3117833477       -0.1216533745
 C         -3.2899021269       -1.9870563712       -1.0435586985
 N         -1.4285711092       -0.7224795405       -0.0682731954
 C         -0.4395149400       -1.6356442975        0.0238883423
 O         -0.6026405612       -2.8271748471        0.2262325423
 C          0.9003603709       -1.0394991444       -0.1476601920
 N          1.0840136263        0.2516716012       -0.3612781254
 N          2.3940064275        0.4694284748       -0.4848871250
 C          3.1036650620       -0.6834399922       -0.3401408515
 C          4.4703545400       -0.9499703026       -0.3880438909
 C          4.8567045887       -2.2577699746       -0.2095962823
 C          3.9246346710       -3.2827533337        0.0104461852
 C          2.5750010073       -3.0307152008        0.0566439911
 C          2.1560017769       -1.7116672552       -0.1207450405
 C          2.9012121497        1.8005220821       -0.6602964521
 C          3.3854491405        2.3887010215        0.6702305727
 C          4.0600631105        3.7493827520        0.5069018343
 C          3.0970008351        4.8415567173        0.0481637808
 C          3.7796773305        6.2019536071        0.0380545690
 F          2.9065121305        7.1678430558       -0.4003490097
 H         -6.5037018465       -0.7237332973        1.4598728395
 H         -5.1382414706        0.1561462258        2.1518177292
 H         -5.6620705829        0.9926207220       -0.1271136311
 H         -5.3479340324       -0.5079362631       -2.0809103915
 H         -6.6269407936       -1.1133865593       -1.0249577800
 H         -5.0967032093       -2.9498035549       -1.7075493188
 H         -6.1665229769       -3.0510236304        0.5324685895
 H         -4.5594796051       -3.7857295461        0.5679317580
 H         -4.8868367424       -2.2865143709        2.5199181079
 H         -2.6094338631       -2.5292917294        1.5388722007
 H         -2.8424537692       -0.9073066076        2.2026213645
 H         -3.3915574327        0.7468836122       -1.0984075880
 H         -3.3048136844        1.0209894734        0.6487488139
 H         -2.7318776993       -2.9159259497       -0.9238110917
 H         -3.0521752825       -1.5710610115       -2.0258557320
 H         -1.1386939342        0.2280519030       -0.2420572503
 H          5.1941594846       -0.1673155977       -0.5588360810
 H          5.9073879557       -2.5071643495       -0.2392244845
 H          4.2871453673       -4.2911143291        0.1439881206
 H          1.8450078813       -3.8062626141        0.2218611167
 H          2.0855713301        2.3987253292       -1.0696975359
 H          3.7251228214        1.7727706474       -1.3801275977
 H          2.5343493400        2.4764824730        1.3479719583
 H          4.0967000921        1.6909914293        1.1180412947
 H          4.8812648649        3.6642039488       -0.2086064831
 H          4.4897411722        4.0394492195        1.4683436074
 H          2.7316436833        4.6334631384       -0.9583543578
 H          2.2364217072        4.8846790478        0.7185208686
 H          4.1012510038        6.5013291040        1.0411413859
 H          4.6347008019        6.2185353931       -0.6462269216
  58
        -82.23469625
 C         -5.1288360795       -2.7793326129       -0.2048265743
 C         -4.7277367300       -2.2421946970        1.1679764149
 C         -5.4594018698       -0.9280225443        1.4382370469
 C         -5.0832143285        0.0910804496        0.3637233461
 C         -5.4869150933       -0.4426801700       -1.0099103845
 C         -4.7552707193       -1.7574628683       -1.2772806186
 C         -3.2471580483       -1.5188111389       -1.2499242478
 C         -2.8394757097       -0.9801419373        0.1261359461
 C         -3.2195543828       -2.0046546505        1.2011654989
 C         -3.5739519503        0.3334254979        0.3948366926
 N         -1.4064734223       -0.7213903815        0.1609888461
 C         -0.4362984929       -1.6393675144       -0.0305034840
 O         -0.6256188766       -2.8215643358       -0.2623830032
 C          0.9180907398       -1.0595258616        0.0687593711
 N          1.1265154719        0.2232154081        0.3084862398
 N          2.4435814441        0.4295495590        0.3475653784
 C          3.1322590252       -0.7222074311        0.1178458007
 C          4.4967920820       -0.9978228011        0.0611738062
 C          4.8594417959       -2.3015395467       -0.1842751647
 C          3.9062667434       -3.3138833534       -0.3696770574
 C          2.5587138444       -3.0529148182       -0.3131724278
 C          2.1634480678       -1.7377355709       -0.0662242541
 C          2.9695026373        1.7533088904        0.5232706617
 C          3.3475063342        2.3813118458       -0.8232716566
 C          4.0083528952        3.7505067334       -0.6754041187
 C          3.0587887806        4.8150275790       -0.1312567358
 C          3.7140710695        6.1888246816       -0.1432651343
 F          2.8550380172        7.1287360289        0.3727441689
 H         -6.2041340206       -2.9708548215       -0.2307086626
 H         -4.6129014484       -3.7217204292       -0.3974603786
 H         -4.9941435684       -2.9734580932        1.9391528234
 H         -5.1879328205       -0.5462074780        2.4252158573
 H         -6.5389702605       -1.0937815747        1.4290542774
 H         -5.6037210007        1.0363001505        0.5569596122
 H         -6.5667277116       -0.6040179342       -1.0413330860
 H         -5.2352198952        0.2879321879       -1.7822518707
 H         -5.0414713318       -2.1403895114       -2.2631538107
 H         -2.9622027523       -0.7986086464       -2.0210348776
 H         -2.7104416736       -2.4487994322       -1.4385641464
 H         -2.9148919070       -1.6317698422        2.1822734456
 H         -2.6828757048       -2.9339878823        1.0092394816
 H         -3.2997333607        1.0700239240       -0.3648019028
 H         -3.2801818783        0.7255906109        1.3719080434
 H         -1.0941682412        0.2201779114        0.3446151355
 H          5.2368485766       -0.2248921523        0.2044651549
 H          5.9076102524       -2.5575613723       -0.2367854039
 H          4.2506520822       -4.3195520877       -0.5595778177
 H          1.8129592066       -3.8188005202       -0.4507730982
 H          3.8478421354        1.7020039246        1.1739358388
 H          2.1914811831        2.3401505852        1.0142545472
 H          4.0358889004        1.7073321626       -1.3381370680
 H          2.4480667380        2.4692699785       -1.4354939797
 H          4.3680785176        4.0679797139       -1.6567021562
 H          4.8765491545        3.6661332625       -0.0176726865
 H          2.1531309784        4.8519244076       -0.7397855303
 H          2.7679781033        4.5826928574        0.8940855249
 H          4.6143571765        6.2113615975        0.4800418351
 H          3.9588578636        6.5120733355       -1.1605155397
  58
        -82.23465489
 C         -5.2439989487       -2.6791140099        0.4528041216
 C         -4.8638407859       -1.5319114876        1.3873025236
 C         -5.6670469488       -0.2844662091        1.0208983130
 C         -5.3574647033        0.1112464074       -0.4221294109
 C         -5.7404947025       -1.0336056886       -1.3587708590
 C         -4.9371145714       -2.2800866690       -0.9896196565
 C         -3.4449407680       -1.9877048886       -1.1308253518
 C         -3.0579554859       -0.8373121921       -0.1944037432
 C         -3.3714989107       -1.2378841598        1.2517624599
 C         -3.8642598106        0.4085593315       -0.5617978655
 N         -1.6420030540       -0.5276588995       -0.3352415479
 C         -0.6229159503       -1.3815542335       -0.1012299154
 O         -0.7497607595       -2.5389856988        0.2618424251
 C          0.6968665324       -0.7636391508       -0.3344602041
 N          0.8343837558        0.4894519099       -0.7331797135
 N          2.1367821654        0.7423980112       -0.8633710679
 C          2.8879342957       -0.3451304893       -0.5378305096
 C          4.2648547907       -0.5567733007       -0.5217548378
 C          4.6987260336       -1.8063276275       -0.1460147570
 C          3.8033107766       -2.8273894159        0.2057233517
 C          2.4440889905       -2.6296124032        0.1908701120
 C          1.9769936397       -1.3699842189       -0.1864171143
 C          2.5948337082        2.0506362915       -1.2346061840
 C          3.0578538324        2.8539631156       -0.0153847889
 C          3.5162983145        4.2526563932       -0.4198656025
 C          3.9554918507        5.1049960731        0.7719117961
 C          5.2538735217        4.6380425586        1.4168861656
 F          5.0616315232        3.5093939807        2.1778309786
 H         -6.3068483147       -2.9093821635        0.5581010809
 H         -4.6765520673       -3.5733251347        0.7168377718
 H         -5.0826085443       -1.8155212220        2.4227770403
 H         -5.4102854726        0.5357723723        1.6954142003
 H         -6.7355484228       -0.4840965735        1.1285583424
 H         -5.9296713105        1.0081674435       -0.6868798112
 H         -6.8096356462       -1.2401198342       -1.2725616704
 H         -5.5365911120       -0.7518154645       -2.3944916412
 H         -5.2084572534       -3.1014510698       -1.6621252796
 H         -3.2070933919       -1.7127720920       -2.1615222958
 H         -2.8573646604       -2.8681246546       -0.8699391548
 H         -3.0810430185       -0.4269962810        1.9244626040
 H         -2.7840600846       -2.1194595941        1.5090873803
 H         -3.6378947803        0.7026661236       -1.5899697569
 H         -3.5859597459        1.2342319339        0.0982706465
 H         -1.3806226813        0.4008046721       -0.6307637105
 H          4.9606191993        0.2233194806       -0.7908154350
 H          5.7589168827       -2.0116183588       -0.1183107034
 H          4.2025927419       -3.7886546154        0.4934447855
 H          1.7421487412       -3.4032988554        0.4562889918
 H          1.7587311887        2.5571668868       -1.7230018900
 H          3.4152936840        1.9477609128       -1.9520704528
 H          2.2301802024        2.9299726525        0.6925255603
 H          3.8677725702        2.3173481128        0.4787190883
 H          2.6928606229        4.7625438606       -0.9254292708
 H          4.3429315173        4.1758970874       -1.1308326909
 H          4.1090699485        6.1328510464        0.4386571374
 H          3.1716386755        5.1068382909        1.5314156511
 H          6.0098141047        4.3836564866        0.6664050245
 H          5.6489843227        5.3986574709        2.0981590076
  58
        -82.23464898
 C         -4.9393798809       -1.8860513606        0.2869645621
 C         -4.4532391873       -0.7525751612        1.1886465569
 C         -5.1222731175        0.5567501313        0.7722197274
 C         -4.7606820779        0.8707050764       -0.6787798392
 C         -5.2492381171       -0.2600089096       -1.5829778893
 C         -4.5805465012       -1.5686981036       -1.1637604292
 C         -3.0650975095       -1.4340847997       -1.2958125358
 C         -2.5726012146       -0.2984512905       -0.3916316882
 C         -2.9375885323       -0.6160871581        1.0626924676
 C         -3.2436706377        1.0103521108       -0.8086377468
 N         -1.1304343441       -0.1373080372       -0.5210721319
 C         -0.2064937359       -1.0773821902       -0.2288003980
 O         -0.4533928278       -2.1966876647        0.1851761582
 C          1.1742649099       -0.6050130823       -0.4540269506
 N          1.4468563566        0.5850740830       -0.9606424599
 N          2.7741151477        0.7204202432       -1.0136249919
 C          3.4029482400       -0.3935655408       -0.5454526414
 C          4.7504957242       -0.7178817296       -0.3990697490
 C          5.0421847364       -1.9518561411        0.1330560670
 C          4.0367972557       -2.8521491650        0.5155074734
 C          2.7058049768       -2.5434485443        0.3768236221
 C          2.3827881065       -1.2972653471       -0.1611717500
 C          3.3597686115        1.9132786092       -1.5625744328
 C          2.8416033443        3.1872381566       -0.8893218200
 C          3.4334606881        3.4560710847        0.4959510017
 C          3.0230548014        2.4718919119        1.5910198222
 C          1.5183035869        2.4506626862        1.8269423311
 F          1.2364872694        1.7694865484        2.9872319211
 H         -6.0210001996       -2.0040230054        0.3861538068
 H         -4.4682156941       -2.8237821059        0.5868787850
 H         -4.7086665043       -0.9778308944        2.2298145950
 H         -4.7897519670        1.3685242398        1.4233351155
 H         -6.2064646076        0.4700532784        0.8726096221
 H         -5.2359130134        1.8117297237       -0.9797850328
 H         -6.3345304961       -0.3540356783       -1.5036219603
 H         -5.0083268909       -0.0349200550       -2.6246806917
 H         -4.9279704062       -2.3801665174       -1.8128788152
 H         -2.7913893336       -1.2193612860       -2.3320645537
 H         -2.5728537122       -2.3604950550       -0.9990753189
 H         -2.5714189175        0.1823211680        1.7127261059
 H         -2.4459317471       -1.5434607027        1.3566078476
 H         -2.9791861915        1.2469559554       -1.8428046498
 H         -2.8896589896        1.8243271637       -0.1705365467
 H         -0.7795560835        0.7308069230       -0.8961686782
 H          5.5350461442       -0.0343862522       -0.6880825262
 H          6.0753702243       -2.2391090131        0.2626597302
 H          4.3269326580       -3.8066224793        0.9284717640
 H          1.9186722751       -3.2201796664        0.6663944588
 H          3.1197795060        1.9580175705       -2.6319126709
 H          4.4430374385        1.8374191462       -1.4528458062
 H          3.0987362119        4.0289664285       -1.5353858227
 H          1.7549399078        3.1296105227       -0.8331395152
 H          3.1302388105        4.4602423795        0.8026878276
 H          4.5234971619        3.4532641744        0.4207712305
 H          3.3656576102        1.4629195393        1.3604804349
 H          3.5027369161        2.7726327420        2.5257200510
 H          1.1219969640        3.4642717067        1.9575046773
 H          0.9794744423        1.9337478732        1.0273199144
  58
        -82.23464750
 C         -5.1739113569        0.5966040463       -0.5906789192
 C         -4.5131571410       -0.6811836829       -1.1065251972
 C         -4.9684809137       -1.8703840512       -0.2623770397
 C         -4.5676238465       -1.6408523647        1.1938765757
 C         -5.2280179410       -0.3639820251        1.7124962968
 C         -4.7704237702        0.8226837278        0.8656205578
 C         -3.2507072200        0.9619907308        0.9591006771
 C         -2.5877605506       -0.3150386052        0.4424915514
 C         -2.9948314986       -0.5448576477       -1.0172082812
 C         -3.0493900023       -1.5066377969        1.2891171300
 N         -1.1429784118       -0.1546985849        0.5396580776
 C         -0.2247530760       -1.0737542688        0.1721440979
 O         -0.4796087955       -2.1688679899       -0.2979371776
 C          1.1599865220       -0.6108605920        0.3926844323
 N          1.4409116631        0.5557615600        0.9469888438
 N          2.7689623445        0.6876557932        0.9882348419
 C          3.3900248093       -0.4051728664        0.4633908594
 C          4.7351523287       -0.7239053246        0.2856627429
 C          5.0182510631       -1.9336458574       -0.3035802072
 C          4.0067191613       -2.8154717585       -0.7119749063
 C          2.6780272075       -2.5120081406       -0.5427732242
 C          2.3636470733       -1.2902712262        0.0532309340
 C          3.3609502964        1.8568483653        1.5795570694
 C          2.8562811332        3.1562599033        0.9451413554
 C          3.4752257541        3.4768575367       -0.4169774811
 C          3.0995896204        2.5253994287       -1.5525764243
 C          1.6008089858        2.4961975279       -1.8232853215
 F          1.3537407030        1.8494050218       -3.0107616114
 H         -6.2603009979        0.5105123833       -0.6641594409
 H         -4.8637280481        1.4486762805       -1.2000395867
 H         -4.7988236322       -0.8433491861       -2.1515901994
 H         -4.5033608527       -2.7855105165       -0.6331952134
 H         -6.0521948731       -1.9875684706       -0.3365730951
 H         -4.8926529828       -2.4925319092        1.8017541035
 H         -6.3148668003       -0.4586646796        1.6596339090
 H         -4.9568536334       -0.2021062227        2.7584955520
 H         -5.2396918737        1.7409415176        1.2378464760
 H         -2.9563067086        1.1355854490        1.9976383857
 H         -2.9185775330        1.8157460672        0.3625566976
 H         -2.5088762714       -1.4499161917       -1.3818623357
 H         -2.6511859694        0.2939539260       -1.6275260397
 H         -2.7455875295       -1.3545128433        2.3280643463
 H         -2.5631625011       -2.4105468719        0.9215653446
 H         -0.7837872814        0.6942708039        0.9492666387
 H          5.5242461946       -0.0541101119        0.5938459583
 H          6.0492890640       -2.2158143242       -0.4588902907
 H          4.2901628088       -3.7511349918       -1.1701068014
 H          1.8863576969       -3.1747716789       -0.8515876842
 H          4.4442822753        1.7760053458        1.4748260756
 H          3.1133200795        1.8674773031        2.6478649079
 H          1.7708358519        3.1012563118        0.8656886991
 H          3.1002108049        3.9732510907        1.6270202932
 H          4.5633199977        3.4820728511       -0.3175615947
 H          3.1684988704        4.4877466090       -0.6969062954
 H          3.5962060527        2.8618680187       -2.4660243956
 H          3.4483631967        1.5130090559       -1.3477987795
 H          1.0484809242        1.9492111105       -1.0534823646
 H          1.1964571588        3.5093082026       -1.9309895299
  58
        -82.23463236
 C         -5.0620030935        0.7372839103        0.6427118920
 C         -4.7100289671        0.7311628140       -0.8441526584
 C         -5.2182316573       -0.5598864629       -1.4842787432
 C         -4.5597771598       -1.7576560726       -0.8006470350
 C         -4.9093532740       -1.7549345962        0.6866034460
 C         -4.4033197459       -0.4617480692        1.3236815588
 C         -2.8874890325       -0.3739119674        1.1620178991
 C         -2.5321419816       -0.3770425248       -0.3289484503
 C         -3.1928653573        0.8215002213       -1.0101711750
 C         -3.0441739516       -1.6727738654       -0.9679329899
 N         -1.0897030352       -0.2637012058       -0.4983879593
 C         -0.1712597881       -1.1253108985       -0.0118779451
 O         -0.4245699378       -2.1333527015        0.6242671846
 C          1.2124476959       -0.7111983569       -0.3192092852
 N          1.4913501834        0.3499117684       -1.0564491030
 N          2.8189782406        0.4784603304       -1.1148953534
 C          3.4419495166       -0.5124943930       -0.4181591634
 C          4.7874631411       -0.7936885374       -0.1880985902
 C          5.0725172513       -1.8906099257        0.5906373731
 C          4.0625133949       -2.6976550355        1.1349566846
 C          2.7334118237       -2.4301383774        0.9158035535
 C          2.4171192655       -1.3227273120        0.1281413763
 C          3.4146744145        1.5353736147       -1.8866413007
 C          2.8438686179        2.9125787952       -1.5385754495
 C          3.3389039136        3.4849975109       -0.2083979214
 C          2.8416097241        2.7660073039        1.0455527370
 C          1.3239466051        2.7933283558        1.1729808789
 F          0.9514531175        2.3893402186        2.4331304790
 H         -6.1461339326        0.6874292761        0.7662423318
 H         -4.7148206950        1.6646397424        1.1041896971
 H         -5.1779431451        1.5924067442       -1.3353751510
 H         -4.9839723269       -0.5641981460       -2.5515104693
 H         -6.3037329567       -0.6217345651       -1.3799983615
 H         -4.9215200119       -2.6842194594       -1.2601774886
 H         -5.9913071070       -1.8358166474        0.8152044228
 H         -4.4457145569       -2.6132508602        1.1761133494
 H         -4.6519992472       -0.4574359874        2.3905025992
 H         -2.4034623493       -1.2239016760        1.6430664068
 H         -2.5065622761        0.5394830291        1.6253891598
 H         -2.9347368022        0.8301322610       -2.0726151510
 H         -2.8248331863        1.7478771335       -0.5612704915
 H         -2.5589719213       -2.5207891041       -0.4841867572
 H         -2.7773727672       -1.6865071567       -2.0278806074
 H         -0.7335212037        0.5061085573       -1.0441821108
 H          5.5754913642       -0.1811417382       -0.6003008629
 H          6.1039514233       -2.1406742590        0.7916535130
 H          4.3474869331       -3.5457074816        1.7393869412
 H          1.9427694397       -3.0365645354        1.3263408793
 H          3.2324666667        1.3376125342       -2.9502639912
 H          4.4915897712        1.5138362775       -1.7096577503
 H          3.1394518063        3.6002010285       -2.3334795068
 H          1.7563904172        2.8463693411       -1.5416254794
 H          3.0244293204        4.5302301618       -0.1537664751
 H          4.4314084950        3.4724756144       -0.2030874209
 H          3.1863590254        1.7320036593        1.0681064425
 H          3.2594201125        3.2672653717        1.9220833214
 H          0.9321919580        3.8089123300        1.0438833070
 H          0.8380766010        2.1069597202        0.4731699757
  58
        -82.23463196
 C         -4.9971581056       -1.8321544853       -0.5394355798
 C         -4.5670115013       -1.8789605410        0.9257497180
 C         -5.2300148755       -0.7349333279        1.6919969095
 C         -4.8045168805        0.5984725196        1.0790615210
 C         -5.2378190034        0.6485423678       -0.3853325300
 C         -4.5741085080       -0.4967260023       -1.1490816736
 C         -3.0557963400       -0.3566103596       -1.0650804671
 C         -2.6190324623       -0.4038352827        0.4032924361
 C         -3.0487031770       -1.7422145930        1.0150176517
 C         -3.2847329137        0.7405811792        1.1677559817
 N         -1.1741665399       -0.2439737548        0.5015825326
 C         -0.2551763194       -1.0651500311       -0.0498485252
 O         -0.5097100147       -2.0471412269       -0.7253158422
 C          1.1297244585       -0.6474532718        0.2466669223
 N          1.4119776995        0.3856517319        1.0213546800
 N          2.7402057342        0.5069127241        1.0854541797
 C          3.3599810025       -0.4589168186        0.3517331863
 C          4.7048187363       -0.7353944104        0.1111846404
 C          4.9864968217       -1.8028240688       -0.7086744823
 C          3.9739569066       -2.5854381324       -1.2829501406
 C          2.6456910833       -2.3225881135       -1.0533385076
 C          2.3327063646       -1.2447240876       -0.2245841695
 C          3.3306205244        1.5371336539        1.8960202044
 C          2.8626293536        2.9401008630        1.4964508970
 C          3.5473948352        3.5043379200        0.2499741788
 C          3.2408823674        2.7758387776       -1.0580944192
 C          1.7583379143        2.7914434027       -1.4075763223
 F          1.5811597714        2.3664345112       -2.7026664349
 H         -6.0808056536       -1.9495394434       -0.6136572875
 H         -4.5299891887       -2.6523059897       -1.0875235606
 H         -4.8689023475       -2.8359717966        1.3656891423
 H         -4.9376073716       -0.7717568488        2.7441150863
 H         -6.3166481581       -0.8342309830        1.6432996094
 H         -5.2757012930        1.4214266066        1.6292062070
 H         -6.3245431964        0.5613049383       -0.4525102303
 H         -4.9511735247        1.6060854383       -0.8262977369
 H         -4.8809808263       -0.4605740862       -2.2000965714
 H         -2.7357598162        0.5889036585       -1.5097193904
 H         -2.5676661604       -1.1674640680       -1.6059031845
 H         -2.7236582058       -1.7869167996        2.0576824196
 H         -2.5607685824       -2.5517359848        0.4717277877
 H         -2.9753910161        1.6975966461        0.7395163585
 H         -2.9695524991        0.7169537901        2.2144125728
 H         -0.8147661161        0.5089220468        1.0686845902
 H          5.4946105839       -0.1401298077        0.5450571607
 H          6.0171342960       -2.0475528480       -0.9199678748
 H          4.2562630797       -3.4101826582       -1.9199630458
 H          1.8532890389       -2.9106480299       -1.4865604006
 H          4.4154444487        1.4561317730        1.8091478930
 H          3.0492574584        1.3564171116        2.9402143671
 H          1.7818378105        2.9150918128        1.3581866643
 H          3.0766014987        3.6111371150        2.3306163073
 H          4.6288188915        3.4913523124        0.4056508495
 H          3.2457803723        4.5493887311        0.1438666655
 H          3.7783794639        3.2755121427       -1.8678396065
 H          3.5916447788        1.7441950821       -1.0240059961
 H          1.1724994664        2.1150764982       -0.7782481398
 H          1.3478432096        3.8063714496       -1.3542529981
  58
        -82.23461414
 C         -4.9205607121        0.6240460722       -0.9377729828
 C         -4.3086369873       -0.7415064669       -1.2479334782
 C         -4.8754673782       -1.7875671940       -0.2895697941
 C         -4.5396961522       -1.3925482537        1.1475802669
 C         -5.1527478934       -0.0279561120        1.4601149976
 C         -4.5828732658        1.0154951146        0.5000919690
 C         -3.0653353122        1.0887204991        0.6680953219
 C         -2.4501716156       -0.2756315633        0.3572778477
 C         -2.7922556802       -0.6704006986       -1.0843734034
 C         -3.0234100724       -1.3242660156        1.3164107526
 N         -1.0082477289       -0.1731944879        0.5222811195
 C         -0.1215882443       -1.1702169420        0.3356252017
 O         -0.4025838863       -2.3211666168        0.0425149145
 C          1.2730011071       -0.7124445906        0.5053996153
 N          1.5638184508        0.4952052195        0.9500759021
 N          2.8885775484        0.6415294825        0.9300257157
 C          3.5030553928       -0.4827909616        0.4687295141
 C          4.8433431796       -0.8035004049        0.2622437126
 C          5.1185489554       -2.0576472514       -0.2301030136
 C          4.1030147774       -2.9819886718       -0.5158355175
 C          2.7783864801       -2.6774032356       -0.3175640866
 C          2.4713775928       -1.4111933190        0.1812594290
 C          3.4717990204        1.8996155775        1.3049091419
 C          2.9484152636        3.0537487480        0.4437210304
 C          3.3597700771        2.9619070860       -1.0297681610
 C          2.4484726754        2.0960666435       -1.9054171817
 C          1.0671605398        2.6928952647       -2.1429250796
 F          0.2447084766        2.5498726444       -1.0488291970
 H         -6.0047020811        0.5844743140       -1.0663527099
 H         -4.5283379017        1.3737723089       -1.6289081893
 H         -4.5480260494       -1.0230687324       -2.2797443458
 H         -4.4447266392       -2.7652403007       -0.5136551942
 H         -5.9587565174       -1.8587036009       -0.4136148379
 H         -4.9457843864       -2.1414051725        1.8368311351
 H         -6.2390969968       -0.0746188722        1.3544170456
 H         -4.9286506312        0.2537195943        2.4915990494
 H         -5.0186759610        1.9961182840        0.7242735281
 H         -2.8172536782        1.3767931748        1.6925097795
 H         -2.6470327810        1.8397066445       -0.0063480535
 H         -2.3391391171       -1.6378076170       -1.3031965793
 H         -2.3697909322        0.0683206864       -1.7701464751
 H         -2.7668893590       -1.0544752208        2.3437290412
 H         -2.5707389255       -2.2912775483        1.0962879781
 H         -0.6169451211        0.7388075588        0.7075724986
 H          5.6355215211       -0.1025282499        0.4799241213
 H          6.1460540934       -2.3430697443       -0.4027503479
 H          4.3797947436       -3.9527718197       -0.8992955447
 H          1.9842888142       -3.3749287489       -0.5291568702
 H          4.5558311272        1.8105461420        1.2100851228
 H          3.2256876455        2.1025392030        2.3533631997
 H          1.8635590097        3.0795411380        0.5301371585
 H          3.3443512008        3.9790702981        0.8661134116
 H          4.3770043327        2.5677151570       -1.0937597942
 H          3.3752620832        3.9693327068       -1.4531966940
 H          2.9177950375        1.9809219072       -2.8846940958
 H          2.3262421799        1.1011503245       -1.4807439338
 H          1.1208366481        3.7671618123       -2.3499807611
 H          0.5606815353        2.1794006226       -2.9666717694
  58
        -82.23460391
 C         -5.4796399252       -1.3630261987       -1.3280516252
 C         -4.7500999411       -2.4557639229       -0.5475509313
 C         -5.1551092109       -2.3919281579        0.9241290271
 C         -4.7830620062       -1.0236298609        1.4927587987
 C         -5.5127453969        0.0707020063        0.7146841514
 C         -5.1048613007        0.0035171588       -0.7563176814
 C         -3.5952473798        0.2126528739       -0.8785862355
 C         -2.8626874084       -0.8801331968       -0.0998789656
 C         -3.2416346816       -2.2518770470       -0.6698818831
 C         -3.2747139688       -0.8162337901        1.3752962063
 N         -1.4294715127       -0.6585278727       -0.2323946806
 C         -0.4619784411       -1.4197012333        0.3208066902
 O         -0.6566737656       -2.4031586405        1.0154517426
 C          0.8939321513       -0.9353602165       -0.0039083239
 N          1.1087343563        0.1070639157       -0.7878718211
 N          2.4260038584        0.2815267621       -0.8940892648
 C          3.1087259762       -0.6433210616       -0.1652750161
 C          4.4717322155       -0.8580235193        0.0277703036
 C          4.8284087881       -1.9142941247        0.8328743530
 C          3.8707218882       -2.7431814546        1.4358723320
 C          2.5247103933       -2.5413544722        1.2500386962
 C          2.1355280416       -1.4759675478        0.4373851589
 C          2.9625843458        1.3790584327       -1.6466906820
 C          3.3323060398        2.5579969809       -0.7412000309
 C          3.9228490236        3.7089862075       -1.5513458122
 C          4.3692678342        4.8850250657       -0.6814248081
 C          3.2192206693        5.6205692167       -0.0059657141
 F          2.7377547748        4.9165063357        1.0720786844
 H         -6.5594869191       -1.5108270543       -1.2555368743
 H         -5.2053231799       -1.4129613577       -2.3844622570
 H         -5.0156131451       -3.4363878245       -0.9580263971
 H         -4.6404110409       -3.1758352713        1.4826363197
 H         -6.2306913227       -2.5568972773        1.0224522719
 H         -5.0721891067       -0.9752231158        2.5484717420
 H         -6.5928969287       -0.0641379103        0.8055878582
 H         -5.2620409091        1.0511061419        1.1264318521
 H         -5.6240902216        0.7898802709       -1.3167064741
 H         -3.3219391515        1.1932609345       -0.4805521986
 H         -3.2985840696        0.1763875052       -1.9300722754
 H         -2.7063038952       -3.0239948329       -0.1169224865
 H         -2.9340192949       -2.3077707823       -1.7171682181
 H         -2.9907219920        0.1541654873        1.7899599117
 H         -2.7392911544       -1.5903269540        1.9253079119
 H         -1.1136738173        0.1234570161       -0.7859888607
 H          5.2152062488       -0.2255062339       -0.4334816900
 H          5.8752387172       -2.1148082952        1.0091841555
 H          4.2104451092       -3.5573598638        2.0587081732
 H          1.7756820288       -3.1699773285        1.7033652187
 H          2.1970200225        1.6836545134       -2.3643502554
 H          3.8446752515        1.0323474737       -2.1946153439
 H          2.4384474800        2.8857432598       -0.2105952028
 H          4.0571717211        2.2252066039        0.0047036176
 H          3.1867030106        4.0584440522       -2.2793298911
 H          4.7894754474        3.3438049818       -2.1080770428
 H          5.0551193529        4.5326980245        0.0913218390
 H          4.9002392855        5.6073892525       -1.3038120337
 H          3.5491897957        6.5876635491        0.3873873403
 H          2.3746998106        5.7651724814       -0.6878443863
  58
        -82.23460087
 C         -5.5305078359       -0.2277035698       -0.6926221069
 C         -4.7930980271       -1.5309690341       -0.9977690648
 C         -5.1586525388       -2.5836211374        0.0473619380
 C         -4.7562991934       -2.0821653957        1.4332278759
 C         -5.4934972469       -0.7794132411        1.7411545984
 C         -5.1251183785        0.2704409357        0.6938252553
 C         -3.6169295695        0.5193074869        0.7272900134
 C         -2.8767157495       -0.7827789130        0.4209320161
 C         -3.2861855503       -1.2854906779       -0.9681734387
 C         -3.2492727864       -1.8380926555        1.4686999561
 N         -1.4448905280       -0.5193016147        0.4592148966
 C         -0.4726872260       -1.4285778418        0.2363839417
 O         -0.6616865446       -2.6025985058       -0.0348636310
 C          0.8806512867       -0.8520087008        0.3563796781
 N          1.0906421789        0.4106020190        0.6867568567
 N          2.4072824789        0.6158713263        0.7238451120
 C          3.0943035538       -0.5147587269        0.4039789459
 C          4.4584264590       -0.7832571076        0.3134425814
 C          4.8199099274       -2.0650499347       -0.0293102099
 C          3.8658262677       -3.0630738684       -0.2775328093
 C          2.5187497123       -2.8093082479       -0.1878857947
 C          2.1248123652       -1.5163141102        0.1582127628
 C          2.9405501430        1.9174984811        1.0072976444
 C          3.3394556050        2.6566225138       -0.2737486668
 C          3.9319153208        4.0269437207        0.0443362655
 C          4.4193007779        4.7709079744       -1.1998663881
 C          3.2991030923        5.1919884425       -2.1420160143
 F          2.8337054462        4.1265040820       -2.8753824660
 H         -6.6097149565       -0.3933763263       -0.7252242570
 H         -5.2845346240        0.5247989788       -1.4454948985
 H         -5.0803437778       -1.8882555036       -1.9929053909
 H         -4.6383743132       -3.5176513575       -0.1722930578
 H         -6.2330789391       -2.7800381182        0.0191105744
 H         -5.0171816725       -2.8354108534        2.1850038152
 H         -6.5723601183       -0.9500677340        1.7303314318
 H         -5.2210771207       -0.4233955029        2.7375391544
 H         -5.6498304990        1.2074965004        0.9142814324
 H         -3.3222777645        0.8863015310        1.7139307299
 H         -3.3483776949        1.2773759428       -0.0129198911
 H         -2.7453829482       -2.2071612740       -1.1837331472
 H         -3.0068779844       -0.5431245280       -1.7199485375
 H         -2.9435132544       -1.4908249631        2.4588916788
 H         -2.7086042764       -2.7591131598        1.2498190948
 H         -1.1341738665        0.4154509965        0.6767952032
 H          5.1991491061       -0.0214555975        0.5046247554
 H          5.8677600088       -2.3148457530       -0.1113504781
 H          4.2092402600       -4.0517105226       -0.5437704558
 H          1.7724329863       -3.5647751983       -0.3722519498
 H          3.8089390782        1.8067829090        1.6649238622
 H          2.1647136898        2.4758676614        1.5365000560
 H          4.0718685220        2.0590353088       -0.8204027938
 H          2.4588754471        2.7606765757       -0.9074971843
 H          4.7790471151        3.8989730672        0.7228207757
 H          3.1859717113        4.6366952709        0.5597961378
 H          4.9457809670        5.6755938201       -0.8908667849
 H          5.1189002566        4.1426761704       -1.7545286053
 H          2.4400318739        5.5948869674       -1.5953990387
 H          3.6548406823        5.9281325978       -2.8703351059
  58
        -82.23459587
 C         -5.1568379779       -2.4889995965       -0.3354682158
 C         -4.7288677466       -2.2664537358        1.1141171440
 C         -5.4372579237       -1.0336135617        1.6742779393
 C         -5.0608186795        0.1895575546        0.8394704761
 C         -5.4913010360       -0.0295168938       -0.6101603253
 C         -4.7829533625       -1.2635716568       -1.1676451837
 C         -3.2713264200       -1.0537636590       -1.1144369431
 C         -2.8364961801       -0.8305000523        0.3385648421
 C         -3.2170508984       -2.0589934630        1.1727782067
 C         -3.5478747571        0.4020933918        0.8970493564
 N         -1.3998515850       -0.6020847444        0.4044685587
 C         -0.4461311423       -1.4664152410       -0.0014584161
 O         -0.6573318499       -2.5692534700       -0.4775395044
 C          0.9169541055       -0.9333570139        0.1901166632
 N          1.1474614594        0.2472347780        0.7380067501
 N          2.4664829819        0.4363320373        0.7764054661
 C          3.1342220287       -0.6197246222        0.2365050010
 C          4.4927849085       -0.8719449380        0.0582344718
 C          4.8331967543       -2.0717180217       -0.5212733071
 C          3.8637959213       -3.0050120393       -0.9175924231
 C          2.5220180659       -2.7666013314       -0.7447780563
 C          2.1492260979       -1.5562474733       -0.1591646564
 C          3.0153631781        1.6674737531        1.2682608183
 C          3.3213031341        2.6429097359        0.1274386244
 C          3.9142232588        3.9446282812        0.6599838346
 C          4.2844600671        4.9302376591       -0.4494116292
 C          3.0825734276        5.4939643506       -1.1962409655
 F          2.5710028915        4.5800028634       -2.0865975099
 H         -6.2351536594       -2.6582038439       -0.3841991222
 H         -4.6574689080       -3.3731086776       -0.7358842561
 H         -4.9956285628       -3.1441750457        1.7133081595
 H         -5.1465780585       -0.8776710134        2.7158746166
 H         -6.5192533337       -1.1810472024        1.6474374445
 H         -5.5648261431        1.0764330267        1.2412456084
 H         -6.5738137106       -0.1676116707       -0.6577704015
 H         -5.2391335850        0.8478790052       -1.2103132157
 H         -5.0884564585       -1.4206683294       -2.2080632178
 H         -2.9860823048       -0.1872282536       -1.7161590435
 H         -2.7509932017       -1.9269321445       -1.5085292728
 H         -2.8933375034       -1.9109837874        2.2061272640
 H         -2.6966440450       -2.9306058119        0.7753596029
 H         -3.2731232854        1.2821480417        0.3098828946
 H         -3.2347327844        0.5701666658        1.9307876378
 H         -1.0700364029        0.2751716284        0.7778273589
 H          5.2451550867       -0.1591723628        0.3607513428
 H          5.8760805515       -2.3060019845       -0.6782608308
 H          4.1908995591       -3.9304784981       -1.3678380508
 H          1.7642270867       -3.4733507095       -1.0413856758
 H          3.9268652509        1.4460328510        1.8323093827
 H          2.2768420169        2.1037574688        1.9452637081
 H          4.0242519969        2.1763889742       -0.5660152797
 H          2.3992805397        2.8408100187       -0.4190638341
 H          4.8158157292        3.7163045388        1.2338155335
 H          3.2020353225        4.4187531846        1.3397059519
 H          4.8237702893        5.7725551064       -0.0126753924
 H          4.9421361264        4.4427372472       -1.1715188172
 H          2.2675603665        5.7555102692       -0.5132776308
 H          3.3649585453        6.3692965381       -1.7903138699
  58
        -82.23456339
 C         -5.1846982146       -2.6646090650       -0.3112953038
 C         -4.7440588614       -2.4463388372        1.1351322591
 C         -5.4757129929       -1.2375945739        1.7174197426
 C         -5.1408140009        0.0032223127        0.8910249081
 C         -5.5843537454       -0.2116174390       -0.5552985999
 C         -4.8524050195       -1.4214954634       -1.1348192258
 C         -3.3458919425       -1.1741024837       -1.0984669835
 C         -2.8984013671       -0.9552158204        0.3512206655
 C         -3.2372707108       -2.2015430900        1.1769442297
 C         -3.6329803138        0.2532370323        0.9318482735
 N         -1.4665669016       -0.6917052259        0.4018300377
 C         -0.4979797022       -1.5298738880       -0.0227486544
 O         -0.6893532078       -2.6264921443       -0.5206028888
 C          0.8570006678       -0.9780401060        0.1766585020
 N          1.0709775741        0.2089610527        0.7170045519
 N          2.3888786824        0.4085836625        0.7702421102
 C          3.0714731092       -0.6475334062        0.2480790158
 C          4.4340134453       -0.8908968824        0.0893299693
 C          4.7903368146       -2.0926098459       -0.4766765402
 C          3.8328470022       -3.0358782857       -0.8782720967
 C          2.4872425961       -2.8062411215       -0.7241054799
 C          2.0984703755       -1.5939724368       -0.1528602140
 C          2.9232257489        1.6477497734        1.2575588077
 C          3.2608927903        2.6056590940        0.1095451393
 C          3.8260241120        3.9218494128        0.6382431429
 C          4.2901453940        4.8643517609       -0.4703287137
 C          3.1377001315        5.3880718332       -1.3169981334
 F          3.5961660223        6.3518355555       -2.1831228673
 H         -6.2588970453       -2.8603188639       -0.3483944058
 H         -4.6685850760       -3.5317080591       -0.7273925305
 H         -4.9808387475       -3.3366343467        1.7281834296
 H         -5.1757359319       -1.0852306988        2.7568824772
 H         -6.5538575947       -1.4118933041        1.7025813886
 H         -5.6614608734        0.8729266741        1.3085461504
 H         -6.6634481866       -0.3768147496       -0.5905165710
 H         -5.3625941849        0.6781770567       -1.1492454551
 H         -5.1670212753       -1.5754490878       -2.1729430662
 H         -3.0906725324       -0.2941768265       -1.6943241617
 H         -2.8090826392       -2.0296435119       -1.5087058015
 H         -2.9040952111       -2.0562668774        2.2076948034
 H         -2.7007539244       -3.0558508058        0.7636364565
 H         -3.3880652553        1.1462117211        0.3509158634
 H         -3.3111328210        0.4183374619        1.9633803885
 H         -1.1535938183        0.1812680620        0.7988478470
 H          5.1773250441       -0.1710850406        0.3973687449
 H          5.8367286081       -2.3205335086       -0.6180678087
 H          4.1722968431       -3.9622781731       -1.3170556631
 H          1.7382772010       -3.5206506211       -1.0246233673
 H          3.8191626962        1.4375868902        1.8495583031
 H          2.1660721101        2.0949430653        1.9058327804
 H          3.9900121831        2.1298573927       -0.5497370293
 H          2.3525916489        2.7865563634       -0.4667148881
 H          4.6799713092        3.7040485052        1.2835726494
 H          3.0706985886        4.4224378301        1.2480347591
 H          4.7956391896        5.7238383544       -0.0246949234
 H          5.0064290222        4.3559225890       -1.1186337458
 H          2.6877618692        4.6066139409       -1.9362899195
 H          2.3704098521        5.8643719405       -0.6971484002
  58
        -82.23455623
 C         -5.2345802341       -2.7956631299        0.4783472702
 C         -4.8693503933       -1.6198142313        1.3827407679
 C         -5.6790611206       -0.3892262763        0.9760254603
 C         -5.3622625061       -0.0318487516       -0.4754050032
 C         -5.7303361024       -1.2053076972       -1.3821621885
 C         -4.9206909349       -2.4350187215       -0.9726325405
 C         -3.4296486254       -2.1357977934       -1.1117942694
 C         -3.0578481036       -0.9566549786       -0.2055477438
 C         -3.3782025515       -1.3185373655        1.2491747884
 C         -3.8702645757        0.2725252325       -0.6132319622
 N         -1.6428329531       -0.6403803030       -0.3458037767
 C         -0.6198002910       -1.4785572553       -0.0783251093
 O         -0.7387040805       -2.6222595577        0.3276703389
 C          0.6981597504       -0.8619805566       -0.3299521069
 N          0.8326351437        0.3767567650       -0.7703212702
 N          2.1352553520        0.6293753994       -0.9063457407
 C          2.8888426574       -0.4441240723       -0.5407611337
 C          4.2664083717       -0.6501417863       -0.5113913638
 C          4.7029707073       -1.8843452433       -0.0898759039
 C          3.8095152342       -2.8953171923        0.2940225493
 C          2.4495623679       -2.7030100856        0.2660241985
 C          1.9799345285       -1.4590173644       -0.1570274162
 C          2.5917231338        1.9284063455       -1.3098143013
 C          3.0104320408        2.7764877799       -0.1035974203
 C          3.5160223273        4.1486702208       -0.5423795664
 C          3.8298958661        5.0751953233        0.6304386262
 C          5.0172855968        4.5973021160        1.4558876046
 F          5.3525905781        5.5516010162        2.3863352574
 H         -6.2963825999       -3.0307308486        0.5827997824
 H         -4.6626385593       -3.6779620122        0.7712365352
 H         -5.0930523551       -1.8759480793        2.4242548737
 H         -5.4331927076        0.4514844000        1.6290128337
 H         -6.7467225419       -0.5938747475        1.0819477574
 H         -5.9389120984        0.8530262670       -0.7691204017
 H         -6.7984783552       -1.4172460771       -1.2975356672
 H         -5.5212119357       -0.9511224398       -2.4239499409
 H         -5.1812886302       -3.2768647219       -1.6236327867
 H         -3.1865898928       -1.8882729707       -2.1482116427
 H         -2.8378673242       -3.0043733759       -0.8221383269
 H         -3.0986364096       -0.4866941672        1.9005788517
 H         -2.7864106725       -2.1881308497        1.5356018073
 H         -3.6390377163        0.5394024170       -1.6477390949
 H         -3.6025733842        1.1183630537        0.0253094762
 H         -1.3875987771        0.2765681945       -0.6801426847
 H          4.9606495122        0.1218813333       -0.8075889911
 H          5.7637138378       -2.0850434171       -0.0516658704
 H          4.2107530741       -3.8445624985        0.6163902479
 H          1.7489404427       -3.4692977964        0.5551273763
 H          1.7675329507        2.4111991545       -1.8398850122
 H          3.4354023647        1.8095202158       -1.9965741615
 H          2.1500548069        2.8940643953        0.5579969073
 H          3.7884669664        2.2444591716        0.4461316970
 H          2.7514760933        4.6233485295       -1.1609098207
 H          4.4104623510        4.0272670711       -1.1578786104
 H          4.0661175115        6.0712361579        0.2498973831
 H          2.9570882207        5.1648242430        1.2798104402
 H          4.7940050095        3.6853347161        2.0173910019
 H          5.9041204891        4.4458751161        0.8308099902
  58
        -82.23455464
 C         -5.6429855038       -1.6472049891       -1.2707121364
 C         -4.8573468462       -2.6924906266       -0.4797800882
 C         -5.2532207760       -2.6244314290        0.9941781826
 C         -4.9408999516       -1.2315496900        1.5384805824
 C         -5.7268739536       -0.1846737883        0.7500400443
 C         -5.3279094281       -0.2559287327       -0.7232014814
 C         -3.8306477312        0.0211244099       -0.8616822853
 C         -3.0421002418       -1.0241093484       -0.0725309036
 C         -3.3609750505       -2.4207831112       -0.6180670725
 C         -3.4447631104       -0.9561583087        1.4049413396
 N         -1.6215010411       -0.7378833481       -0.2208344532
 C         -0.6155059981       -1.4443083125        0.3355676532
 O         -0.7577361937       -2.4196275032        1.0536454225
 C          0.7150713206       -0.9086842241       -0.0153029606
 N          0.8761911543        0.1412600431       -0.8014855446
 N          2.1848077622        0.3636298435       -0.9331950289
 C          2.9146468623       -0.5359463391       -0.2176419401
 C          4.2879028134       -0.6991413145       -0.0486308131
 C          4.6978192176       -1.7405455856        0.7507402257
 C          3.7824817515       -2.6039295175        1.3707819560
 C          2.4267334292       -2.4529529484        1.2083431253
 C          1.9839311974       -1.4032920117        0.4026602506
 C          2.6659548196        1.4859896594       -1.6864728083
 C          3.0129865709        2.6681965954       -0.7746075904
 C          3.5529420326        3.8469592805       -1.5808947568
 C          3.7963573591        5.0930313596       -0.7319994800
 C          4.9260962917        4.9084932376        0.2726395299
 F          5.2049609622        6.1065017251        0.8857043688
 H         -6.7140910696       -1.8438692303       -1.1866845701
 H         -5.3749638942       -1.7009048314       -2.3285201568
 H         -5.0799604623       -3.6906566325       -0.8728287443
 H         -4.6983561825       -3.3747830145        1.5602721413
 H         -6.3191023716       -2.8374541390        1.1042297501
 H         -5.2234546087       -1.1800548659        2.5957627954
 H         -6.7987099763       -0.3683053235        0.8522563237
 H         -5.5192274693        0.8127631978        1.1445521833
 H         -5.8873779271        0.4965740852       -1.2910729040
 H         -3.6002987821        1.0196498957       -0.4812897673
 H         -3.5410700070       -0.0178900116       -1.9150347900
 H         -2.7862513336       -3.1586348579       -0.0578579144
 H         -3.0593564774       -2.4788560890       -1.6669695950
 H         -3.2033831656        0.0329828435        1.8021342319
 H         -2.8697701755       -1.6957564015        1.9624187307
 H         -1.3475338999        0.0418058992       -0.7994013590
 H          4.9990378915       -0.0405652514       -0.5243357561
 H          5.7542879211       -1.9016628826        0.9083565774
 H          4.1632198070       -3.4041680057        1.9877383809
 H          1.7096666883       -3.1084296120        1.6750478609
 H          1.8757767137        1.7703280175       -2.3851176594
 H          3.5491854363        1.1780331972       -2.2544940957
 H          2.1136577544        2.9706749267       -0.2347343979
 H          3.7521986299        2.3406833476       -0.0418772244
 H          2.8320070628        4.0979800874       -2.3616973097
 H          4.4841941613        3.5555831886       -2.0723389261
 H          4.0617157185        5.9276201053       -1.3844962303
 H          2.8843971677        5.3648786640       -0.1972399272
 H          4.6629370596        4.2083673907        1.0710485195
 H          5.8507014971        4.5870397778       -0.2192294976
  58
        -82.23455563
 C         -5.2779327460       -2.7439187678       -0.2880414261
 C         -4.8281372000       -2.5431156532        1.1580885624
 C         -5.5891384210       -1.3694720657        1.7735225171
 C         -5.3003508667       -0.1019691457        0.9705950412
 C         -5.7531137862       -0.2996753135       -0.4753158315
 C         -4.9918635674       -1.4744228855       -1.0883022692
 C         -3.4931257459       -1.1827178956       -1.0619777790
 C         -3.0363288794       -0.9809822135        0.3873167837
 C         -3.3289677799       -2.2540031127        1.1896388996
 C         -3.8002605386        0.1922249677        1.0013220712
 N         -1.6124163475       -0.6760713290        0.4285481722
 C         -0.6248730785       -1.4757179572       -0.0252065487
 O         -0.7896230149       -2.5679309706       -0.5419935078
 C          0.7155353532       -0.8866844389        0.1661381258
 N          0.9021064859        0.2949938229        0.7276792663
 N          2.2139101950        0.5338830601        0.7645159497
 C          2.9197515618       -0.4898775974        0.2098418665
 C          4.2863115026       -0.6878616235        0.0245086693
 C          4.6697728445       -1.8656925602       -0.5731353566
 C          3.7349916549       -2.8292560442       -0.9798755721
 C          2.3857262214       -2.6446371852       -0.7991889607
 C          1.9696432998       -1.4573185092       -0.1957918349
 C          2.7194476877        1.7791735196        1.2667944832
 C          3.0340623573        2.7579910768        0.1299083446
 C          3.6049921031        4.0667142056        0.6706377830
 C          3.8166048191        5.1218627133       -0.4130731041
 C          4.9047407443        4.7349470235       -1.4060151735
 F          5.1622653341        5.7890689722       -2.2494246092
 H         -6.3461215452       -2.9711606753       -0.3183217851
 H         -4.7406019870       -3.5859973030       -0.7279136823
 H         -5.0318000520       -3.4524323774        1.7343500669
 H         -5.2826060689       -1.2301701255        2.8128833411
 H         -6.6617020358       -1.5757304146        1.7658892440
 H         -5.8420705927        0.7426900966        1.4120197340
 H         -6.8271354685       -0.4964078636       -0.5029883161
 H         -5.5644056844        0.6086022782       -1.0524003039
 H         -5.3131363938       -1.6158906148       -2.1261626642
 H         -3.2707302145       -0.2830927031       -1.6413288696
 H         -2.9355998589       -2.0128841951       -1.4960328421
 H         -2.9890552610       -2.1203858848        2.2197365166
 H         -2.7717166676       -3.0829158293        0.7527503725
 H         -3.5884099086        1.1041889477        0.4371912279
 H         -3.4722123025        0.3451186285        2.0327773951
 H         -1.3211090647        0.1991134453        0.8370046525
 H          5.0124036160        0.0475022892        0.3371475904
 H          5.7201954508       -2.0581846768       -0.7359393740
 H          4.0952337070       -3.7350287629       -1.4443665058
 H          1.6540158932       -3.3752597482       -1.1031934024
 H          3.6218628305        1.5833088911        1.8541299604
 H          1.9533574139        2.1992201403        1.9224539411
 H          3.7454801329        2.2875448858       -0.5506357211
 H          2.1160278029        2.9569529256       -0.4263018728
 H          4.5541146480        3.8689957783        1.1743053548
 H          2.9145686175        4.4706637291        1.4139778483
 H          2.8845421963        5.2935091981       -0.9546200422
 H          4.1095537846        6.0645964480        0.0539750028
 H          5.8472865531        4.5048881690       -0.8973653155
 H          4.6079478947        3.8966684015       -2.0431967210
  58
        -82.23455189
 C         -5.7105992705       -0.3952578301       -0.5670303033
 C         -4.9343063404       -1.6505039971       -0.9634499901
 C         -5.2482095142       -2.7787264330        0.0176127351
 C         -4.8423377778       -2.3515821070        1.4271510324
 C         -5.6186258368       -1.0972265807        1.8263760361
 C         -5.3019192610        0.0285268225        0.8429851140
 C         -3.8026808578        0.3270071858        0.8729516932
 C         -3.0236550313       -0.9268148484        0.4752683127
 C         -3.4362164089       -1.3553650881       -0.9375657858
 C         -3.3439951648       -2.0580764211        1.4588180786
 N         -1.6010668747       -0.6155704581        0.5112761593
 C         -0.6010866364       -1.4738278955        0.2213506525
 O         -0.7506233477       -2.6371088656       -0.1125031666
 C          0.7326473501       -0.8528543966        0.3480311895
 N          0.8998723424        0.4088239067        0.7038047526
 N          2.2093227751        0.6610546279        0.7341720114
 C          2.9334983742       -0.4365544227        0.3809900344
 C          4.3052123575       -0.6520073228        0.2672129896
 C          4.7089336001       -1.9116720171       -0.1093190068
 C          3.7889673657       -2.9384130960       -0.3685768945
 C          2.4346644972       -2.7366040832       -0.2573465268
 C          1.9981059458       -1.4668980704        0.1224725245
 C          2.6943660949        1.9799353082        1.0237748771
 C          3.0038108334        2.7582862149       -0.2599978790
 C          3.5403117577        4.1526088765        0.0549110126
 C          3.7325157612        5.0161956794       -1.1900239504
 C          4.8327196843        4.4935985219       -2.1043360426
 F          5.0689166583        5.3969377972       -3.1128556498
 H         -6.7838306084       -0.5959912169       -0.5964225557
 H         -5.5016189826        0.4112232277       -1.2738314582
 H         -5.2240195270       -1.9543220927       -1.9754684135
 H         -4.7001641886       -3.6785998666       -0.2673788009
 H         -6.3156426199       -3.0099541376       -0.0091524215
 H         -5.0660167016       -3.1591975360        2.1329365009
 H         -6.6910235855       -1.3043619005        1.8185016964
 H         -5.3436512037       -0.7952217816        2.8397021984
 H         -5.8545629049        0.9310941445        1.1289366154
 H         -3.5058204819        0.6411133069        1.8769819314
 H         -3.5711698371        1.1391974347        0.1789598674
 H         -2.8679757354       -2.2425211968       -1.2178416408
 H         -3.1935966144       -0.5580016666       -1.6445591153
 H         -3.0354815827       -1.7630621726        2.4649317573
 H         -2.7758472950       -2.9442832144        1.1753985258
 H         -1.3210883181        0.3174014382        0.7737761646
 H          5.0198623314        0.1322948291        0.4669005334
 H          5.7640182093       -2.1205216131       -0.2097569122
 H          4.1648999776       -3.9074846399       -0.6610769463
 H          1.7141045703       -3.5144527324       -0.4506882955
 H          3.5945096299        1.8980633555        1.6404657764
 H          1.9175971450        2.4933278691        1.5951764114
 H          3.7330885154        2.1950515899       -0.8444874231
 H          2.0885059399        2.8390934780       -0.8494907551
 H          4.4908803445        4.0655497900        0.5863116139
 H          2.8359595757        4.6583852770        0.7186344013
 H          2.7988413628        5.0734187650       -1.7526412173
 H          4.0022271653        6.0302944469       -0.8873814748
 H          5.7785465804        4.3740409173       -1.5646796168
 H          4.5573427743        3.5535739198       -2.5915907243
  58
        -82.23453305
 C         -5.5155195020       -1.6930732082       -1.2824560694
 C         -4.7683663604       -2.6698880630       -0.3753721945
 C         -5.1776048525       -2.4355241805        1.0777851111
 C         -4.8309338219       -1.0021303239        1.4765295975
 C         -5.5773515943       -0.0229609099        0.5711969128
 C         -5.1654459645       -0.2610172124       -0.8808658799
 C         -3.6593442033       -0.0419962219       -1.0276573014
 C         -2.9098674301       -1.0191422090       -0.1217830709
 C         -3.2634246188       -2.4558527770       -0.5219854295
 C         -3.3260599101       -0.7845627725        1.3349930582
 N         -1.4799144428       -0.7895192412       -0.2794304063
 C         -0.5008156899       -1.4745214949        0.3475442192
 O         -0.6784198633       -2.4011256292        1.1201786952
 C          0.8477140524       -0.9848768191       -0.0016281132
 N          1.0463174824        0.0599424814       -0.7861994405
 N          2.3622418619        0.2405230039       -0.9106117150
 C          3.0591048764       -0.6825627245       -0.1920195323
 C          4.4255462179       -0.8909647997       -0.0176345813
 C          4.7976284442       -1.9458696396        0.7825100385
 C          3.8518379786       -2.7789712049        1.3983003706
 C          2.5024948280       -2.5835278396        1.2302277994
 C          2.0978694203       -1.5193074697        0.4235740064
 C          2.8825781941        1.3576663849       -1.6453471099
 C          3.2536238487        2.5164296403       -0.7129108067
 C          3.7991821579        3.7066267958       -1.4982899369
 C          4.3114908591        4.8318083425       -0.6014988416
 C          3.1987846551        5.5042290168        0.1916699058
 F          3.6938808861        6.6072779378        0.8454599720
 H         -6.5926974006       -1.8497145745       -1.1920221147
 H         -5.2386068746       -1.8660961705       -2.3250451507
 H         -5.0154064284       -3.6975819519       -0.6637304137
 H         -4.6505546667       -3.1368038164        1.7272241636
 H         -6.2502790495       -2.6061972249        1.1953711520
 H         -5.1232709978       -0.8310147719        2.5185114974
 H         -6.6551026458       -0.1645348947        0.6778163074
 H         -5.3446843368        1.0044667435        0.8609454938
 H         -5.6967909313        0.4424954776       -1.5324422778
 H         -3.4045053579        0.9847295578       -0.7520839577
 H         -3.3595290459       -0.2007455727       -2.0667111959
 H         -2.7159670822       -3.1466334359        0.1193593679
 H         -2.9531450528       -2.6317892637       -1.5549952759
 H         -3.0598549194        0.2337236613        1.6297645728
 H         -2.7789047617       -1.4776330709        1.9745142207
 H         -1.1789766974       -0.0344786329       -0.8769726636
 H          5.1599016450       -0.2559946014       -0.4898954232
 H          5.8475543205       -2.1418006788        0.9442433281
 H          4.2034528301       -3.5915458383        2.0164159392
 H          1.7623067033       -3.2147503672        1.6942691720
 H          2.1067336136        1.6751860442       -2.3457808087
 H          3.7608445667        1.0316034937       -2.2108247290
 H          2.3631552572        2.8069315406       -0.1538256198
 H          4.0037578837        2.1720893099        0.0022127685
 H          3.0203127321        4.0940464346       -2.1586802456
 H          4.6251548098        3.3655206281       -2.1263879688
 H          5.0602926571        4.4455281274        0.0927534941
 H          4.7912233883        5.5946815236       -1.2184574083
 H          2.3994932903        5.8631013717       -0.4657441211
 H          2.7839584987        4.8493909772        0.9635381177
  58
        -82.23450026
 C         -5.3534944069       -0.3620994558       -1.0706303948
 C         -4.6516495136       -1.7193851386       -1.0462151687
 C         -5.0769504470       -2.4940435274        0.1999880948
 C         -4.6927046193       -1.6983982155        1.4462962296
 C         -5.3945069671       -0.3410169893        1.4247250239
 C         -4.9664841674        0.4304417580        0.1771287358
 C         -3.4523983028        0.6411979461        0.2003696277
 C         -2.7476051685       -0.7151764212        0.2233267137
 C         -3.1387495242       -1.5128888286       -1.0260423964
 C         -3.1798889244       -1.4920362194        1.4723086369
 N         -1.3098532964       -0.4865485899        0.2453996639
 C         -0.3612346311       -1.4455498059        0.2708343643
 O         -0.5773676715       -2.6463010148        0.2729255333
 C          1.0042998480       -0.8856334440        0.2952092788
 N          1.2349703218        0.4152526092        0.3166938695
 N          2.5529198223        0.6040144016        0.3437205039
 C          3.2228963936       -0.5809457126        0.3291503548
 C          4.5827108450       -0.8844031663        0.3489363263
 C          4.9247230363       -2.2164374914        0.3387323556
 C          3.9556070131       -3.2301791928        0.3104037152
 C          2.6125125813       -2.9417051078        0.2936357995
 C          2.2379739403       -1.5977554467        0.3030976120
 C          3.1059960843        1.9280820279        0.3110972167
 C          3.5630272489        2.3036194044       -1.1032942257
 C          4.4264217115        3.5640025051       -1.1309137790
 C          3.7313005085        4.8265023037       -0.6161204123
 C          2.4894598877        5.2119937639       -1.4091840073
 F          1.4087585960        4.4437946965       -1.0440263599
 H         -6.4364079425       -0.5028785773       -1.0987144219
 H         -5.0644831701        0.1908934954       -1.9674229446
 H         -4.9259010565       -2.2881609687       -1.9417490692
 H         -4.5822039978       -3.4668900997        0.2163558799
 H         -6.1562349571       -2.6635238872        0.1836460280
 H         -4.9964101577       -2.2520406402        2.3418267411
 H         -6.4777962239       -0.4815525262        1.4195713463
 H         -5.1350305205        0.2270756010        2.3211503009
 H         -5.4658286115        1.4062592143        0.1606431125
 H         -3.1701161367        1.2168184517        1.0855142564
 H         -3.1404291759        1.2023985480       -0.6839992769
 H         -2.6228997548       -2.4731692714       -1.0078664327
 H         -2.8171544898       -0.9701914777       -1.9184425112
 H         -2.8874275982       -0.9346715030        2.3657351832
 H         -2.6641185797       -2.4524371500        1.4870122425
 H         -0.9751634665        0.4655658075        0.2452037795
 H          5.3349645285       -0.1102186965        0.3725257601
 H          5.9686253281       -2.4944317893        0.3525366053
 H          4.2838500733       -4.2589945995        0.3033368997
 H          1.8548448079       -3.7081428985        0.2751071654
 H          3.9516042457        1.9733289349        1.0054136208
 H          2.3193467196        2.6057732619        0.6462616281
 H          4.1468516278        1.4757789222       -1.5131704104
 H          2.6823030861        2.4310020647       -1.7327391847
 H          4.7526345902        3.7376218960       -2.1591316956
 H          5.3210759431        3.3962019043       -0.5263282988
 H          3.4485380852        4.7027470903        0.4300539123
 H          4.4344361629        5.6591509693       -0.6761808309
 H          2.2024345687        6.2498336420       -1.2112704697
 H          2.6317419923        5.0643776609       -2.4846059969
  58
        -82.23448200
 C         -4.8797152558       -2.0708243165       -0.3462156822
 C         -4.4394627691       -1.8104253234        1.0933260186
 C         -5.0366070383       -0.4911354010        1.5816850100
 C         -4.5492554658        0.6474986233        0.6868516187
 C         -4.9920753193        0.3905457324       -0.7528104581
 C         -4.3945112868       -0.9295440492       -1.2383293055
 C         -2.8703989304       -0.8525634439       -1.1830032222
 C         -2.4231801770       -0.5921151354        0.2598699582
 C         -2.9154202767       -1.7357583351        1.1540981818
 C         -3.0235139991        0.7272769685        0.7461409814
 N         -0.9721046953       -0.4883117274        0.3247950149
 C         -0.0954850636       -1.4532841223       -0.0289388530
 O         -0.4002381048       -2.5480100263       -0.4704893304
 C          1.3063634987       -1.0355375423        0.1650730743
 N          1.6244345437        0.1432703599        0.6724042308
 N          2.9527073774        0.2397359836        0.7014205959
 C          3.5395901974       -0.8899043029        0.2187054656
 C          4.8761354125       -1.2512662530        0.0619018725
 C          5.1268915798       -2.4936847180       -0.4714887609
 C          4.0913292174       -3.3646188339       -0.8423668163
 C          2.7708096623       -3.0187176156       -0.6905803578
 C          2.4882336774       -1.7631488274       -0.1511033425
 C          3.6207867792        1.4047447857        1.2254979813
 C          2.6784819343        2.6017841874        1.3098916177
 C          2.2372464554        3.0882556757       -0.0680747633
 C          1.2623768251        4.2594003855        0.0354095228
 C          0.8505108503        4.7709280459       -1.3370016294
 F          1.9307875561        5.3189398233       -1.9879597303
 H         -5.9685013312       -2.1456593594       -0.3955319124
 H         -4.4598114159       -3.0158933644       -0.6951934663
 H         -4.7860016632       -2.6275651906        1.7355742333
 H         -4.7373134339       -0.3064569233        2.6161031900
 H         -6.1272024319       -0.5425610922        1.5532722048
 H         -4.9733952987        1.5958916083        1.0370414075
 H         -6.0822663696        0.3465396922       -0.8019269627
 H         -4.6610233411        1.2090400850       -1.3964678142
 H         -4.7084051960       -1.1139383559       -2.2716585623
 H         -2.5068971151       -0.0479059914       -1.8272120774
 H         -2.4284856730       -1.7880510603       -1.5263020527
 H         -2.5838514548       -1.5629050382        2.1811185467
 H         -2.4735236564       -2.6700720456        0.8071599574
 H         -2.6689320893        1.5469890796        0.1154140284
 H         -2.7010087573        0.9219672764        1.7724259493
 H         -0.5681320367        0.3586570913        0.6951584690
 H          5.6779782844       -0.5878018033        0.3483141065
 H          6.1495605222       -2.8129580955       -0.6093640959
 H          4.3494991713       -4.3283963423       -1.2553855981
 H          1.9630194459       -3.6757339215       -0.9691700404
 H          4.4669104452        1.6350686134        0.5697108236
 H          4.0136848298        1.1730212886        2.2242026213
 H          1.8016963145        2.3144268503        1.8914642891
 H          3.1928980579        3.4067013791        1.8376259157
 H          1.7544079426        2.2672851919       -0.6010345876
 H          3.1101925119        3.4024075916       -0.6439803942
 H          0.3618969962        3.9521772544        0.5695718358
 H          1.7269192936        5.0780703108        0.5889525634
 H          0.4810427450        3.9612075518       -1.9747682279
 H          0.0986145212        5.5633968150       -1.2635992546
  58
        -82.23447131
 C         -4.8636003024       -2.0904110901        0.1224147124
 C         -4.3732283863       -1.0754755194        1.1535646302
 C         -4.9668701756        0.2982014168        0.8435172012
 C         -4.5248673880        0.7374530291       -0.5516389252
 C         -5.0173778404       -0.2745056698       -1.5851687980
 C         -4.4243315865       -1.6478161767       -1.2722452966
 C         -2.9001412398       -1.5710190706       -1.3255316602
 C         -2.4026653802       -0.5540758725       -0.2919656561
 C         -2.8489083675       -0.9970013724        1.1059884265
 C         -2.9988969669        0.8191266358       -0.6027219367
 N         -0.9513456855       -0.4478107336       -0.3456768988
 C         -0.0777423453       -1.4535112941       -0.1218343384
 O         -0.3856710106       -2.5943875953        0.1777786150
 C          1.3250160695       -1.0194771396       -0.2670061774
 N          1.6448235957        0.2125856557       -0.6245436023
 N          2.9730250245        0.3086735827       -0.6470003970
 C          3.5583132887       -0.8736896846       -0.3109513931
 C          4.8945445002       -1.2543795692       -0.2057418309
 C          5.1439750013       -2.5542908637        0.1670738006
 C          4.1073779953       -3.4624275574        0.4302825773
 C          2.7871841687       -3.0974816943        0.3283479790
 C          2.5058714213       -1.7837998136       -0.0488670568
 C          3.6447263980        1.5284000659       -1.0212490875
 C          2.6886751881        2.7173018573       -1.0258967261
 C          2.1964311270        3.0695355829        0.3755590763
 C          1.1957219063        4.2229352334        0.3457995191
 C          0.7304590758        4.5995284489        1.7445556275
 F          1.7762591255        5.1127813115        2.4752390453
 H         -5.9526002562       -2.1674302116        0.1635470721
 H         -4.4465089249       -3.0739870342        0.3457515759
 H         -4.6864389100       -1.3906892100        2.1549738329
 H         -4.6323648208        1.0256648937        1.5869544871
 H         -6.0571609186        0.2517619457        0.8882678857
 H         -4.9460903881        1.7245318714       -0.7757324689
 H         -6.1081380605       -0.3255361456       -1.5617816734
 H         -4.7187306353        0.0410982964       -2.5876209408
 H         -4.7745795088       -2.3740295904       -2.0140324098
 H         -2.5693069043       -1.2681396169       -2.3222329496
 H         -2.4611234355       -2.5437874865       -1.1029127659
 H         -2.4817783900       -0.2832909697        1.8479012801
 H         -2.4097662031       -1.9703779564        1.3249607343
 H         -2.6770524949        1.1437275242       -1.5958272740
 H         -2.6406104099        1.5493481004        0.1279650022
 H         -0.5449026432        0.4374119145       -0.6082767482
 H          5.6966906244       -0.5614180649       -0.4095394666
 H          6.1662708356       -2.8905396334        0.2600915033
 H          4.3644890461       -4.4708660037        0.7184119337
 H          1.9787796322       -3.7825615868        0.5257107240
 H          4.0821712686        1.4016310770       -2.0201440454
 H          4.4600164940        1.7016452367       -0.3105422191
 H          3.2076857324        3.5736139005       -1.4599730890
 H          1.8350988722        2.4749603084       -1.6602291871
 H          3.0445720719        3.3507282829        1.0032402390
 H          1.7191709123        2.1937923493        0.8186470879
 H          1.6552329279        5.0984195105       -0.1176291988
 H          0.3195170077        3.9444398314       -0.2419076985
 H         -0.0398387554        5.3772324835        1.7181721755
 H          0.3643528055        3.7271785499        2.2958665820
  58
        -82.23444153
 C         -4.9556181939       -0.5602591814       -1.4598984793
 C         -4.3885552172       -1.8372948484       -0.8407753816
 C         -4.8478102677       -1.9505698585        0.6118551211
 C         -4.3497102244       -0.7379911601        1.3963489824
 C         -4.9174463978        0.5400243276        0.7800306052
 C         -4.4557331472        0.6500129880       -0.6723651703
 C         -2.9282449163        0.6963986296       -0.7213857996
 C         -2.3579060898       -0.5810593765       -0.1043103953
 C         -2.8628341418       -1.7962225889       -0.8906548275
 C         -2.8239321825       -0.6939387833        1.3515322176
 N         -0.9048325562       -0.5092652531       -0.1626018689
 C         -0.0476689044       -1.4473562018        0.2961376665
 O         -0.3738529767       -2.4852666729        0.8460288268
 C          1.3616932235       -1.0721209876        0.0716016996
 N          1.6961846446        0.0374601683       -0.5648368160
 N          3.0248360876        0.1179563216       -0.5935598779
 C          3.5962560597       -0.9524731681        0.0237936682
 C          4.9282447388       -1.3023004800        0.2351972872
 C          5.1634258142       -2.4772962407        0.9098946851
 C          4.1167438676       -3.2919866875        1.3675228057
 C          2.8005323730       -2.9560091025        1.1638735620
 C          2.5335324066       -1.7688022835        0.4808794889
 C          3.7140058383        1.2117596987       -1.2329483355
 C          2.7445691352        2.2966758204       -1.6914220165
 C          2.1170068371        3.0479552445       -0.5197704620
 C          1.0881222042        4.0712611826       -0.9960584628
 C          0.4806514826        4.8410265828        0.1672044045
 F          1.4356023735        5.6195961374        0.7777522247
 H         -6.0472315286       -0.5891951476       -1.4394282278
 H         -4.6426646968       -0.4809070608       -2.5036882523
 H         -4.7443092237       -2.7057533125       -1.4060249178
 H         -4.4495049400       -2.8652990183        1.0544304850
 H         -5.9382785507       -2.0006973538        0.6553771160
 H         -4.6771260866       -0.8169003362        2.4388390142
 H         -6.0087113969        0.5204538523        0.8204253565
 H         -4.5774190878        1.4103293166        1.3463408807
 H         -4.8584346628        1.5679246941       -1.1165006677
 H         -2.5641180425        1.5663309274       -0.1680586748
 H         -2.5922066817        0.7859978153       -1.7579046800
 H         -2.4421103195       -2.7006380683       -0.4505823956
 H         -2.5179086351       -1.7288438996       -1.9256070162
 H         -2.4515903431        0.1621601768        1.9198448664
 H         -2.4030339726       -1.5998544702        1.7878845819
 H         -0.4827215409        0.2848116183       -0.6200012550
 H          5.7372842655       -0.6799376539       -0.1158620838
 H          6.1818974289       -2.7860958802        1.0947059054
 H          4.3627306195       -4.2038595753        1.8910408345
 H          1.9848880870       -3.5709521659        1.5078753629
 H          4.2678186808        0.8201477288       -2.0956299999
 H          4.4381720113        1.6279170908       -0.5231363297
 H          3.2879957468        2.9971334942       -2.3279218911
 H          1.9581901629        1.8309114447       -2.2869126307
 H          2.8958575613        3.5632214832        0.0459792943
 H          1.6291057618        2.3322323867        0.1437703257
 H          1.5614858663        4.7817346061       -1.6768674373
 H          0.2805284747        3.5697296689       -1.5317816336
 H         -0.3074670248        5.5233695065       -0.1676659627
 H          0.0909709539        4.1665707425        0.9368096225
  58
        -82.23438500
 C         -5.1251094096       -2.1386418700       -0.5341994060
 C         -4.6794653848       -2.2326862276        0.9240602384
 C         -5.3843027694       -1.1545143965        1.7463768512
 C         -5.0223405577        0.2225217770        1.1918750773
 C         -5.4708816944        0.3199110217       -0.2655518099
 C         -4.7657371881       -0.7599211712       -1.0854656375
 C         -3.2541887494       -0.5577910336       -1.0060717971
 C         -2.8014903505       -0.6518796150        0.4554521388
 C         -3.1677275394       -2.0340187034        1.0083947758
 C         -3.5094000148        0.4263839858        1.2761541199
 N         -1.3644847276       -0.4352519966        0.5518756158
 C         -0.4145390972       -1.1910672946       -0.0386557340
 O         -0.6315925855       -2.1593904626       -0.7472221107
 C          0.9516785401       -0.7215258921        0.2650386074
 N          1.1896663021        0.3121236120        1.0529823118
 N          2.5116449714        0.4728140362        1.1396218179
 C          3.1729751330       -0.4563461370        0.3956735700
 C          4.5295701727       -0.6898260786        0.1785154529
 C          4.8586967272       -1.7436441930       -0.6410244953
 C          3.8809865136       -2.5543815953       -1.2363831905
 C          2.5413886542       -2.3355983412       -1.0269082948
 C          2.1802281760       -1.2723554860       -0.1986408505
 C          3.0505058544        1.5628123466        1.9034643252
 C          3.0149453157        2.8790868925        1.1183882079
 C          3.9786636532        2.8706593673       -0.0662063995
 C          3.9389631066        4.1714531415       -0.8712113220
 C          2.7106664687        4.2721184766       -1.7651140816
 F          2.7604776190        3.3133854317       -2.7484780398
 H         -6.2033977928       -2.2995499439       -0.6058104106
 H         -4.6280542449       -2.9120902590       -1.1224445524
 H         -4.9357095572       -3.2208357241        1.3220528546
 H         -5.0808199315       -1.2261591966        2.7935273599
 H         -6.4660682079       -1.2988393748        1.7010627948
 H         -5.5237707848        0.9984460975        1.7822156914
 H         -6.5534248384        0.1887429331       -0.3288798124
 H         -5.2297286737        1.3080510843       -0.6644429734
 H         -5.0839762596       -0.6897477264       -2.1315006209
 H         -2.9796031920        0.4201016044       -1.4094203605
 H         -2.7362104349       -1.3216759930       -1.5861869383
 H         -2.8312585214       -2.1114582391        2.0454161663
 H         -2.6500254511       -2.7960068341        0.4254284187
 H         -3.2452443552        1.4145149586        0.8904994470
 H         -3.1837085033        0.3685644844        2.3180769151
 H         -1.0313881346        0.3289642209        1.1199380303
 H          5.2907357782       -0.0716887699        0.6300358100
 H          5.8999086137       -1.9558511567       -0.8353434618
 H          4.1996593258       -3.3668798949       -1.8722326255
 H          1.7759359228       -2.9486950543       -1.4739326719
 H          4.0756167044        1.3138392717        2.1869303486
 H          2.4443448841        1.6638293073        2.8082524816
 H          1.9917120643        3.0371726535        0.7745896119
 H          3.2757650673        3.6948262322        1.7959467711
 H          3.7425694975        2.0396014249       -0.7333933279
 H          4.9943372876        2.7210083409        0.3069594776
 H          3.9495695807        5.0320314467       -0.2001419352
 H          4.8226051554        4.2246661005       -1.5099870922
 H          1.7806904235        4.1044396772       -1.2139314261
 H          2.6690609915        5.2398146896       -2.2758763229
  58
        -82.23435373
 C         -5.0797169207       -2.2861140098        0.4105912605
 C         -4.6728729457       -1.0736374640        1.2463192348
 C         -5.4179354608        0.1646946533        0.7496079552
 C         -5.0625402569        0.4151308671       -0.7151929425
 C         -5.4717668032       -0.7948428497       -1.5537979917
 C         -4.7275427556       -2.0326496403       -1.0541822627
 C         -3.2221281170       -1.8120429198       -1.1846514899
 C         -2.8084079578       -0.5962860132       -0.3471542385
 C         -3.1674358071       -0.8501368395        1.1211537723
 C         -3.5559623708        0.6410346785       -0.8447955587
 N         -1.3782966121       -0.3551770284       -0.4811907938
 C         -0.3997994510       -1.2158378235       -0.1288146422
 O         -0.5791399454       -2.3073515169        0.3842490339
 C          0.9479449397       -0.6939558695       -0.4299342594
 N          1.1429371115        0.4481175797       -1.0650952815
 N          2.4582443010        0.6301639557       -1.1980483592
 C          3.1588817443       -0.3946128315       -0.6386808388
 C          4.5251950397       -0.6460535410       -0.5297704660
 C          4.8980900806       -1.8082285601        0.1033554470
 C          3.9539278976       -2.7080568279        0.6195817601
 C          2.6049521083       -2.4716870362        0.5160851869
 C          2.1997044801       -1.2990922564       -0.1224108319
 C          2.9559081498        1.8192575227       -1.8307748859
 C          2.9471571797        3.0187961289       -0.8765244348
 C          3.9468803328        2.8536725200        0.2659873785
 C          3.9687302913        4.0544390286        1.2141673182
 C          2.7553993625        4.1050817755        2.1323922473
 F          2.7640495992        3.0320274579        2.9908856512
 H         -6.1528972122       -2.4650044744        0.5104891951
 H         -4.5543358852       -3.1735656537        0.7679919062
 H         -4.9238298469       -1.2531391857        2.2975581966
 H         -5.1426739060        1.0325505965        1.3534865974
 H         -6.4956021260        0.0164385129        0.8486607348
 H         -5.5924370297        1.3054290569       -1.0737586327
 H         -6.5499491891       -0.9514227844       -1.4755899117
 H         -5.2350766189       -0.6165212967       -2.6054370879
 H         -5.0181649309       -2.9008112288       -1.6562211685
 H         -2.9519093126       -1.6426095669       -2.2301273767
 H         -2.6764771768       -2.6868498902       -0.8300248118
 H         -2.8587953414        0.0074577186        1.7239756497
 H         -2.6213856365       -1.7256361216        1.4725144208
 H         -3.2972018971        0.8319566095       -1.8896859483
 H         -3.2580520656        1.5117512730       -0.2550333566
 H         -1.0760935566        0.4986016406       -0.9256124166
 H          5.2611402682        0.0395716637       -0.9217884135
 H          5.9483107785       -2.0379394961        0.2092290700
 H          4.3064265084       -3.6042285319        1.1080537444
 H          1.8646983772       -3.1518772516        0.9046784391
 H          2.3109561032        2.0336444330       -2.6878715414
 H          3.9690774161        1.6220116651       -2.1880734772
 H          3.1890722171        3.9176853189       -1.4475847410
 H          1.9355278898        3.1271988297       -0.4831114400
 H          4.9464047999        2.7254215944       -0.1557384944
 H          3.7100138401        1.9568433183        0.8414531628
 H          4.8610020124        3.9983284599        1.8406201272
 H          4.0084150196        4.9846846905        0.6447282292
 H          2.7685277275        5.0039970430        2.7576099562
 H          1.8132023746        4.0536674456        1.5789641614
  58
        -82.23434244
 C         -5.7268418056       -1.6028977676       -1.1376733032
 C         -4.8894612633       -2.6400605099       -0.3903545649
 C         -5.2415094717       -2.6087628924        1.0959401653
 C         -4.9497507437       -1.2177322064        1.6561218164
 C         -5.7871258022       -0.1788382645        0.9111778502
 C         -5.4320803401       -0.2133783434       -0.5745992227
 C         -3.9477063029        0.1066619205       -0.7533746223
 C         -3.1076976320       -0.9304168691       -0.0077593580
 C         -3.4058597124       -2.3253260650       -0.5691506299
 C         -3.4662801389       -0.8996225773        1.4823548812
 N         -1.7005164243       -0.6029478782       -0.1934399520
 C         -0.6591266203       -1.2945708907        0.3144832149
 O         -0.7527450238       -2.2946649008        1.0059907435
 C          0.6443576990       -0.7080574864       -0.0556793445
 N          0.7500431198        0.3877778701       -0.7858345214
 N          2.0471081175        0.6543192655       -0.9509852249
 C          2.8259486777       -0.2666453384       -0.3181373964
 C          4.2080332570       -0.4113291520       -0.2089980242
 C          4.6692707073       -1.4861015823        0.5140153319
 C          3.7972885025       -2.4040320798        1.1179332451
 C          2.4339580235       -2.2743301066        1.0137263888
 C          1.9395557435       -1.1912779090        0.2859363800
 C          2.4469691407        1.8375184712       -1.6601454292
 C          2.3159331497        3.0892809865       -0.7827176546
 C          3.3020175017        3.1115370100        0.3871668086
 C          4.7412249347        3.4318669137       -0.0170401270
 C          4.9376213691        4.9081988855       -0.3338939329
 F          6.2479919464        5.1438513108       -0.6763420657
 H         -6.7892249089       -1.8300291434       -1.0246825574
 H         -5.4903304510       -1.6307572217       -2.2039345183
 H         -5.0973203112       -3.6368860488       -0.7947230373
 H         -4.6496646329       -3.3535611258        1.6310558384
 H         -6.2974466337       -2.8525550625        1.2343318052
 H         -5.2009558390       -1.1924670376        2.7222909407
 H         -6.8500376882       -0.3932043659        1.0425225069
 H         -5.5939677567        0.8168134459        1.3174683689
 H         -6.0286102049        0.5335541851       -1.1112979472
 H         -3.7324647173        1.1043748715       -0.3619858259
 H         -3.6896399323        0.0939259986       -1.8154849381
 H         -2.7945754785       -3.0570964278       -0.0406395111
 H         -3.1354149823       -2.3564538907       -1.6276177056
 H         -3.2390152742        0.0884810796        1.8904779091
 H         -2.8549340653       -1.6332986989        2.0081618442
 H         -1.4656887847        0.2054533251       -0.7494617249
 H          4.8911646974        0.2864112173       -0.6684736866
 H          5.7342359314       -1.6308023880        0.6218315752
 H          4.2177776121       -3.2288325094        1.6735802795
 H          1.7477892269       -2.9704934262        1.4677735960
 H          1.7928375658        1.9403407635       -2.5305453696
 H          3.4733248858        1.7025281466       -2.0046299218
 H          2.4507752970        3.9712690768       -1.4089338087
 H          1.2978254888        3.1103212728       -0.3895004445
 H          3.2813026486        2.1391994502        0.8829311369
 H          2.9705944788        3.8542830096        1.1159256891
 H          5.4146696680        3.1684517175        0.8009571762
 H          5.0384227942        2.8481968071       -0.8895883247
 H          4.3341524573        5.2338847580       -1.1869821743
 H          4.7216406937        5.5376964622        0.5356971930
  58
        -82.23430940
 C         -5.3004738701       -0.2619735971        1.2483511912
 C         -4.9546177884        0.2856505853       -0.1355708715
 C         -5.4030984729       -0.7093112775       -1.2049603318
 C         -4.6846961364       -2.0410123355       -0.9907056992
 C         -5.0277676916       -2.5920159124        0.3922838278
 C         -4.5820485263       -1.5941005870        1.4597252538
 C         -3.0728007464       -1.3830783454        1.3611750184
 C         -2.7231526165       -0.8308199776       -0.0253784387
 C         -3.4442704610        0.5002927174       -0.2379086954
 C         -3.1756656585       -1.8311666448       -1.0951734351
 N         -1.2885025482       -0.5989117806       -0.1275004557
 C         -0.3292191257       -1.5385035328        0.0052621163
 O         -0.5315701883       -2.7180165023        0.2397394473
 C          1.0309228352       -0.9887681888       -0.1625522289
 N          1.2583433132        0.2896843469       -0.4087032738
 N          2.5766449435        0.4626960355       -0.5179554561
 C          3.2472420648       -0.7068172465       -0.3287301720
 C          4.6055411125       -1.0163455693       -0.3451274486
 C          4.9476989092       -2.3297631272       -0.1233107132
 C          3.9804662388       -3.3188597292        0.1090055331
 C          2.6388004985       -3.0242091662        0.1248141195
 C          2.2642763147       -1.6984085461       -0.0965663281
 C          3.1256787535        1.7735306090       -0.7181802432
 C          3.5775158989        2.3909464729        0.6101700903
 C          4.2799105163        3.7372063796        0.4346915667
 C          3.4278193909        4.8250672866       -0.2182227725
 C          2.1668315695        5.1419846558        0.5744648974
 F          1.5430623366        6.2424321163        0.0354299723
 H         -6.3803310123       -0.4037554228        1.3307750768
 H         -4.9971015517        0.4515859679        2.0180439961
 H         -5.4654460366        1.2433618823       -0.2888108244
 H         -5.1733846579       -0.3172363346       -2.1984920323
 H         -6.4838992023       -0.8550101967       -1.1446002074
 H         -5.0029199239       -2.7550300917       -1.7583955975
 H         -6.1039574800       -2.7639692988        0.4687399492
 H         -4.5212152792       -3.5466990562        0.5452195076
 H         -4.8264385490       -1.9870641008        2.4528567411
 H         -2.5455973961       -2.3256813371        1.5095514995
 H         -2.7364759139       -0.6802976792        2.1276610320
 H         -3.1917327315        0.9023043273       -1.2224954498
 H         -3.1188442022        1.2196406708        0.5180385258
 H         -2.6483930099       -2.7732968134       -0.9436352630
 H         -2.9126163248       -1.4488162841       -2.0846670260
 H         -0.9679470664        0.3362428075       -0.3283196560
 H          5.3561135653       -0.2613989053       -0.5248270437
 H          5.9903832382       -2.6120705066       -0.1271684887
 H          4.3090123781       -4.3336825007        0.2769174621
 H          1.8822900397       -3.7718337805        0.2991173783
 H          2.3404401458        2.3774930640       -1.1760019689
 H          3.9727719466        1.7019770063       -1.4070639489
 H          2.7112382182        2.4972458445        1.2644760587
 H          4.2701820891        1.6987646963        1.0948059250
 H          5.1747365446        3.5926543665       -0.1746391294
 H          4.6043791311        4.0848427016        1.4178889288
 H          4.0195484588        5.7406187477       -0.2871790923
 H          3.1503946576        4.5388130867       -1.2335659750
 H          1.4361988424        4.3283869078        0.5393830669
 H          2.4004182772        5.3922242433        1.6148852222
  58
        -82.23429868
 C         -5.1324595996       -0.5451128367        1.3110462030
 C         -4.5907732219        0.7410904006        0.6886925866
 C         -4.9336938508        0.7725964430       -0.7998224559
 C         -4.2997845841       -0.4339337045       -1.4908063494
 C         -4.8378376086       -1.7225512136       -0.8708512544
 C         -4.4965821722       -1.7496251484        0.6181101043
 C         -2.9803149547       -1.7015552052        0.7946202262
 C         -2.4367568926       -0.4110974327        0.1731773912
 C         -3.0732990766        0.7948978139        0.8638285312
 C         -2.7834838787       -0.3810769570       -1.3197021952
 N         -0.9939656356       -0.3308142107        0.3564538448
 C         -0.0929644501       -1.2164976508       -0.1112632024
 O         -0.3640768876       -2.2580976773       -0.6859088612
 C          1.3049239355       -0.8060234754        0.1403270567
 N          1.6295188339        0.2609182771        0.8479660392
 N          2.9606473225        0.3662617235        0.8574516140
 C          3.5398898086       -0.6435555095        0.1504959543
 C          4.8731075464       -0.9529447413       -0.1108686330
 C          5.1144651126       -2.0737949807       -0.8705590551
 C          4.0731311189       -2.8732732099       -1.3647814093
 C          2.7558966975       -2.5773822587       -1.1109197938
 C          2.4832636769       -1.4464110999       -0.3404558984
 C          3.6330322733        1.4410239768        1.5324226617
 C          4.1837472966        2.5013999855        0.5638869996
 C          3.2363135586        3.6648886744        0.2635768076
 C          1.9428605767        3.2800970290       -0.4670879295
 C          0.7489063509        3.2162925400        0.4752594758
 F         -0.4031934239        2.9591609964       -0.2351681277
 H         -6.2185974169       -0.5818429537        1.1997042899
 H         -4.9048521906       -0.5668640485        2.3794864684
 H         -5.0421013584        1.6072431546        1.1865304821
 H         -4.5593819671        1.6961057118       -1.2470359819
 H         -6.0180186234        0.7505973978       -0.9311661616
 H         -4.5433219522       -0.4124363507       -2.5589831372
 H         -5.9206975197       -1.7778086169       -1.0061287345
 H         -4.3908607863       -2.5858604515       -1.3674135063
 H         -4.8818684883       -2.6731310074        1.0648598691
 H         -2.5121709980       -2.5561504966        0.3060039398
 H         -2.7200994234       -1.7316088274        1.8556429934
 H         -2.6791238172        1.7148827249        0.4264607017
 H         -2.8207767084        0.7838060160        1.9273716453
 H         -2.3149501587       -1.2352309050       -1.8097776007
 H         -2.3812807902        0.5328057208       -1.7635128387
 H         -0.6250120752        0.5216494084        0.7469773005
 H          5.6800421901       -0.3431596192        0.2667188656
 H          6.1344094009       -2.3496553830       -1.0954596279
 H          4.3238312639       -3.7411259677       -1.9563917285
 H          1.9430717513       -3.1821448012       -1.4785209384
 H          4.4602810057        1.0085928663        2.1048627003
 H          2.9260291260        1.8896413422        2.2323296131
 H          5.0938952477        2.9194103424        0.9986142961
 H          4.4617302795        2.0099804452       -0.3707415653
 H          3.7898576771        4.3767204109       -0.3515229831
 H          2.9879903318        4.1728543008        1.1982980881
 H          1.7177989351        4.0185601777       -1.2390301843
 H          2.0532947162        2.3144425037       -0.9619233611
 H          0.8496007814        2.4038325095        1.2001158988
 H          0.5886081720        4.1732986409        0.9840036301
  58
        -82.23428642
 C         -5.2464866465       -2.6689368857       -0.3768320568
 C         -4.8108742643       -2.4964235542        1.0772983494
 C         -5.5957168503       -1.3508616246        1.7153829115
 C         -5.3220832550       -0.0594106618        0.9459499964
 C         -5.7608959886       -0.2287141868       -0.5078542340
 C         -4.9756878862       -1.3754465385       -1.1433650152
 C         -3.4821768120       -1.0599330863       -1.0984208965
 C         -3.0396573677       -0.8866173123        0.3589534715
 C         -3.3169965477       -2.1836467099        1.1275502554
 C         -3.8273442241        0.2585835992        0.9954352501
 N         -1.6215172391       -0.5594608488        0.4188893590
 C         -0.6167932459       -1.3322571345       -0.0437118256
 O         -0.7585379311       -2.4151099771       -0.5864709500
 C          0.7112008439       -0.7250646341        0.1748109594
 N          0.8702186982        0.4457841678        0.7655921006
 N          2.1767704559        0.7101933334        0.8204960431
 C          2.9079626343       -0.2889521704        0.2533958466
 C          4.2796421546       -0.4658070781        0.0795555272
 C          4.6876002557       -1.6234274182       -0.5401707867
 C          3.7732098456       -2.5916934787       -0.9806237200
 C          2.4198320193       -2.4305684149       -0.8110450660
 C          1.9791659525       -1.2638993197       -0.1851883687
 C          2.6307174562        1.9580122815        1.3680461655
 C          2.4702945522        3.1065287986        0.3636158903
 C          3.3853557272        2.9760291490       -0.8546227308
 C          4.8495293839        3.3235301810       -0.5716157756
 C          5.0868831214        4.8253383941       -0.4898368904
 F          4.8509581754        5.4130928675       -1.7097859472
 H         -6.3105381489       -2.9127779817       -0.4209116882
 H         -4.6921165270       -3.4911317088       -0.8329738994
 H         -5.0036614899       -3.4228706651        1.6295090766
 H         -5.2990842605       -1.2321441183        2.7601772563
 H         -6.6646505307       -1.5744166235        1.6945324239
 H         -5.8810066085        0.7651138905        1.4036650386
 H         -6.8312878461       -0.4423081897       -0.5486623282
 H         -5.5830605103        0.6965584834       -1.0609131327
 H         -5.2869024577       -1.4964686770       -2.1868418980
 H         -3.2704631886       -0.1428747771       -1.6539581865
 H         -2.9076613536       -1.8699171709       -1.5482418509
 H         -2.9869502311       -2.0699606723        2.1632565916
 H         -2.7428284770       -2.9922896931        0.6748296808
 H         -3.6265142126        1.1875249625        0.4554565435
 H         -3.5093678793        0.3914709360        2.0328168788
 H         -1.3479314451        0.3109916321        0.8493182621
 H          4.9943175894        0.2712263684        0.4128361463
 H          5.7428191175       -1.7953780918       -0.6944231550
 H          4.1525794193       -3.4809548538       -1.4614210046
 H          1.7018671897       -3.1641857621       -1.1396529093
 H          3.6727388915        1.8412655216        1.6710492103
 H          2.0268100393        2.1701570540        2.2549203974
 H          1.4312128536        3.1099684801        0.0294313990
 H          2.6580305816        4.0484305727        0.8805081493
 H          3.0264332515        3.6384453475       -1.6442995380
 H          3.3261392815        1.9549383062       -1.2357796392
 H          5.1840544330        2.8790002354        0.3663492797
 H          5.4714236927        2.9267210561       -1.3761261096
 H          4.4144677547        5.3123682295        0.2233124038
 H          6.1266903846        5.0514426156       -0.2317069727
  58
        -82.23425452
 C         -4.9908971272       -0.7341349572        1.5305043059
 C         -4.5037687886        0.5307951355        0.8252692277
 C         -4.9473471673        0.5031199153       -0.6366379767
 C         -4.3501090140       -0.7243341502       -1.3237473642
 C         -4.8349763390       -1.9915616326       -0.6216563906
 C         -4.3941038218       -1.9603581489        0.8407500051
 C         -2.8700034064       -1.8962466871        0.9117428740
 C         -2.3783307776       -0.6263977413        0.2078356682
 C         -2.9779821386        0.6002723445        0.8955376911
 C         -2.8258600025       -0.6570243515       -1.2578842731
 N         -0.9266616222       -0.5350654531        0.2881856154
 C         -0.0519314953       -1.4362832374       -0.2066206090
 O         -0.3568849442       -2.4506044445       -0.8106082422
 C          1.3519963969       -1.0592976863        0.0513546516
 N          1.6780526852        0.0337941820        0.7187866658
 N          3.0080060685        0.1113823550        0.7668733357
 C          3.5868624517       -0.9471738000        0.1358257236
 C          4.9201644686       -1.3001058824       -0.0627291058
 C          5.1607143411       -2.4593779720       -0.7623176025
 C          4.1182450884       -3.2579108957       -1.2560798220
 C          2.8007562411       -2.9204083861       -1.0641458800
 C          2.5287982564       -1.7485320246       -0.3571137430
 C          3.6767727278        1.1896370329        1.4497920956
 C          2.7889818267        2.4279649527        1.5415715862
 C          2.4701065488        3.0142683927        0.1678884102
 C          1.5632791402        4.2355696167        0.2822213586
 C          1.2165665977        4.7946840012       -1.0897113844
 F          0.3910671771        5.8865697210       -0.9642051107
 H         -6.0815483627       -0.7805269188        1.4949248796
 H         -4.6910945934       -0.7142938080        2.5809505163
 H         -4.9273340050        1.4124965802        1.3200130784
 H         -4.6166068810        1.4125586409       -1.1436496559
 H         -6.0375797367        0.4674089706       -0.6916687002
 H         -4.6644690583       -0.7443186940       -2.3731078190
 H         -5.9238175999       -2.0576160264       -0.6815847928
 H         -4.4154208267       -2.8702723555       -1.1148766999
 H         -4.7402469617       -2.8683738409        1.3468073398
 H         -2.4286315540       -2.7648653534        0.4225313208
 H         -2.5379971557       -1.8864572657        1.9530336443
 H         -2.6245941660        1.5089581927        0.4012510658
 H         -2.6549479451        0.6315602143        1.9394576426
 H         -2.3842138010       -1.5268829629       -1.7444644979
 H         -2.4631974346        0.2392358961       -1.7675298687
 H         -0.5231618978        0.2477722749        0.7801972227
 H          5.7285158277       -0.6943999677        0.3181985418
 H          6.1807782563       -2.7687543990       -0.9371692404
 H          4.3683926875       -4.1581965151       -1.7972280918
 H          1.9871761342       -3.5224710162       -1.4347271045
 H          4.5936812088        1.4196079067        0.8984484941
 H          3.9553177892        0.8621002549        2.4600214391
 H          1.8598996224        2.1526216127        2.0410188158
 H          3.3002916156        3.1739021226        2.1521557631
 H          1.9736702492        2.2548246419       -0.4386425342
 H          3.3985052186        3.2947721325       -0.3356493977
 H          0.6382902860        3.9643754818        0.7948517561
 H          2.0542908507        5.0155958040        0.8679376557
 H          2.1088213743        5.1364458812       -1.6248073756
 H          0.6771449209        4.0614283196       -1.6984435124
  58
        -82.23424582
 C         -4.8209031981       -2.0119253760       -0.4018437460
 C         -4.3896451838       -1.7771283112        1.0448543406
 C         -4.9745687628       -0.4574659670        1.5467796801
 C         -4.4654638472        0.6873495399        0.6721637577
 C         -4.8992105817        0.4562478930       -0.7746257879
 C         -4.3141523904       -0.8643742033       -1.2737576215
 C         -2.7896543067       -0.8073879639       -1.2048800823
 C         -2.3517126296       -0.5726707373        0.2452307379
 C         -2.8652851426       -1.7224186384        1.1193303596
 C         -2.9393850718        0.7471858298        0.7451053834
 N         -0.8995542192       -0.4883663678        0.3239842630
 C         -0.0329794625       -1.4606467940       -0.0311513194
 O         -0.3467538917       -2.5489613402       -0.4825392401
 C          1.3738612686       -1.0628773210        0.1738079352
 N          1.7073314464        0.1133587229        0.6756328302
 N          3.0376020338        0.1878316272        0.7145180152
 C          3.6092415844       -0.9550881921        0.2446375008
 C          4.9404218946       -1.3410063899        0.1011964024
 C          5.1737538284       -2.5911294455       -0.4223054147
 C          4.1262012220       -3.4461907114       -0.7962167604
 C          2.8107746135       -3.0762056747       -0.6572248627
 C          2.5459422133       -1.8123845191       -0.1282520312
 C          3.7177264990        1.3482012595        1.2324821145
 C          2.8087270670        2.5740701050        1.2366210102
 C          2.4160536508        3.0096707471       -0.1736084208
 C          1.4826460960        4.2158468190       -0.1428227903
 C          1.0625244878        4.6229549271       -1.5473404786
 F          0.2112336661        5.7009809737       -1.4963500031
 H         -5.9101006524       -2.0723360665       -0.4611202270
 H         -4.4099659729       -2.9573537529       -0.7606554285
 H         -4.7515200013       -2.5989472173        1.6726328603
 H         -4.6819410941       -0.2911684394        2.5862352372
 H         -6.0654523518       -0.4949570272        1.5084927527
 H         -4.8803488421        1.6360406110        1.0319251839
 H         -5.9893978041        0.4267724461       -0.8335806521
 H         -4.5526074709        1.2795467620       -1.4035959959
 H         -4.6215563297       -1.0304624890       -2.3121921102
 H         -2.4112829184        0.0020055445       -1.8344550240
 H         -2.3565314859       -1.7434431445       -1.5580178803
 H         -2.5405094342       -1.5676705714        2.1514064442
 H         -2.4321969085       -2.6575471822        0.7634613667
 H         -2.5702676817        1.5714390147        0.1292061279
 H         -2.6232690148        0.9234065692        1.7766671326
 H         -0.4890309647        0.3538513953        0.6979342655
 H          5.7518309213       -0.6906667162        0.3909081998
 H          6.1918844966       -2.9291034542       -0.5493451046
 H          4.3707331359       -4.4171054585       -1.2005882108
 H          1.9936593926       -3.7207445425       -0.9376649084
 H          4.5984521227        1.5307604713        0.6082228361
 H          4.0588672319        1.1400985521        2.2550657059
 H          1.9089266095        2.3371081592        1.8047606916
 H          3.3308048656        3.3880106232        1.7422603083
 H          1.9145600161        2.1811332241       -0.6765037136
 H          3.3144121876        3.2577133799       -0.7441586546
 H          0.5879493610        3.9781348513        0.4359001345
 H          1.9769519423        5.0627653213        0.3377569218
 H          1.9211691876        4.9303150921       -2.1535817257
 H          0.5199220865        3.8180040455       -2.0541551489
  58
        -82.23423344
 C         -4.9033630218       -0.4472804674        1.4695546190
 C         -4.3862605171        0.7161290578        0.6246595607
 C         -4.8338785521        0.5329551444       -0.8247537657
 C         -4.2697942167       -0.7798197409       -1.3669204377
 C         -4.7848202921       -1.9458195316       -0.5247944432
 C         -4.3395698452       -1.7591054111        0.9246560714
 C         -2.8141218756       -1.7260760854        0.9883518304
 C         -2.2924084607       -0.5577262133        0.1442624325
 C         -2.8590994274        0.7543500980        0.6871625552
 C         -2.7441642141       -0.7443273335       -1.3085060448
 N         -0.8389030302       -0.4936083193        0.2139658439
 C          0.0147969724       -1.4632754553       -0.1783008872
 O         -0.3128943559       -2.5320488795       -0.6647368091
 C          1.4263609894       -1.0852346191        0.0325753394
 N          1.7683115369        0.0685492000        0.5791478240
 N          3.0984182790        0.1363520433        0.6135759880
 C          3.6622411562       -0.9883078304        0.0930055751
 C          4.9913883314       -1.3708565235       -0.0750207850
 C          5.2175443528       -2.5998412032       -0.6493619102
 C          4.1648041212       -3.4364004535       -1.0497656175
 C          2.8512433071       -3.0689183949       -0.8873909438
 C          2.5934410228       -1.8265977046       -0.3065533795
 C          3.7914116009        1.2737277011        1.1660468011
 C          2.8418938282        2.4419216870        1.4143366871
 C          2.2942092088        3.0327440235        0.1164582513
 C          1.2901885237        4.1473631791        0.3933512158
 C          0.7132462985        4.7017420496       -0.9007410708
 F         -0.2078119706        5.6853589888       -0.6294762520
 H         -5.9949018443       -0.4697751978        1.4389835540
 H         -4.6006389936       -0.3152103332        2.5110125991
 H         -4.7860034606        1.6590899298        1.0151041290
 H         -4.4815077729        1.3699163548       -1.4321096580
 H         -5.9247839628        0.5190275616       -0.8758903780
 H         -4.5871630052       -0.9115741364       -2.4072686095
 H         -5.8751408435       -1.9904299607       -0.5770913934
 H         -4.3891343899       -2.8855987540       -0.9143009777
 H         -4.7073189817       -2.5943097889        1.5309846024
 H         -2.3960073013       -2.6557354192        0.6015441857
 H         -2.4794266977       -1.6061275559        2.0219064568
 H         -2.4842378189        1.5917529849        0.0928841680
 H         -2.5330250217        0.8961883796        1.7209386759
 H         -2.3258208346       -1.6750683823       -1.6921807983
 H         -2.3600030578        0.0781286770       -1.9173025159
 H         -0.4161807498        0.3284093029        0.6183207765
 H          5.8055800391       -0.7329586614        0.2339768380
 H          6.2336526816       -2.9351073345       -0.7973949355
 H          4.4037759543       -4.3907616891       -1.4948597113
 H          2.0306762078       -3.6995266422       -1.1886595887
 H          4.5807479570        1.5685940393        0.4654253305
 H          4.2658140364        0.9764342670        2.1101417456
 H          2.0126875729        2.0898222649        2.0285702010
 H          3.3795583032        3.2111058024        1.9711185709
 H          1.8036604915        2.2430246858       -0.4546065925
 H          3.1185568693        3.4238986769       -0.4846385651
 H          0.4714916670        3.7651969438        1.0063344200
 H          1.7695989735        4.9593252063        0.9441432703
 H          1.4868435484        5.1604470478       -1.5254840611
 H          0.1875338916        3.9279825420       -1.4702515592
  58
        -82.23417506
 C         -5.0935773033       -2.0817625529        0.5249936685
 C         -4.7058212517       -0.7820666973        1.2281094842
 C         -5.4769021613        0.3843774125        0.6114243771
 C         -5.1348979075        0.4883293751       -0.8741763973
 C         -5.5254554567       -0.8093369331       -1.5800327386
 C         -4.7543684329       -1.9743827711       -0.9607441238
 C         -3.2542934957       -1.7402202853       -1.1249708156
 C         -2.8599497463       -0.4372222786       -0.4202406547
 C         -3.2056382673       -0.5450794611        1.0692405617
 C         -3.6337005405        0.7277241331       -1.0377748455
 N         -1.4353151628       -0.1843362802       -0.5886673550
 C         -0.4395610485       -0.9942193942       -0.1725789199
 O         -0.5945741586       -2.0532880725        0.4111548244
 C          0.8979179041       -0.4612128754       -0.5014630639
 N          1.0711831572        0.6713314872       -1.1590200238
 N          2.3825978633        0.8703372676       -1.3064951817
 C          3.1030677047       -0.1364764062       -0.7375643752
 C          4.4734026716       -0.3677406680       -0.6346073729
 C          4.8677730805       -1.5066385961        0.0275995037
 C          3.9406648996       -2.4040279394        0.5773903041
 C          2.5876478596       -2.1912550832        0.4749176098
 C          2.1610266384       -1.0423336336       -0.1919465598
 C          2.8612331786        2.0644007841       -1.9423009966
 C          2.8340221842        3.2873547588       -1.0160736741
 C          3.7549862413        3.1580542163        0.2022510174
 C          3.0648766713        2.5280265281        1.4112159250
 C          4.0633206633        2.2704491565        2.5302421456
 F          3.4192381525        1.7939320844        3.6450838224
 H         -6.1625222873       -2.2693344408        0.6507785463
 H         -4.5492923452       -2.9175661077        0.9682782600
 H         -4.9475861606       -0.8563947170        2.2940771433
 H         -5.2149011419        1.3150507012        1.1201801533
 H         -6.5508857918        0.2273352532        0.7335372221
 H         -5.6837911220        1.3266975934       -1.3188088590
 H         -6.5998571636       -0.9771622098       -1.4775521737
 H         -5.2984359959       -0.7365812012       -2.6462959447
 H         -5.0310936242       -2.9055127140       -1.4675994075
 H         -2.9935473103       -1.6739645515       -2.1843339096
 H         -2.6899377120       -2.5636722518       -0.6869170344
 H         -2.9100976333        0.3755003052        1.5786542118
 H         -2.6412671381       -1.3699666753        1.5044384403
 H         -3.3841336162        0.8138245316       -2.0985685255
 H         -3.3498289213        1.6605202480       -0.5436665656
 H         -1.1511985950        0.6570045186       -1.0674290123
 H          5.1983492106        0.3120294081       -1.0574795080
 H          5.9220691120       -1.7194015214        0.1295457511
 H          4.3095963514       -3.2802140748        1.0891185311
 H          1.8598591556       -2.8707779579        0.8872002872
 H          2.2200130080        2.2604840254       -2.8068126755
 H          3.8793070219        1.8798672497       -2.2924965109
 H          3.1378572831        4.1487331759       -1.6130562277
 H          1.8083759099        3.4536420186       -0.6836928151
 H          4.1102044142        4.1503185117        0.4889141603
 H          4.6323009931        2.5650331348       -0.0642829013
 H          2.2849821412        3.1968174706        1.7814485251
 H          2.5932730839        1.5817726169        1.1480537650
 H          4.7985630384        1.5108001414        2.2433641577
 H          4.5753926829        3.1902974059        2.8340515767
  58
        -82.23413876
 C         -5.2892161807       -2.8953146807        0.3357147824
 C         -4.8878034211       -1.9767490736        1.4885094013
 C         -5.7287420746       -0.7014391027        1.4449019786
 C         -5.4917223015        0.0160600107        0.1167911998
 C         -5.8963740056       -0.8997519238       -1.0374714437
 C         -5.0551787189       -2.1747652413       -0.9909483609
 C         -3.5762880307       -1.8173684106       -1.1223341560
 C         -3.1680317429       -0.8960503899        0.0328304882
 C         -3.4084882345       -1.6189091259        1.3631071405
 C         -4.0117613035        0.3780175480       -0.0120009966
 N         -1.7651146252       -0.5240870613       -0.0914677962
 C         -0.7226597515       -1.3810152535       -0.0960721468
 O         -0.8116165239       -2.5929730246        0.0063420464
 C          0.5758111393       -0.6932388294       -0.2403807313
 N          0.6795382999        0.6209757818       -0.3337636939
 N          1.9712647533        0.9263364631       -0.4649733942
 C          2.7492421261       -0.1907839950       -0.4437314196
 C          4.1270617144       -0.3706623085       -0.5443493167
 C          4.5925363248       -1.6638191900       -0.4967775929
 C          3.7265375713       -2.7581527351       -0.3545872198
 C          2.3662625018       -2.5919819363       -0.2584489346
 C          1.8680163910       -1.2894057085       -0.3027997693
 C          2.4012942435        2.2950170464       -0.5075411178
 C          2.7947336199        2.7898963209        0.8891269869
 C          3.1623226897        4.2733755181        0.9168001870
 C          4.3842736860        4.6487034780        0.0789354155
 C          5.6583658929        3.9625290927        0.5527487887
 F          6.7391171593        4.4596024756       -0.1359015785
 H         -6.3419125777       -3.1724034917        0.4289936225
 H         -4.6945705702       -3.8100279289        0.3686839888
 H         -5.0543158339       -2.4912551101        2.4414110175
 H         -5.4565864139       -0.0466311196        2.2760676486
 H         -6.7875347370       -0.9495254751        1.5474512644
 H         -6.0908905288        0.9335089924        0.0840000679
 H         -6.9566234940       -1.1495935682       -0.9572193718
 H         -5.7446179909       -0.3874964095       -1.9904172980
 H         -5.3419318726       -2.8315991009       -1.8197115713
 H         -3.3903162244       -1.3119288946       -2.0733359354
 H         -2.9622938860       -2.7176272774       -1.0902755859
 H         -3.1025565699       -0.9715014958        2.1888599737
 H         -2.7946389720       -2.5194581662        1.3918910421
 H         -3.8374428522        0.9012291749       -0.9558240950
 H         -3.7185809472        1.0420110099        0.8053683822
 H         -1.5347739524        0.4536151784       -0.1849123935
 H          4.8012304123        0.4647977414       -0.6593027353
 H          5.6545704716       -1.8462468096       -0.5711489991
 H          4.1495304975       -3.7511395593       -0.3227839473
 H          1.6862716455       -3.4214427339       -0.1523268916
 H          1.5683107086        2.8888772301       -0.8913046828
 H          3.2439497166        2.3685781175       -1.1990572913
 H          1.9437927642        2.6301252407        1.5549538057
 H          3.6221830281        2.1865825182        1.2659107997
 H          3.3451359534        4.5623503546        1.9540580102
 H          2.3097205040        4.8537677496        0.5584028903
 H          4.2189957265        4.4115858370       -0.9729586707
 H          4.5406310823        5.7274509614        0.1487436959
 H          5.8458837627        4.1549262697        1.6144712340
 H          5.6478077996        2.8843633890        0.3666585740
  58
        -82.23408097
 C         -5.4686220713       -1.4269674735        1.5841885422
 C         -5.1853850023        0.0031658464        1.1268022150
 C         -5.6802588400        0.1877165196       -0.3070274433
 C         -4.9513106318       -0.7932867681       -1.2244840848
 C         -5.2318922646       -2.2247325888       -0.7704493376
 C         -4.7401630807       -2.4062590505        0.6645559316
 C         -3.2371602075       -2.1433516629        0.7248739843
 C         -2.9497972653       -0.7080365340        0.2694527771
 C         -3.6813511346        0.2713775363        1.1874620827
 C         -3.4487534333       -0.5264091558       -1.1686333760
 N         -1.5218103525       -0.4324500323        0.3454246034
 C         -0.5561554732       -1.0974064850       -0.3235817046
 O         -0.7496911119       -2.0188361930       -1.0990642808
 C          0.7947955531       -0.5875117473       -0.0203814568
 N          1.0024937325        0.4337111128        0.7927440306
 N          2.3161435092        0.6525551191        0.8590895238
 C          3.0043896340       -0.2333789152        0.0879863703
 C          4.3675434315       -0.4119697625       -0.1456629176
 C          4.7264676623       -1.4253530795       -1.0030801700
 C          3.7736491165       -2.2531030057       -1.6159279511
 C          2.4294980225       -2.0952134569       -1.3826836112
 C          2.0372516606       -1.0722140423       -0.5182710514
 C          2.8321292740        1.7428161762        1.6417090911
 C          2.2011761404        3.0736361774        1.2197415487
 C          2.3880496758        3.4334521110       -0.2572452338
 C          3.7226856287        4.0925330875       -0.6213058226
 C          4.9055769718        3.1464022114       -0.7812610564
 F          5.4959997544        2.8618256802        0.4309799735
 H         -6.5436505680       -1.6183034461        1.5559150577
 H         -5.1317328073       -1.5621966825        2.6146503846
 H         -5.7038714755        0.7083457428        1.7869266703
 H         -5.4958683668        1.2132141269       -0.6358305466
 H         -6.7571217828        0.0105131116       -0.3523358593
 H         -5.3028018092       -0.6603244426       -2.2537249722
 H         -6.3034276454       -2.4305536682       -0.8265007869
 H         -4.7177626809       -2.9278124822       -1.4282767795
 H         -4.9398463330       -3.4323342055        0.9927677141
 H         -2.7027049951       -2.8344302356        0.0727150048
 H         -2.8674449414       -2.2819452581        1.7439777869
 H         -3.4732238727        1.2969171223        0.8713360109
 H         -3.3231303152        0.1513426447        2.2131874322
 H         -2.9138862417       -1.2196240995       -1.8181236641
 H         -3.2306621627        0.4910296338       -1.5030853998
 H         -1.2070170356        0.3064414329        0.9559656752
 H          5.1127514468        0.2060324016        0.3313345059
 H          5.7731907751       -1.5947594432       -1.2098741306
 H          4.1160040309       -3.0332872008       -2.2794705282
 H          1.6831605794       -2.7262612243       -1.8371120233
 H          3.9132931990        1.7608288389        1.5273313930
 H          2.5992888120        1.5654233264        2.6979356489
 H          1.1303504968        3.0010789671        1.4180986407
 H          2.6107993918        3.8650027029        1.8490017086
 H          1.5988927617        4.1399989427       -0.5230821701
 H          2.2411981783        2.5437836340       -0.8734229448
 H          3.5981744736        4.6027849073       -1.5782180403
 H          3.9807243049        4.8452966433        0.1263915635
 H          4.6077208356        2.1878766275       -1.2186092437
 H          5.6916943151        3.6035652245       -1.3903957683
  58
        -82.23406982
 C         -5.5514831698        0.0269693098        1.0974401186
 C         -5.2639309148        0.2831872825       -0.3812348828
 C         -5.6574595969       -0.9465365715       -1.1982867993
 C         -4.8454650619       -2.1509800587       -0.7235074339
 C         -5.1302321201       -2.4105847709        0.7548444240
 C         -4.7397525440       -1.1786887613        1.5695992650
 C         -3.2503671529       -0.8970491068        1.3845529094
 C         -2.9589883692       -0.6363746223       -0.0978199534
 C         -3.7737188262        0.5676860774       -0.5707167050
 C         -3.3563017507       -1.8715913443       -0.9140353210
 N         -1.5460132405       -0.3397277183       -0.2877958173
 C         -0.5210924501       -1.1644901752        0.0145641935
 O         -0.6381680051       -2.2811140381        0.4913427972
 C          0.7926486466       -0.5663443977       -0.2909446259
 N          0.9189843491        0.6574378692       -0.7744731232
 N          2.2184072377        0.9109604705       -0.9318348002
 C          2.9787546174       -0.1541323942       -0.5567475224
 C          4.3568122366       -0.3679713995       -0.5542020875
 C          4.7984787068       -1.5865879820       -0.0951276533
 C          3.9120200023       -2.5802141627        0.3471339684
 C          2.5526312484       -2.3852738367        0.3378948437
 C          2.0771059597       -1.1559080471       -0.1206628430
 C          2.6560813026        2.1961671463       -1.4055537066
 C          2.0731224126        3.3278035549       -0.5532708892
 C          2.3918766377        3.2363318806        0.9418133906
 C          3.7681225785        3.7590600696        1.3667102171
 C          4.9375599885        2.8113121094        1.1316804293
 F          5.4318978453        2.9241719971       -0.1498496670
 H         -6.6177252663       -0.1628765023        1.2394301439
 H         -5.2872650323        0.9083301508        1.6866485942
 H         -5.8422528368        1.1499400821       -0.7220471759
 H         -5.4694543529       -0.7648158116       -2.2590667584
 H         -6.7246605463       -1.1452002798       -1.0769644587
 H         -5.1243738427       -3.0332208815       -1.3102519120
 H         -6.1907760268       -2.6311386738        0.8973139911
 H         -4.5566222251       -3.2747302141        1.0948477731
 H         -4.9426029968       -1.3622447453        2.6306073909
 H         -2.6570040233       -1.7492873923        1.7164212723
 H         -2.9524525509       -0.0249395508        1.9722253990
 H         -3.5632173608        0.7624224798       -1.6254965031
 H         -3.4880508296        1.4531494153        0.0032037267
 H         -2.7626298915       -2.7223131682       -0.5788744178
 H         -3.1343141730       -1.6962378440       -1.9696877066
 H         -1.2914460535        0.5552465340       -0.6777525317
 H          5.0499914386        0.3813061975       -0.9047741424
 H          5.8593368652       -1.7898093209       -0.0768522555
 H          4.3180375688       -3.5182176904        0.6956487726
 H          1.8556445135       -3.1388437627        0.6665901097
 H          2.3201744685        2.3297626227       -2.4405008094
 H          3.7433651396        2.2093967084       -1.3944470720
 H          2.4303701054        4.2786319782       -0.9512132195
 H          0.9884352732        3.2958943392       -0.6699320951
 H          2.2742783296        2.2044765632        1.2796144583
 H          1.6450848425        3.8325440751        1.4705463317
 H          3.9802076223        4.7016650088        0.8579347225
 H          3.7364657554        3.9597524182        2.4391997573
 H          5.7761961518        3.0540998200        1.7917868704
 H          4.6509007093        1.7632689234        1.2668507934
  58
        -82.23405111
 C         -5.2696933712       -2.7549502243        0.2757784842
 C         -4.8397681325       -1.9183932742        1.4796219345
 C         -5.6531158926       -0.6252932972        1.5221721694
 C         -5.4100688033        0.1680545838        0.2390996549
 C         -5.8430746462       -0.6655945251       -0.9659981492
 C         -5.0296279503       -1.9587278933       -1.0057473794
 C         -3.5444106906       -1.6254658995       -1.1275203624
 C         -3.1071760051       -0.7862920927        0.0786795381
 C         -3.3541025996       -1.5849309720        1.3637325430
 C         -3.9236414655        0.5056197401        0.1201097223
 N         -1.6979643393       -0.4378970928       -0.0346101013
 C         -0.6734589616       -1.3153662785       -0.0995327596
 O         -0.7904623113       -2.5290068098       -0.0637364180
 C          0.6359832368       -0.6469523078       -0.2194225909
 N          0.7605335777        0.6696331892       -0.2527996505
 N          2.0553993588        0.9596300587       -0.3785336033
 C          2.8157392152       -0.1688408887       -0.4143849658
 C          4.1911730899       -0.3601045315       -0.5308513440
 C          4.6358165562       -1.6612697500       -0.5462301294
 C          3.7546165904       -2.7492293755       -0.4505295449
 C          2.3975786481       -2.5695136009       -0.3378499525
 C          1.9180107102       -1.2589919565       -0.3185660641
 C          2.5060825616        2.3225967139       -0.3689409526
 C          2.9289464027        2.7461301123        1.0432943917
 C          3.2939055390        4.2305765688        1.1533672696
 C          4.7805336329        4.5434667946        0.9646430945
 C          5.3178994061        4.3133115731       -0.4407623765
 F          5.5561656820        2.9776084355       -0.6713885391
 H         -6.3274978902       -3.0149914948        0.3608251461
 H         -4.6947851088       -3.6822928650        0.2468976369
 H         -5.0106512496       -2.4873265019        2.4003267300
 H         -5.3606361009       -0.0292086006        2.3898513426
 H         -6.7163435443       -0.8565990291        1.6182629997
 H         -5.9895874279        1.0983045081        0.2682699472
 H         -6.9080318806       -0.8971407028       -0.8921986975
 H         -5.6870017238       -0.0985216579       -1.8867377967
 H         -5.3369551948       -2.5565818568       -1.8710025548
 H         -3.3542287791       -1.0662957403       -2.0471179481
 H         -2.9495930815       -2.5386161676       -1.1561602514
 H         -3.0280860114       -0.9966706227        2.2252276862
 H         -2.7594479526       -2.4980250121        1.3313284328
 H         -3.7449005830        1.0826091931       -0.7909463512
 H         -3.6099774053        1.1112724071        0.9743304669
 H         -1.4461068600        0.5379223139       -0.0797720892
 H          4.8736274848        0.4716966559       -0.6070543737
 H          5.6946927555       -1.8561124264       -0.6344899020
 H          4.1632453808       -3.7488959520       -0.4680814193
 H          1.7068440442       -3.3938626764       -0.2658026819
 H          1.6710758493        2.9411641029       -0.7081555173
 H          3.3349305437        2.4123970564       -1.0718398514
 H          2.0914113552        2.5324542166        1.7109109952
 H          3.7719836159        2.1312684889        1.3626349650
 H          3.0185272289        4.5811844689        2.1498081540
 H          2.7081363000        4.8062372033        0.4331435528
 H          4.9460321055        5.5952805663        1.2053922022
 H          5.3715931591        3.9434365382        1.6595278259
 H          4.6118210379        4.6450043602       -1.2088728511
 H          6.2802889573        4.8164230817       -0.5791046408
  58
        -82.23403471
 C         -5.3872377602       -1.5052899294       -1.3903577379
 C         -4.6747477069       -2.3135275218       -0.3065996103
 C         -5.1115111079       -1.8200993793        1.0717038310
 C         -4.7521567895       -0.3424685305        1.2178044133
 C         -5.4650287514        0.4679572046        0.1358976653
 C         -5.0252687563       -0.0283799514       -1.2406981689
 C         -3.5133578284        0.1452542999       -1.3880304552
 C         -2.7979540834       -0.6635948132       -0.3058229414
 C         -3.1640502640       -2.1449939160       -0.4525398332
 C         -3.2416116213       -0.1691558118        1.0756096198
 N         -1.3618888382       -0.4808483687       -0.4677667204
 C         -0.4068574395       -1.0443064650        0.3018951981
 O         -0.6167103838       -1.7773510340        1.2532224458
 C          0.9568579034       -0.6786001957       -0.1300245800
 N          1.1883656898        0.0985169376       -1.1728944120
 N          2.5090915514        0.2346328936       -1.3049842988
 C          3.1767861775       -0.4615706387       -0.3434315443
 C          4.5349626847       -0.6196725743       -0.0723284018
 C          4.8701557252       -1.4019637247        1.0077663584
 C          3.8970298571       -2.0187534351        1.8076125957
 C          2.5561038491       -1.8708395458        1.5497648524
 C          2.1888167120       -1.0811462691        0.4597622926
 C          3.0426685089        1.0346192389       -2.3727636310
 C          2.6218604208        2.5047042813       -2.2705687769
 C          3.3845373764        3.3101706876       -1.2181211234
 C          3.0369640992        2.9323765171        0.2202415360
 C          3.6530946386        3.9212055182        1.1997625974
 F          3.3560997282        3.5629852322        2.4914942176
 H         -6.4683222979       -1.6321076034       -1.2997671148
 H         -5.0900444004       -1.8635415518       -2.3788218803
 H         -4.9309389860       -3.3733698510       -0.4140973252
 H         -4.6089496745       -2.4003708093        1.8476020065
 H         -6.1888900229       -1.9556342339        1.1921685821
 H         -5.0639711320        0.0140245811        2.2057300162
 H         -6.5467850908        0.3586369146        0.2401872550
 H         -5.2239593817        1.5280312722        0.2443979571
 H         -5.5321106498        0.5537263686       -2.0192623341
 H         -3.2493148200        1.2016789573       -1.2923784990
 H         -3.1939615974       -0.1981873740       -2.3754771577
 H         -2.6410387423       -2.7157412379        0.3150436329
 H         -2.8338129204       -2.5060237807       -1.4298936889
 H         -2.9672007090        0.8824107701        1.1907686259
 H         -2.7182483491       -0.7422704369        1.8410919807
 H         -1.0344686521        0.0913936309       -1.2313243124
 H          5.2945540485       -0.1493739801       -0.6792981124
 H          5.9125868519       -1.5466479750        1.2509847877
 H          4.2203421026       -2.6205283938        2.6436885073
 H          1.7939077023       -2.3356949851        2.1534270947
 H          2.6716502706        0.6286040464       -3.3206128775
 H          4.1300631650        0.9441394800       -2.3559801455
 H          2.7870988870        2.9665328680       -3.2456791238
 H          1.5522254318        2.5382804664       -2.0577003594
 H          3.1478710212        4.3671507979       -1.3653221635
 H          4.4591028195        3.1913241792       -1.3772731937
 H          1.9533042921        2.9298875067        0.3548078913
 H          3.4077559977        1.9366805910        0.4643232715
 H          4.7457694823        3.9350922582        1.1220762972
 H          3.2588328243        4.9332482409        1.0564779861
  58
        -82.23401902
 C         -5.1071805583       -1.9742482759       -0.5227950904
 C         -4.6544087733       -2.1257182457        0.9284313228
 C         -5.3397962954       -1.0678802240        1.7925559386
 C         -4.9624497058        0.3229276552        1.2846802821
 C         -5.4179607364        0.4777502448       -0.1656066190
 C         -4.7323867205       -0.5818493297       -1.0274153575
 C         -3.2178285810       -0.4029165851       -0.9503784532
 C         -2.7581572616       -0.5547059777        0.5040710248
 C         -3.1395931663       -1.9504861787        1.0102510801
 C         -3.4464054879        0.5033666470        1.3666584080
 N         -1.3176947258       -0.3598220287        0.5982040443
 C         -0.3815825046       -1.1036343225       -0.0282383664
 O         -0.6146336275       -2.0428569677       -0.7697971697
 C          0.9923265247       -0.6570538249        0.2765662831
 N          1.2482723738        0.3415632258        1.1026256618
 N          2.5715049191        0.5002859853        1.1657301522
 C          3.2163369294       -0.4035133443        0.3768408409
 C          4.5674227436       -0.6243065517        0.1146081419
 C          4.8769554860       -1.6380373262       -0.7614557037
 C          3.8854208910       -2.4219381607       -1.3693450159
 C          2.5511839107       -2.2141269180       -1.1182463691
 C          2.2098618290       -1.1906803388       -0.2335613618
 C          3.1310303779        1.5263341731        2.0021466046
 C          2.6511055284        2.9263921908        1.6060908379
 C          3.3220876166        3.4941104144        0.3549809887
 C          2.9275244423        2.7782049246       -0.9352478412
 C          3.4241360764        3.5476435112       -2.1510600486
 F          3.0904907768        2.8844046493       -3.3060193152
 H         -6.1879042333       -2.1181587067       -0.5931961556
 H         -4.6241204490       -2.7329736536       -1.1410864282
 H         -4.9217334765       -3.1237714759        1.2929903912
 H         -5.0313684836       -1.1804522392        2.8346394256
 H         -6.4236336081       -1.1960155922        1.7488536788
 H         -5.4497635824        1.0841870873        1.9051212585
 H         -6.5024999318        0.3635419659       -0.2267771341
 H         -5.1655858425        1.4759744620       -0.5309984832
 H         -5.0555116354       -0.4705558306       -2.0683377230
 H         -2.9324512862        0.5849259506       -1.3206499228
 H         -2.7137724484       -1.1525838639       -1.5605001522
 H         -2.7982919726       -2.0689989923        2.0417932696
 H         -2.6356866032       -2.6982442656        0.3975162211
 H         -3.1711029634        1.5008618211        1.0143181959
 H         -3.1155517395        0.4045004388        2.4038600373
 H         -0.9715022871        0.3750448486        1.1963387038
 H          5.3411405662       -0.0276745379        0.5750169477
 H          5.9132020566       -1.8384315504       -0.9913117504
 H          4.1888742700       -3.2033850748       -2.0497471899
 H          1.7750853418       -2.8051356748       -1.5762872226
 H          4.2185345717        1.4608301510        1.9399246117
 H          2.8268707760        1.3299357184        3.0367262574
 H          1.5707610905        2.8855660707        1.4589798575
 H          2.8538334979        3.5979040997        2.4423426472
 H          4.4075505615        3.4574589491        0.4753885063
 H          3.0385283967        4.5462363044        0.2684602351
 H          3.3523195526        1.7746866302       -0.9716621116
 H          1.8410558122        2.6857387980       -0.9948806466
 H          2.9668646241        4.5410081821       -2.2167308495
 H          4.5156052222        3.6418753923       -2.1481714814
  58
        -82.23400672
 C         -5.6306992919       -1.5259315573        1.7076423475
 C         -5.4097959525       -0.2206033085        0.9447201199
 C         -5.8912442200       -0.3837532158       -0.4962280873
 C         -5.1025116878       -1.5062335319       -1.1695396626
 C         -5.3206291555       -2.8134992899       -0.4096055763
 C         -4.8422046949       -2.6470228969        1.0317092799
 C         -3.3545418365       -2.3022805680        1.0379392664
 C         -3.1301687190       -0.9912994810        0.2757448984
 C         -3.9214556381        0.1294176065        0.9502378136
 C         -3.6154896943       -1.1585699327       -1.1687107696
 N         -1.7182244417       -0.6336609605        0.2940707930
 C         -0.7123943418       -1.3793365942       -0.2089007773
 O         -0.8474606396       -2.4624019298       -0.7529925823
 C          0.6078593667       -0.7421359430       -0.0338722296
 N          0.7602696585        0.4321326542        0.5534519739
 N          2.0611273046        0.7235548104        0.5653398468
 C          2.7941095953       -0.2556206409       -0.0320537672
 C          4.1629295538       -0.3916711361       -0.2542878441
 C          4.5797970374       -1.5371904718       -0.8910377145
 C          3.6755448833       -2.5283941811       -1.3004689972
 C          2.3246331557       -2.4048978860       -1.0833876883
 C          1.8747109882       -1.2514328597       -0.4399877279
 C          2.5332493394        1.9769806687        1.0808977552
 C          2.7738231045        2.9849600231       -0.0489515522
 C          3.3469450947        4.3084936472        0.4562521925
 C          4.8147798651        4.2350079285        0.8865027620
 C          5.7696917818        4.1310124555       -0.2951875090
 F          5.7195160163        5.2797011690       -1.0485101371
 H         -6.6947114247       -1.7725183330        1.7183015108
 H         -5.3033176510       -1.4119824813        2.7437370216
 H         -5.9712866092        0.5865709470        1.4295034530
 H         -5.7511275385        0.5510621089       -1.0440681064
 H         -6.9575626619       -0.6201973824       -0.5054333643
 H         -5.4444605233       -1.6227630640       -2.2039160542
 H         -6.3800572770       -3.0801243265       -0.4224863555
 H         -4.7635485447       -3.6183579480       -0.8925871885
 H         -4.9970657641       -3.5834274537        1.5790856978
 H         -2.7779090107       -3.0932288739        0.5579692968
 H         -2.9939441342       -2.1923818188        2.0637750802
 H         -3.7582113252        1.0683280575        0.4148747476
 H         -3.5732181028        0.2579486251        1.9783882295
 H         -3.0385406334       -1.9510633787       -1.6457728457
 H         -3.4414254036       -0.2312149517       -1.7202485052
 H         -1.4510677928        0.2430400606        0.7157668605
 H          4.8661603623        0.3651797586        0.0605683983
 H          5.6329817808       -1.6817839222       -1.0832437482
 H          4.0613205055       -3.4064901203       -1.7965479622
 H          1.6165335243       -3.1577596593       -1.3890187720
 H          3.4547771918        1.7941971564        1.6404751274
 H          1.7712775889        2.3564450358        1.7653748214
 H          3.4415985907        2.5384136399       -0.7876383769
 H          1.8196701326        3.1749343458       -0.5441226938
 H          2.7469199292        4.6527311873        1.3008767587
 H          3.2636308345        5.0560374486       -0.3345108165
 H          5.0650231251        5.1420785096        1.4399831152
 H          4.9882320044        3.3828157141        1.5439449641
 H          6.8065922371        4.0238319632        0.0399763920
 H          5.5121593534        3.3080465109       -0.9689098481
  58
        -82.23400387
 C         -5.3214093891       -2.8367971799       -0.1899839886
 C         -4.8928650993       -2.4552792826        1.2258529822
 C         -5.6956654581       -1.2427159893        1.6954943707
 C         -5.4377874572       -0.0686003306        0.7523100293
 C         -5.8694774471       -0.4469725365       -0.6637109805
 C         -5.0662713468       -1.6603090097       -1.1305251514
 C         -3.5775494299       -1.3202289737       -1.1286525242
 C         -3.1421587934       -0.9373760914        0.2903454680
 C         -3.4036647134       -2.1173063898        1.2333807768
 C         -3.9478733145        0.2745604381        0.7583858957
 N         -1.7290147187       -0.5845434376        0.3053000100
 C         -0.7121904441       -1.3979425480       -0.0483948760
 O         -0.8370437582       -2.5459741403       -0.4405532899
 C          0.6064491691       -0.7474976799        0.0855710851
 N          0.7487698057        0.4902590250        0.5268525915
 N          2.0505580429        0.7774663041        0.5422102220
 C          2.7947061909       -0.2700522288        0.0928259042
 C          4.1685120218       -0.4357715407       -0.0705107760
 C          4.5968056070       -1.6521784605       -0.5483343560
 C          3.6989116647       -2.6843479397       -0.8584467801
 C          2.3430511076       -2.5318347395       -0.6979922089
 C          1.8815512956       -1.3065771162       -0.2156171343
 C          2.5148298922        2.0838216008        0.9132088944
 C          2.7891229291        2.9459597242       -0.3244682420
 C          3.3564028827        4.3197718522        0.0306201823
 C          4.8143988802        4.2959091230        0.4982998249
 C          5.7934613550        4.0535656580       -0.6426704972
 F          5.7632426234        5.1064931010       -1.5257916487
 H         -6.3818026631       -3.0995469129       -0.2005509284
 H         -4.7541175267       -3.7069056960       -0.5252677066
 H         -5.0744686450       -3.2975106299        1.9026831106
 H         -5.4040531357       -0.9739432647        2.7135103176
 H         -6.7612534711       -1.4823241325        1.7050377029
 H         -6.0096815660        0.8040256006        1.0887960992
 H         -6.9366115691       -0.6795008565       -0.6753745748
 H         -5.7027963625        0.3936901412       -1.3412672490
 H         -5.3723630426       -1.9314291087       -2.1469760990
 H         -3.3769656818       -0.4874216962       -1.8072935388
 H         -2.9903541402       -2.1770375487       -1.4594610795
 H         -3.0785316879       -1.8544731682        2.2431843660
 H         -2.8168117838       -2.9732242078        0.8994270296
 H         -3.7582222720        1.1210249152        0.0933449299
 H         -3.6352427217        0.5566067437        1.7671362653
 H         -1.4688291119        0.3389152885        0.6171716053
 H          4.8668079943        0.3527504492        0.1684470511
 H          5.6542114593       -1.8217723455       -0.6904774660
 H          4.0936134081       -3.6179627678       -1.2306692238
 H          1.6396729276       -3.3151700745       -0.9287511179
 H          3.4206550833        1.9695218411        1.5150300453
 H          1.7371326072        2.5452212807        1.5259212205
 H          3.4729758929        2.4111597812       -0.9857560201
 H          1.8486713040        3.0760281332       -0.8632511766
 H          2.7397228006        4.7636847459        0.8145892975
 H          3.2932252303        4.9673632073       -0.8455672592
 H          5.0561160425        5.2611951586        0.9472258526
 H          4.9708504724        3.5261482890        1.2542994003
 H          6.8227776439        3.9849429632       -0.2755558253
 H          5.5469698882        3.1579361034       -1.2211116677
  58
        -82.23383153
 C         -5.7334170310       -1.2578390606       -1.1175803440
 C         -4.9072008002       -2.3799296671       -0.4901040983
 C         -5.2387528251       -2.4905644756        0.9970825751
 C         -4.9116079036       -1.1681270184        1.6884458228
 C         -5.7379026052       -0.0446749595        1.0635093562
 C         -5.4033383109        0.0627737234       -0.4235236357
 C         -3.9154054000        0.3712941142       -0.5921066924
 C         -3.0861951808       -0.7504424486        0.0335278442
 C         -3.4201672170       -2.0766265108       -0.6591849449
 C         -3.4245948401       -0.8618832588        1.5245450053
 N         -1.6757443622       -0.4326975448       -0.1399327136
 C         -0.6408241045       -1.1902355222        0.2823492247
 O         -0.7474080901       -2.2489050147        0.8785403344
 C          0.6673206310       -0.5965634576       -0.0544789883
 N          0.7797166601        0.5573918207       -0.6891806490
 N          2.0780365250        0.8174630796       -0.8517818802
 C          2.8517967018       -0.1668357705       -0.3152741301
 C          4.2335036409       -0.3400225148       -0.2439613765
 C          4.6864914293       -1.4811712956        0.3752750007
 C          3.8092541808       -2.4355681999        0.9118179628
 C          2.4469356802       -2.2768741021        0.8434562566
 C          1.9593344700       -1.1267712442        0.2213164517
 C          2.4828615731        2.0484677112       -1.4729744530
 C          2.2972629086        3.2331375819       -0.5143336766
 C          3.3416332390        3.2658560477        0.6086391841
 C          4.4831029777        4.2575358117        0.3658078908
 C          5.2798201582        3.9913587211       -0.9034020340
 F          5.8170955358        2.7247891562       -0.8907050973
 H         -6.7986309470       -1.4752150406       -1.0117231014
 H         -5.5115958412       -1.1834682698       -2.1847808413
 H         -5.1406110825       -3.3273335843       -0.9885284470
 H         -4.6547748102       -3.2958810466        1.4462149060
 H         -6.2974708121       -2.7273186561        1.1266451505
 H         -5.1481660954       -1.2447811796        2.7555391254
 H         -6.8031308349       -0.2512045822        1.1890016037
 H         -5.5194085685        0.9016628018        1.5639373016
 H         -5.9920175881        0.8705234414       -0.8740401554
 H         -3.6748682991        1.3207443433       -0.1066842975
 H         -3.6717724828        0.4599601414       -1.6540149739
 H         -2.8164534090       -2.8684593256       -0.2153253316
 H         -3.1643495829       -2.0071724429       -1.7194844259
 H         -3.1720970164        0.0761381840        2.0254677214
 H         -2.8208024033       -1.6554445398        1.9651082293
 H         -1.4309823601        0.4171033788       -0.6254895719
 H          4.9226606904        0.3835550211       -0.6502154807
 H          5.7505330668       -1.6502447987        0.4521619481
 H          4.2247860964       -3.3123298876        1.3861527993
 H          1.7567091202       -2.9997422533        1.2470874231
 H          1.8574806432        2.1968026675       -2.3588455868
 H          3.5228895135        1.9428161068       -1.7816375359
 H          2.3285029930        4.1644297019       -1.0824557565
 H          1.2971588170        3.1440386979       -0.0867018366
 H          3.7593995934        2.2677369761        0.7487187680
 H          2.8598021338        3.5470843717        1.5464308699
 H          4.0860858501        5.2720541167        0.2950314422
 H          5.1640712129        4.2181485455        1.2182606670
 H          4.6576625405        4.0557899190       -1.8013210454
 H          6.1228143691        4.6844177589       -0.9905128629
  58
        -82.23376717
 C         -4.9059947656       -2.1664807211        0.2766735503
 C         -4.4079896371       -1.2061450524        1.3554063544
 C         -5.0557385091        0.1642160178        1.1605582989
 C         -4.6823586785        0.7097107697       -0.2170926200
 C         -5.1832259052       -0.2478230005       -1.2974279428
 C         -4.5352785903       -1.6177304955       -1.1000815214
 C         -3.0174751429       -1.4857803530       -1.2038407655
 C         -2.5125453230       -0.5229346229       -0.1230075437
 C         -2.8899103166       -1.0730355140        1.2572965830
 C         -3.1630934382        0.8464107238       -0.3190881595
 N         -1.0686236357       -0.3641760795       -0.2237338729
 C         -0.1592747464       -1.3539001370       -0.1098658551
 O         -0.4197229891       -2.5263961579        0.1045284630
 C          1.2252427320       -0.8662571376       -0.2694987165
 N          1.5003377721        0.4050962346       -0.4977290399
 N          2.8229358262        0.5353168583       -0.5989412901
 C          3.4515678343       -0.6587249720       -0.4214604143
 C          4.7982289020       -1.0153845669       -0.4335648013
 C          5.0935887456       -2.3427464792       -0.2277564308
 C          4.0912477344       -3.3007865344       -0.0153634607
 C          2.7604783514       -2.9598138070       -0.0032893475
 C          2.4329223796       -1.6191883596       -0.2081583589
 C          3.4076253742        1.8354493845       -0.7629107476
 C          3.8302790570        2.4259043754        0.5898772527
 C          2.6293814022        2.7102041416        1.5023482445
 C          2.2334432196        4.1868407906        1.5713772701
 C          1.7369289311        4.7510633607        0.2477261526
 F          0.6318157576        4.0618349368       -0.1925377741
 H         -5.9897561819       -2.2829750618        0.3524192156
 H         -4.4498904282       -3.1481219366        0.4175770198
 H         -4.6723973676       -1.5977435836        2.3441346257
 H         -4.7145174326        0.8516762012        1.9380731019
 H         -6.1416265097        0.0781611066        1.2429387823
 H         -5.1428991806        1.6943960488       -0.3582922796
 H         -6.2702898073       -0.3376972054       -1.2376868295
 H         -4.9336245419        0.1434725125       -2.2864159343
 H         -4.8911663632       -2.3050385085       -1.8757734469
 H         -2.7354201848       -1.1057260993       -2.1889026118
 H         -2.5400495937       -2.4559735298       -1.0643247611
 H         -2.5169389116       -0.3976833434        2.0313773316
 H         -2.4123674733       -2.0435844334        1.3938004559
 H         -2.8898117974        1.2461316199       -1.2987097305
 H         -2.7983699880        1.5394900496        0.4429657186
 H         -0.7021239368        0.5583712607       -0.4071488989
 H          5.5755954763       -0.2842038487       -0.5980944358
 H          6.1260014268       -2.6609083069       -0.2292307967
 H          4.3834028903       -4.3287078253        0.1403068360
 H          1.9776377701       -3.6833193137        0.1564036612
 H          2.6493485037        2.4606335465       -1.2371408297
 H          4.2738312875        1.7511675937       -1.4257939094
 H          4.4973587508        1.7097934781        1.0737561462
 H          4.4004058921        3.3402862284        0.4159452109
 H          2.8577893550        2.3815858487        2.5174137443
 H          1.7703701580        2.1314095494        1.1568613404
 H          1.4388593746        4.2988272338        2.3117567537
 H          3.0844108400        4.7905024077        1.8930652684
 H          1.4279266405        5.7961307784        0.3576365004
 H          2.4907062984        4.6739618741       -0.5417573948
  58
        -82.23372137
 C         -5.0429317280       -2.6130484724        0.0976177368
 C         -4.5901151573       -1.7744933443        1.2916506781
 C         -5.2542023220       -0.3993085425        1.2338929499
 C         -4.8522104068        0.3029813423       -0.0622086635
 C         -5.3074584781       -0.5324246151       -1.2578579504
 C         -4.6433275276       -1.9074743722       -1.1971341682
 C         -3.1255122267       -1.7452088196       -1.2412288582
 C         -2.6657901530       -0.9047570530       -0.0444784799
 C         -3.0721753923       -1.6118286776        1.2535089508
 C         -3.3329289168        0.4695709032       -0.1036271862
 N         -1.2221277921       -0.7175800392       -0.0852955912
 C         -0.2991698086       -1.7023563343       -0.0524648148
 O         -0.5491937229       -2.8938220490        0.0178789836
 C          1.0811420350       -1.1835261787       -0.1107204278
 N          1.3480124320        0.1081770634       -0.2047162590
 N          2.6718561843        0.2576081255       -0.2285557944
 C          3.3064737023       -0.9450767979       -0.1583712258
 C          4.6573509232       -1.2863547847       -0.1572012075
 C          4.9611172444       -2.6246983071       -0.0689586767
 C          3.9634640360       -3.6076155471        0.0148581252
 C          2.6291750429       -3.2813693285        0.0127087844
 C          2.2930389807       -1.9298983566       -0.0759152246
 C          3.2876006966        1.5541622922       -0.3503209230
 C          2.2885679494        2.6670057129       -0.0527747705
 C          2.9415491897        4.0416553746       -0.1535685832
 C          1.9445881922        5.1605120449        0.1435156979
 C          2.6004541785        6.5319223508        0.0790734338
 F          3.5489234320        6.6566651566        1.0667330826
 H         -6.1263058506       -2.7510864499        0.1281372560
 H         -4.5752932371       -3.5983273423        0.1402457853
 H         -4.8751252126       -2.2784373842        2.2218048621
 H         -4.9458192193        0.2001678949        2.0936522089
 H         -6.3403133704       -0.5078981886        1.2741360532
 H         -5.3243300952        1.2915216184       -0.1049229112
 H         -6.3940372907       -0.6421963617       -1.2400040447
 H         -5.0373897164       -0.0286230944       -2.1889899840
 H         -4.9666065948       -2.5069556143       -2.0553600978
 H         -2.8224511772       -1.2529704774       -2.1688021547
 H         -2.6364264114       -2.7185148828       -1.1977314543
 H         -2.7310268615       -1.0241697029        2.1095161987
 H         -2.5831203337       -2.5853014839        1.2932237670
 H         -3.0397016044        0.9810513948       -1.0241691131
 H         -3.0017671459        1.0755602582        0.7437451347
 H         -0.8614462762        0.2226459447       -0.1445982514
 H          5.4296542987       -0.5351656913       -0.2243927496
 H          5.9965324337       -2.9324942836       -0.0648128090
 H          4.2624700344       -4.6431033970        0.0815705377
 H          1.8500858383       -4.0235302892        0.0755569859
 H          3.6867037969        1.6722755195       -1.3665140083
 H          4.1270270167        1.6032936344        0.3516232935
 H          1.4599237253        2.5949590585       -0.7583759743
 H          1.8834227539        2.5194174927        0.9495786142
 H          3.3500529698        4.1791699765       -1.1577626330
 H          3.7687383726        4.1087595005        0.5558760664
 H          1.1272135855        5.1388569068       -0.5788769083
 H          1.5244289528        5.0194465881        1.1410319500
 H          3.1204468704        6.6865704626       -0.8721248307
 H          1.8737814291        7.3340995649        0.2431019188
  58
        -82.23372031
 C         -5.0287028394       -2.6023699801        0.0806134409
 C         -4.5677497047       -1.8525452147        1.3292816752
 C         -5.2257905451       -0.4738944031        1.3717093320
 C         -4.8252815309        0.3167746572        0.1270614006
 C         -5.2887682675       -0.4297780539       -1.1229602323
 C         -4.6307111028       -1.8084888213       -1.1624780519
 C         -3.1123789655       -1.6499259181       -1.2010077099
 C         -2.6443418349       -0.8984911697        0.0504870653
 C         -3.0492360556       -1.6941261341        1.2966636626
 C         -3.3054001762        0.4794067759        0.0915572615
 N         -1.1998834194       -0.7153707761        0.0172826367
 C         -0.2821365734       -1.7045904491       -0.0252592458
 O         -0.5383788403       -2.8968062638       -0.0377278188
 C          1.1008732394       -1.1907917565       -0.0557553269
 N          1.3765784604        0.1024838207       -0.0361264792
 N          2.7007500904        0.2445641078       -0.0694553637
 C          3.3267470805       -0.9635868160       -0.1173283318
 C          4.6750365096       -1.3111069787       -0.1678595196
 C          4.9702553406       -2.6537623785       -0.2061911612
 C          3.9665841632       -3.6340807934       -0.1960176224
 C          2.6347576305       -3.3011382622       -0.1475282677
 C          2.3072000525       -1.9452714109       -0.1078856605
 C          3.3299484973        1.5405746850       -0.0713054685
 C          2.3133913703        2.6465352225        0.1877678333
 C          2.9806577534        4.0177727899        0.2159616717
 C          1.9649228500        5.1328980465        0.4581184815
 C          2.6220252995        6.5052266040        0.4494940739
 F          3.1354016867        6.7831752858       -0.7954352790
 H         -6.1125598487       -2.7376313175        0.1056684908
 H         -4.5653552862       -3.5901765447        0.0514400552
 H         -4.8516464493       -2.4199566644        2.2225343762
 H         -4.9116711800        0.0617865306        2.2706704101
 H         -6.3122191497       -0.5804377714        1.4083515137
 H         -5.2930218749        1.3078825760        0.1564140670
 H         -6.3757687177       -0.5358689474       -1.1085934594
 H         -5.0197724646        0.1375632592       -2.0170394539
 H         -4.9598280331       -2.3442287553       -2.0597326487
 H         -2.8105238744       -1.0943816571       -2.0924744480
 H         -2.6276176475       -2.6259677275       -1.2286671484
 H         -2.7023251890       -1.1701591682        2.1908902550
 H         -2.5644791205       -2.6700702625        1.2652948507
 H         -3.0132844766        1.0535799449       -0.7915216627
 H         -2.9683693465        1.0224159723        0.9784260685
 H         -0.8348695803        0.2250708228        0.0216423816
 H          5.4510559846       -0.5608244490       -0.1785029200
 H          6.0032390545       -2.9670423901       -0.2464775858
 H          4.2588885487       -4.6731215561       -0.2282329354
 H          1.8513680077       -4.0413889602       -0.1398427049
 H          3.8185762977        1.7019156717       -1.0407579699
 H          4.1048851060        1.5507672714        0.7041810162
 H          1.5540638415        2.6171818473       -0.5944303153
 H          1.8150872066        2.4542757355        1.1394880052
 H          3.4841792089        4.2001072387       -0.7354672771
 H          3.7369713122        4.0409234355        1.0044623884
 H          1.2003327441        5.1055382249       -0.3203872056
 H          1.4760592292        4.9947558800        1.4236872641
 H          1.9012214583        7.2984260277        0.6724781455
 H          3.4622287527        6.5552974182        1.1500340662
  58
        -82.23368248
 C         -5.2851433538        0.6150407861       -0.4521838223
 C         -4.6012227983       -0.5854955012       -1.1053090088
 C         -5.0205884683       -1.8672051222       -0.3875305867
 C         -4.6097898343       -1.7824978455        1.0814965245
 C         -5.2933422506       -0.5831328563        1.7370704955
 C         -4.8711603510        0.6963400334        1.0164275839
 C         -3.3540401858        0.8605684420        1.1120528974
 C         -2.6675405659       -0.3388190241        0.4580884969
 C         -3.0855352030       -0.4233226489       -1.0142536239
 C         -3.0941413930       -1.6233612020        1.1779165893
 N         -1.2259705684       -0.1568504924        0.5593086155
 C         -0.2914918808       -1.0188608854        0.1012602403
 O         -0.5313041209       -2.0608728222       -0.4838552975
 C          1.0834989719       -0.5606872776        0.3788187118
 N          1.3372397008        0.5626251809        1.0284475789
 N          2.6623202415        0.6973665896        1.1223730701
 C          3.3082888677       -0.3371193898        0.5171431807
 C          4.6610496358       -0.6272875361        0.3500909453
 C          4.9728469904       -1.7826625830       -0.3264914538
 C          3.9821834762       -2.6392930158       -0.8286146504
 C          2.6464474314       -2.3652361246       -0.6673019908
 C          2.3028022055       -1.1984017710        0.0156845556
 C          3.2149973410        1.8822580380        1.7183526582
 C          2.9521475806        3.1035939442        0.8304524001
 C          3.6872722552        3.0182634242       -0.5142889109
 C          2.8152644458        3.4571199917       -1.6931117769
 C          1.8019174313        2.3841263183       -2.0716480392
 F          2.4553699852        1.2849896919       -2.5770852311
 H         -6.3700270117        0.5113813056       -0.5252609908
 H         -5.0012970423        1.5338532926       -0.9708716528
 H         -4.8945100471       -0.6436274124       -2.1593505635
 H         -4.5385590996       -2.7269392145       -0.8563255418
 H         -6.1020683368       -2.0015059538       -0.4652481202
 H         -4.9092175546       -2.7007413103        1.5987971594
 H         -6.3783318321       -0.6969730705        1.6832283461
 H         -5.0149576176       -0.5258023531        2.7920310144
 H         -5.3570766915        1.5591789309        1.4869338997
 H         -3.0530121889        0.9301269049        2.1606725733
 H         -3.0470692762        1.7804832761        0.6073782426
 H         -2.5822346916       -1.2728127934       -1.4761159690
 H         -2.7685149269        0.4840412565       -1.5347005187
 H         -2.7827404068       -1.5742083870        2.2244722188
 H         -2.5914747848       -2.4718550575        0.7132925269
 H         -0.8787947230        0.6497779388        1.0558574097
 H          5.4336870424        0.0252666534        0.7294124194
 H          6.0107130067       -2.0401396550       -0.4798786585
 H          4.2880828084       -3.5314427890       -1.3543995537
 H          1.8710999390       -3.0102031555       -1.0471937606
 H          4.2857552035        1.7291509118        1.8618320951
 H          2.7420870292        2.0313744422        2.6942925317
 H          1.8748056335        3.1592984676        0.6661475183
 H          3.2508863308        4.0028957167        1.3701852375
 H          4.0036179938        1.9908001751       -0.7038977313
 H          4.5866248482        3.6348761618       -0.4821345849
 H          2.2822509673        4.3783513308       -1.4537900414
 H          3.4482903429        3.6436224632       -2.5626157874
 H          1.2246385886        2.0322123000       -1.2106716556
 H          1.1228252477        2.7313709418       -2.8569586553
  58
        -82.23362101
 C         -5.0996570426        0.7343793189        0.5763713531
 C         -4.7287585207        0.6624554824       -0.9041755347
 C         -5.2152797662       -0.6629565411       -1.4883521471
 C         -4.5525165409       -1.8195883184       -0.7410013009
 C         -4.9202342703       -1.7508600595        0.7402251878
 C         -4.4361634171       -0.4234218261        1.3211910507
 C         -2.9194912682       -0.3256358072        1.1733517968
 C         -2.5449553687       -0.3951372671       -0.3112869046
 C         -3.2106468545        0.7620418091       -1.0565420800
 C         -3.0360779852       -1.7253069425       -0.8940061193
 N         -1.1020140232       -0.2749241782       -0.4685376623
 C         -0.1817524624       -1.1135293976        0.0566108500
 O         -0.4360621704       -2.0815013640        0.7518787357
 C          1.1987755370       -0.7264141426       -0.2931843673
 N          1.4684530255        0.2926520575       -1.0902099817
 N          2.7952803725        0.3948157151       -1.1997324558
 C          3.4266314279       -0.5592102756       -0.4619871146
 C          4.7749863629       -0.8441228631       -0.2552139041
 C          5.0702679998       -1.9033605696        0.5701650762
 C          4.0674337665       -2.6708409273        1.1809729466
 C          2.7356619114       -2.3996670288        0.9843536344
 C          2.4088075406       -1.3292437904        0.1514123638
 C          3.3683995011        1.4635115739       -1.9727095960
 C          2.8747100099        2.8147617155       -1.4494232107
 C          3.3535888108        3.0880370678       -0.0194379500
 C          2.3293596499        3.8833381052        0.7933734267
 C          1.1929066691        2.9934081505        1.2815835320
 F          1.6577379700        2.1338773307        2.2488169930
 H         -6.1846135220        0.6772638157        0.6887980505
 H         -4.7694547429        1.6868787772        0.9976456389
 H         -5.1998535454        1.4942889731       -1.4409715662
 H         -4.9677057498       -0.7150226206       -2.5512420657
 H         -6.3012797562       -0.7319299989       -1.3942019626
 H         -4.8985541683       -2.7707936308       -1.1604082545
 H         -6.0026966003       -1.8380490154        0.8600789100
 H         -4.4530254304       -2.5796060116        1.2751016261
 H         -4.6983034973       -0.3717078875        2.3836431836
 H         -2.4311202112       -1.1455997321        1.6998343434
 H         -2.5553054595        0.6138129622        1.5966580172
 H         -2.9400371559        0.7227028136       -2.1150807942
 H         -2.8577625955        1.7132979278       -0.6491898418
 H         -2.5477620453       -2.5438552166       -0.3647617784
 H         -2.7558558169       -1.7861971070       -1.9487664294
 H         -0.7455467473        0.4545490352       -1.0670801666
 H          5.5569584810       -0.2608926642       -0.7184151263
 H          6.1043182255       -2.1541121154        0.7568524943
 H          4.3603852985       -3.4904702027        1.8200067078
 H          1.9509492054       -2.9763739612        1.4460667943
 H          3.0736684620        1.3455200005       -3.0215420073
 H          4.4547039993        1.3918889616       -1.9007172725
 H          3.2141279187        3.6048795582       -2.1202329267
 H          1.7845482895        2.7949011863       -1.4804889365
 H          4.3003927436        3.6295871868       -0.0464651764
 H          3.5317594856        2.1447931306        0.5011937054
 H          2.8143164328        4.3188701899        1.6688430302
 H          1.9134166315        4.6941531371        0.1937244351
 H          0.3924940394        3.5791741707        1.7452353010
 H          0.7847887325        2.3645613396        0.4836530813
  58
        -82.23361997
 C         -5.0899613077        0.6755603823       -0.6172339132
 C         -4.4475584631       -0.6065065751       -1.1456483819
 C         -4.9353122456       -1.7997011413       -0.3256835898
 C         -4.5474441598       -1.6005595918        1.1385331135
 C         -5.1893386853       -0.3193249429        1.6695729980
 C         -4.6991372826        0.8713207360        0.8469171939
 C         -3.1782166533        0.9797576465        0.9600699701
 C         -2.5334788853       -0.3016876379        0.4310770860
 C         -2.9281453148       -0.5007385100       -1.0365721057
 C         -3.0282176768       -1.4971433201        1.2533054853
 N         -1.0875142859       -0.1709214410        0.5456710789
 C         -0.1816976284       -1.1017796868        0.1727015732
 O         -0.4542046530       -2.1824486186       -0.3201008921
 C          1.2071110128       -0.6654299160        0.4151306351
 N          1.4962053948        0.4899966618        0.9878597753
 N          2.8252326463        0.6027669506        1.0488280124
 C          3.4383666251       -0.4833811571        0.5035074254
 C          4.7813592005       -0.8130626599        0.3311491476
 C          5.0565193417       -2.0171675214       -0.2728912637
 C          4.0391315239       -2.8836338069       -0.6993103050
 C          2.7124547174       -2.5696249800       -0.5343985114
 C          2.4058888325       -1.3529282249        0.0755871101
 C          3.4172991442        1.8012993728        1.5789759589
 C          2.9082677997        3.0237658319        0.8107981625
 C          3.3441926004        3.0033100017       -0.6585881806
 C          2.2887047607        3.6099448594       -1.5860588235
 C          1.1480964769        2.6337692135       -1.8468579893
 F          1.5947777166        1.5944995753       -2.6284446758
 H         -6.1768497756        0.6113220044       -0.7042659266
 H         -4.7570710160        1.5311782092       -1.2095973954
 H         -4.7241464590       -0.7469443003       -2.1963606684
 H         -4.4831541610       -2.7175697650       -0.7055194259
 H         -6.0200734155       -1.8949531963       -0.4144513740
 H         -4.8960594746       -2.4550826798        1.7290448493
 H         -6.2771293461       -0.3920026553        1.6027834635
 H         -4.9274245195       -0.1789561620        2.7209778464
 H         -5.1551820805        1.7926144833        1.2281042372
 H         -2.8930120236        1.1314569478        2.0045184953
 H         -2.8225724094        1.8364659203        0.3812944124
 H         -2.4546018958       -1.4088021183       -1.4098019982
 H         -2.5613708708        0.3411187268       -1.6292199609
 H         -2.7338203952       -1.3671930708        2.2978948533
 H         -2.5547015239       -2.4041754697        0.8770105999
 H         -0.7157104101        0.6581240203        0.9837213171
 H          5.5743883996       -0.1548532449        0.6537857096
 H          6.0857697581       -2.3072278585       -0.4262057710
 H          4.3165626171       -3.8158311332       -1.1683765477
 H          1.9167644081       -3.2210385383       -0.8569486584
 H          4.5013506021        1.7122240211        1.4940063097
 H          3.1509143064        1.8953013746        2.6378330565
 H          1.8195367859        3.0171149729        0.8769651832
 H          3.2675253518        3.9296390306        1.3004265616
 H          3.5193617300        1.9749730670       -0.9816953293
 H          4.2846848826        3.5449456131       -0.7704422730
 H          1.8815020609        4.5248682285       -1.1534327148
 H          2.7440552215        3.8583280041       -2.5464140488
 H          0.7681128904        2.1820309170       -0.9247692160
 H          0.3297292253        3.1079199640       -2.3984985435
  58
        -82.23351875
 C         -4.9203456223       -2.1264617563        0.2783650879
 C         -4.4278925665       -1.1519662989        1.3468738016
 C         -5.0696537491        0.2174145645        1.1267677367
 C         -4.6833120636        0.7413752057       -0.2556735743
 C         -5.1781734368       -0.2301148925       -1.3261965425
 C         -4.5367915289       -1.5991865097       -1.1032754126
 C         -3.0177508068       -1.4737469721       -1.1968535063
 C         -2.5185791762       -0.4972051569       -0.1258987727
 C         -2.9085122352       -1.0255399686        1.2591893996
 C         -3.1626692939        0.8715555388       -0.3465764175
 N         -1.0728688263       -0.3437848221       -0.2161553102
 C         -0.1656505511       -1.3332224958       -0.0742852008
 O         -0.4321358197       -2.4997787091        0.1601593824
 C          1.2222246887       -0.8533578253       -0.2269764554
 N          1.5133894031        0.4256524787       -0.3900263318
 N          2.8375015446        0.5427381706       -0.5026603075
 C          3.4489325603       -0.6679980578       -0.3975701475
 C          4.7905317605       -1.0409314769       -0.4416752356
 C          5.0689885879       -2.3808923644       -0.3097873038
 C          4.0553362948       -3.3356832547       -0.1373788622
 C          2.7299331708       -2.9784789250       -0.0911801491
 C          2.4192843745       -1.6241398131       -0.2212971789
 C          3.4383164386        1.8428782292       -0.6053568361
 C          3.8550958398        2.3924938012        0.7750566699
 C          3.4444810538        3.8514749955        0.9978648214
 C          2.0533200660        4.0179750957        1.6162723749
 C          0.9154537657        3.4870777432        0.7548362844
 F          0.8986608201        4.1246959024       -0.4686084525
 H         -6.0049586706       -2.2381544319        0.3470603732
 H         -4.4688361314       -3.1074014941        0.4374534283
 H         -4.7012556645       -1.5279628572        2.3390747844
 H         -4.7333398545        0.9151762289        1.8973698413
 H         -6.1563024939        0.1357846381        1.2010182481
 H         -5.1390626353        1.7254485844       -0.4152191122
 H         -6.2658629992       -0.3152551876       -1.2740504417
 H         -4.9191458919        0.1458080612       -2.3186874036
 H         -4.8885631329       -2.2965063761       -1.8716209333
 H         -2.7266264452       -1.1091266381       -2.1851148694
 H         -2.5446629771       -2.4432906544       -1.0392405703
 H         -2.5392842358       -0.3404645211        2.0267222711
 H         -2.4357369230       -1.9956227160        1.4137828346
 H         -2.8800417213        1.2574393397       -1.3292609276
 H         -2.8034273013        1.5732627529        0.4107807176
 H         -0.7055831821        0.5704960524       -0.4324705331
 H          5.5750717690       -0.3111286442       -0.5720904660
 H          6.0966247541       -2.7126060769       -0.3380517631
 H          4.3348016700       -4.3740966198       -0.0392035440
 H          1.9389642376       -3.6985234536        0.0417608638
 H          2.7024545705        2.4985711044       -1.0727527838
 H          4.3028905275        1.7725220800       -1.2696123519
 H          3.4037781674        1.7724163205        1.5530703005
 H          4.9368684468        2.3035050438        0.8825190542
 H          3.4853720767        4.3933437475        0.0516154186
 H          4.1605339196        4.3213962774        1.6748012009
 H          2.0101791559        3.4977951008        2.5749643097
 H          1.8832477986        5.0813105824        1.7994917973
 H          1.0083173914        2.4162400854        0.5484492463
 H         -0.0529835788        3.6938822266        1.2224293057
  58
        -82.23351068
 C         -5.0312908347       -0.5692736722        1.4373887523
 C         -4.5506017285        0.5500984519        0.5150686940
 C         -4.9889825264        0.2541275780       -0.9184183454
 C         -4.3811345245       -1.0733321916       -1.3698281529
 C         -4.8596884864       -2.1954673042       -0.4501887377
 C         -4.4238338291       -1.8959853354        0.9830859147
 C         -2.9004233449       -1.8089165608        1.0442641811
 C         -2.4152584517       -0.6843406546        0.1225020004
 C         -3.0256081438        0.6423944345        0.5746562408
 C         -2.8576481745       -0.9839060097       -1.3141755589
 N         -0.9647400599       -0.5686992367        0.1879644662
 C         -0.0811753518       -1.5355263945       -0.1384340572
 O         -0.3756505577       -2.6454152272       -0.5482590448
 C          1.3187156950       -1.1032002395        0.0438638901
 N          1.6323158366        0.0885573510        0.5211791592
 N          2.9613021332        0.1909658735        0.5454802379
 C          3.5520707849       -0.9484030556        0.0906978628
 C          4.8894052572       -1.3097588108       -0.0588280193
 C          5.1434127440       -2.5642130037       -0.5619065244
 C          4.1102480857       -3.4472100449       -0.9098150305
 C          2.7888570568       -3.1015403274       -0.7645865216
 C          2.5032090883       -1.8339231254       -0.2558964240
 C          3.6216523126        1.3705420290        1.0444448953
 C          2.6973682816        2.5856020631        1.0180144614
 C          2.3280543361        2.9930462432       -0.4079620769
 C          1.2813268424        4.1035002878       -0.4582484191
 C          1.8061621769        5.4319525890        0.0689133453
 F          0.8676465747        6.4175931915       -0.1270722653
 H         -6.1214549056       -0.6294085993        1.4086146692
 H         -4.7351439571       -0.3567113486        2.4673422623
 H         -4.9818852172        1.5038282527        0.8405731924
 H         -4.6624949442        1.0586269303       -1.5815500642
 H         -6.0787657138        0.2011365014       -0.9683492713
 H         -4.6918537102       -1.2858722487       -2.3987151041
 H         -5.9478554117       -2.2792382182       -0.4991704240
 H         -4.4325807082       -3.1460494870       -0.7747798154
 H         -4.7654580137       -2.6994468333        1.6449969766
 H         -2.4514106773       -2.7486124877        0.7217634605
 H         -2.5720202403       -1.6078872851        2.0671492235
 H         -2.6763335273        1.4485327887       -0.0758130268
 H         -2.7064612070        0.8649562433        1.5962565482
 H         -2.4085547146       -1.9245123730       -1.6335498010
 H         -2.4989741898       -0.1926258520       -1.9772799169
 H         -0.5686480538        0.2951863922        0.5263044807
 H          5.6902273279       -0.6379279470        0.2107892546
 H          6.1669720041       -2.8835789824       -0.6927846376
 H          4.3708765664       -4.4201675255       -1.2989110895
 H          1.9824498083       -3.7676328896       -1.0248361747
 H          4.5042719680        1.5524016534        0.4229297691
 H          3.9580262649        1.1873414218        2.0733966913
 H          1.7898233264        2.3411880542        1.5704849764
 H          3.2048498166        3.4056553230        1.5268725400
 H          1.9219900855        2.1217998456       -0.9238581370
 H          3.2257745285        3.3133042052       -0.9422223526
 H          0.9642345042        4.2546297788       -1.4922093141
 H          0.4029027281        3.8127337809        0.1208712981
 H          2.0011478792        5.4041680196        1.1451043762
 H          2.7074018811        5.7480262620       -0.4674226615
  58
        -82.23350366
 C         -5.0605539564        0.1689651972        1.2287982040
 C         -4.6730761982        0.7369339136       -0.1358267017
 C         -5.1698704835       -0.1979694189       -1.2375843531
 C         -4.5318273628       -1.5751672228       -1.0594027548
 C         -4.9161357391       -2.1462020103        0.3045254923
 C         -4.4212634185       -1.2079857866        1.4039574608
 C         -2.9016298067       -1.0817228943        1.3201575651
 C         -2.5109594772       -0.5099216862       -0.0471335522
 C         -3.1521662480        0.8668105689       -0.2224986625
 C         -3.0125233272       -1.4502656685       -1.1490721393
 N         -1.0650732478       -0.3562222947       -0.1335162285
 C         -0.1583558659       -1.3487524417       -0.0093643075
 O         -0.4243444162       -2.5152535405        0.2257851742
 C          1.2283519015       -0.8716194542       -0.1798751882
 N          1.5177603495        0.4011109199       -0.3892551924
 N          2.8414724349        0.5148256312       -0.5112353059
 C          3.4544018499       -0.6906864163       -0.3644853109
 C          4.7961305191       -1.0642893561       -0.3985459109
 C          5.0759444088       -2.3984747896       -0.2196180294
 C          4.0635165319       -3.3473049871       -0.0108609043
 C          2.7380106426       -2.9894793887        0.0260048052
 C          2.4260715566       -1.6408227558       -0.1515086172
 C          3.4376292423        1.8115135933       -0.6699251844
 C          3.7929251851        2.4480345171        0.6897951846
 C          3.4096133285        3.9283549347        0.7829684958
 C          1.9965352389        4.1679101542        1.3229135298
 C          0.8877697182        3.5765583687        0.4628491144
 F          0.9287229459        4.1078764025       -0.8096950584
 H         -6.1473593184        0.0870271077        1.3002971357
 H         -4.7229127176        0.8404754332        2.0218157542
 H         -5.1268261784        1.7266239561       -0.2632506608
 H         -4.9098183452        0.2096310659       -2.2172644577
 H         -6.2577296919       -0.2823027061       -1.1883322649
 H         -4.8854941670       -2.2461236809       -1.8500421878
 H         -6.0009642132       -2.2576973442        0.3699433590
 H         -4.4667259398       -3.1327666192        0.4315920258
 H         -4.6950362423       -1.6156524695        2.3834345530
 H         -2.4307250501       -2.0569987169        1.4438526813
 H         -2.5310368675       -0.4222692813        2.1090524569
 H         -2.8689673838        1.2845640314       -1.1919938889
 H         -2.7911606241        1.5418262419        0.5579494735
 H         -2.5416496018       -2.4255163371       -1.0224436419
 H         -2.7205424450       -1.0549115601       -2.1252612805
 H         -0.6991248339        0.5532235747       -0.3713602341
 H          5.5802331738       -0.3394192518       -0.5565758600
 H          6.1037892373       -2.7301882992       -0.2386071528
 H          4.3440166293       -4.3814312944        0.1231370783
 H          1.9477831234       -3.7048699043        0.1856294955
 H          2.7181034488        2.4320079865       -1.2059656123
 H          4.3289375043        1.7080005967       -1.2928335520
 H          3.2807804087        1.8967902280        1.4817917228
 H          4.8639699982        2.3400902977        0.8655214450
 H          3.5042386698        4.3947202320       -0.1989928858
 H          4.1059623833        4.4348239896        1.4540274267
 H          1.9042051017        3.7349818435        2.3207050118
 H          1.8365847902        5.2453245341        1.4044501756
 H          0.9764979211        2.4912317579        0.3522987170
 H         -0.0963384060        3.8311155054        0.8703421744
  58
        -82.23349670
 C         -4.8541394169       -2.2014622372       -0.2813633721
 C         -4.4229860581       -1.7497290011        1.1128906503
 C         -5.0219649451       -0.3765876950        1.4152173793
 C         -4.5276881863        0.6311659253        0.3784053830
 C         -4.9615384278        0.1828415092       -1.0163700851
 C         -4.3621369286       -1.1906495202       -1.3158569892
 C         -2.8383051724       -1.1069911537       -1.2615698853
 C         -2.4004986814       -0.6548866156        0.1360715918
 C         -2.8992276223       -1.6678292936        1.1728983071
 C         -3.0022923284        0.7180595200        0.4363375125
 N         -0.9494005573       -0.5436571328        0.1965681644
 C         -0.0719767487       -1.5461658233       -0.0208785636
 O         -0.3732073904       -2.6906440637       -0.3138457753
 C          1.3302534630       -1.1074002886        0.1236561100
 N          1.6498086763        0.1233213151        0.4839991366
 N          2.9791368947        0.2197116923        0.5035641288
 C          3.5641463862       -0.9617899253        0.1632157650
 C          4.8998847069       -1.3427505817        0.0537260706
 C          5.1481321866       -2.6414140311       -0.3245245216
 C          4.1108292590       -3.5483139188       -0.5885209593
 C          2.7909478349       -3.1832254758       -0.4817465003
 C          2.5110534283       -1.8708097479       -0.0992656367
 C          3.6485715611        1.4373025827        0.8864948607
 C          2.7106900060        2.6401714213        0.8214276364
 C          2.2817270554        2.9560637936       -0.6111461242
 C          1.2179667905        4.0487248755       -0.6873387569
 C          1.7430780075        5.4127184203       -0.2606552501
 F          0.7839378022        6.3735124579       -0.4791422568
 H         -5.9426886424       -2.2820898502       -0.3271540019
 H         -4.4330256145       -3.1850575574       -0.4972267961
 H         -4.7743916450       -2.4731864135        1.8569351525
 H         -4.7292811052       -0.0544163303        2.4173466773
 H         -6.1124391461       -0.4314211696        1.3868705938
 H         -4.9528278700        1.6181116537        0.5946501050
 H         -6.0514713096        0.1328832385       -1.0663664247
 H         -4.6253227910        0.9071490733       -1.7619642931
 H         -4.6694801962       -1.5126795985       -2.3169750948
 H         -2.4701457686       -0.3959325245       -2.0054275036
 H         -2.3952406012       -2.0802292059       -1.4733554219
 H         -2.5742066741       -1.3582103806        2.1694607481
 H         -2.4562445285       -2.6405816106        0.9578919065
 H         -2.6431983577        1.4452895080       -0.2965767675
 H         -2.6865205377        1.0490431571        1.4292359050
 H         -0.5482594839        0.3472166147        0.4477553877
 H          5.7032455555       -0.6516269289        0.2592042113
 H          6.1701762410       -2.9774136822       -0.4210769768
 H          4.3669878503       -4.5556105416       -0.8813232147
 H          1.9815826262       -3.8669741487       -0.6795118465
 H          4.4994509507        1.5837235133        0.2127625892
 H          4.0355149623        1.3274893033        1.9080536887
 H          1.8279794147        2.4229547494        1.4233444225
 H          3.2284377985        3.4946841199        1.2582218021
 H          1.8690650421        2.0502036718       -1.0572089610
 H          3.1538602732        3.2543869224       -1.1978695059
 H          0.8602431157        4.1337115760       -1.7156409589
 H          0.3661274380        3.7827033496       -0.0586332117
 H          1.9784945842        5.4519078765        0.8070869193
 H          2.6191457506        5.7068214263       -0.8487456474
  58
        -82.23325698
 C         -5.2781640527       -0.7034029141        1.3539328447
 C         -4.8622346825        0.4151703657        0.3997698622
 C         -5.2855037658        0.0555084674       -1.0237120979
 C         -4.6047336883       -1.2477242424       -1.4403350977
 C         -5.0180998484       -2.3689979303       -0.4886284613
 C         -4.5976551122       -2.0058808146        0.9345169985
 C         -3.0815261182       -1.8316210511        0.9887492843
 C         -2.6612312028       -0.7077288329        0.0346772355
 C         -3.3447453408        0.5944416982        0.4522744477
 C         -3.0886163727       -1.0715375623       -1.3917842579
 N         -1.2192902559       -0.5102551380        0.0925833673
 C         -0.2857695499       -1.4379323563       -0.2077804795
 O         -0.5235129750       -2.5728492984       -0.5856256940
 C          1.0902933600       -0.9331672669       -0.0342369354
 N          1.3511424244        0.3086405734        0.3371718722
 N          2.6751450839        0.4487569031        0.4166111048
 C          3.3157482955       -0.7032861341        0.0789759986
 C          4.6677841719       -1.0325099031        0.0097725176
 C          4.9773140850       -2.3189840211       -0.3642665054
 C          3.9840229552       -3.2634933964       -0.6637684243
 C          2.6484652384       -2.9495746737       -0.5968159641
 C          2.3066954271       -1.6498666874       -0.2210057186
 C          3.2499725832        1.7274616405        0.7238145302
 C          3.6068279259        2.4987316821       -0.5548895051
 C          3.9432555289        3.9677441362       -0.2729712364
 C          2.7823889434        4.9287471856       -0.5440468589
 C          1.5474673993        4.6570495985        0.3035870910
 F          1.8539589465        4.7249400292        1.6439651057
 H         -6.3633343069       -0.8253818905        1.3301045028
 H         -4.9927654987       -0.4460451747        2.3766032888
 H         -5.3460945076        1.3518431441        0.7003209509
 H         -5.0057371137        0.8583726455       -1.7099626760
 H         -6.3707026056       -0.0599526478       -1.0688498600
 H         -4.9047341189       -1.5057359574       -2.4620743461
 H         -6.0999372593       -2.5151799610       -0.5321092026
 H         -4.5385238771       -3.3026018679       -0.7882100178
 H         -4.8926572590       -2.8086315103        1.6193201162
 H         -2.5808906409       -2.7532276040        0.6911115019
 H         -2.7633902690       -1.5838801232        2.0045415742
 H         -3.0420436139        1.4008348205       -0.2209002240
 H         -3.0368118773        0.8627559902        1.4661457688
 H         -2.5879244646       -1.9940482668       -1.6861609767
 H         -2.7757020530       -0.2803665963       -2.0778937373
 H         -0.8704159212        0.3827236931        0.4063582269
 H          5.4378032149       -0.3116753302        0.2398842842
 H          6.0140432446       -2.6151014784       -0.4312501027
 H          4.2875048528       -4.2589034339       -0.9522156522
 H          1.8725826717       -3.6630058720       -0.8220989134
 H          4.1453379886        1.5762630870        1.3329746403
 H          2.5171335420        2.2773245358        1.3156661935
 H          4.4567571544        2.0047832564       -1.0293364123
 H          2.7672915482        2.4361537336       -1.2507142207
 H          4.7797232474        4.2772853869       -0.9014289786
 H          4.2569866515        4.0757691217        0.7666884773
 H          3.1219802077        5.9476936589       -0.3473216057
 H          2.4842055250        4.8663048363       -1.5920863942
 H          0.7746535113        5.4114062581        0.1232315380
 H          1.1357479573        3.6593383924        0.1257502389
  58
        -82.23325096
 C         -5.0145752346       -2.3429172508       -0.3737553902
 C         -4.6033315723       -1.8865860260        1.0250475745
 C         -5.2735676402       -0.5514103732        1.3468541876
 C         -4.8368902686        0.4942144483        0.3218555015
 C         -5.2508544183        0.0413573810       -1.0775717998
 C         -4.5802785519       -1.2943714843       -1.3964218427
 C         -3.0628207666       -1.1306811400       -1.3451204326
 C         -2.6449149092       -0.6734079630        0.0570219029
 C         -3.0859647982       -1.7244062733        1.0821475462
 C         -3.3181355808        0.6614028335        0.3769398002
 N         -1.2016692841       -0.4865050474        0.1157277520
 C         -0.2743180570       -1.4414697520       -0.1087619900
 O         -0.5189311656       -2.5974443686       -0.4105770384
 C          1.1043264263       -0.9378399718        0.0472803622
 N          1.3708460062        0.3254937861        0.3317008396
 N          2.6947891442        0.4609828821        0.4204697860
 C          3.3300073612       -0.7172398163        0.1763235452
 C          4.6799602321       -1.0608478791        0.1506262795
 C          4.9835645313       -2.3734217041       -0.1244003945
 C          3.9864044112       -3.3296646040       -0.3688204795
 C          2.6528073322       -3.0015518947       -0.3445036389
 C          2.3169809851       -1.6754021456       -0.0690693244
 C          3.2729238860        1.7558813117        0.6415068769
 C          3.6408564596        2.4357780449       -0.6855424032
 C          3.9108880209        3.9352162154       -0.5149872903
 C          2.7179468905        4.8201881846       -0.8874761010
 C          1.4717662848        4.5586676285       -0.0530736382
 F          1.7347699916        4.7484953246        1.2850176868
 H         -6.0975024897       -2.4806630248       -0.4177860030
 H         -4.5424761430       -3.2998733264       -0.6033908410
 H         -4.9132829513       -2.6370502949        1.7606628456
 H         -4.9946581720       -0.2268471288        2.3520528221
 H         -6.3597381892       -0.6637381252        1.3208886225
 H         -5.3133766425        1.4542587912        0.5522394900
 H         -6.3367651122       -0.0660181476       -1.1254385050
 H         -4.9561700283        0.7920452886       -1.8147580932
 H         -4.8735805887       -1.6193298033       -2.4008670048
 H         -2.7350805928       -0.3920336034       -2.0810611413
 H         -2.5693572450       -2.0763450946       -1.5700991073
 H         -2.7744863424       -1.4103347869        2.0815350938
 H         -2.5925341504       -2.6693764659        0.8537069619
 H         -3.0005365137        1.4161117188       -0.3473775945
 H         -3.0166076720        0.9961584984        1.3728242437
 H         -0.8469283198        0.4221451183        0.3729411703
 H          5.4527798293       -0.3308704596        0.3386609378
 H          6.0185246101       -2.6815343577       -0.1545306012
 H          4.2852708751       -4.3457301337       -0.5796042371
 H          1.8740755751       -3.7235745058       -0.5288928186
 H          4.1624909609        1.6452686882        1.2674126377
 H          2.5372390190        2.3479072471        1.1873817389
 H          4.5225856373        1.9405188812       -1.0960239788
 H          2.8255990699        2.2847972366       -1.3965761919
 H          4.7490341128        4.2294765322       -1.1485219869
 H          4.1945071299        4.1384777899        0.5190331944
 H          3.0076546757        5.8654369768       -0.7616456896
 H          2.4525132684        4.6648012947       -1.9346905395
 H          0.6715697980        5.2588757401       -0.3142945906
 H          1.1108967708        3.5315125201       -0.1594742994
  58
        -82.23321047
 C         -5.1902868974       -0.6301379366       -1.1233479816
 C         -4.5485651602       -1.9950449620       -0.8770795720
 C         -4.9870639045       -2.5294514067        0.4852951565
 C         -4.5480831903       -1.5547158937        1.5766779366
 C         -5.1898904385       -0.1893258812        1.3332501773
 C         -4.7487996238        0.3415832043       -0.0299360761
 C         -3.2266087519        0.4831320679       -0.0555811325
 C         -2.5820123429       -0.8813384969        0.1891042431
 C         -3.0278632376       -1.8581326029       -0.9049440236
 C         -3.0273560029       -1.4168043008        1.5546828232
 N         -1.1347961980       -0.7186890195        0.1594895196
 C         -0.2288532130       -1.7036282535        0.3348330150
 O         -0.4986153755       -2.8742653944        0.5443360116
 C          1.1614431877       -1.2157073126        0.2459182513
 N          1.4541983129        0.0541993973        0.0228667383
 N          2.7810499247        0.1749731426       -0.0040245944
 C          3.3913322120       -1.0242389601        0.2048558604
 C          4.7354880605       -1.3856492286        0.2642796853
 C          5.0129116205       -2.7127521256        0.4952756430
 C          3.9957599322       -3.6640679233        0.6646015205
 C          2.6678194731       -3.3169797972        0.6081701731
 C          2.3582293538       -1.9764765274        0.3748915780
 C          3.4290634588        1.4429340584       -0.2218545666
 C          2.4086276793        2.5408811172       -0.4996135311
 C          3.0878072933        3.8861858307       -0.7398520126
 C          2.0648331381        4.9837464885       -1.0174988132
 C          2.7432247380        6.3251031231       -1.2550718092
 F          1.8035788750        7.2960711677       -1.5033570964
 H         -6.2785137526       -0.7235162844       -1.1177916066
 H         -4.8922320253       -0.2491753139       -2.1029703569
 H         -4.8617758808       -2.6924938364       -1.6618679416
 H         -4.5354422656       -3.5075279675        0.6607144324
 H         -6.0727734720       -2.6493099658        0.5070146414
 H         -4.8609816644       -1.9357968059        2.5551015087
 H         -6.2781066502       -0.2788060318        1.3608170466
 H         -4.8916320327        0.5084608357        2.1192307976
 H         -5.2046243076        1.3228796898       -0.2059501205
 H         -2.9052980798        1.1855788492        0.7178386563
 H         -2.9055579254        0.8729564150       -1.0250139535
 H         -2.5547417441       -2.8245600819       -0.7299073951
 H         -2.6972445101       -1.4884190039       -1.8788399561
 H         -2.6964281748       -0.7315994006        2.3392063122
 H         -2.5542520873       -2.3838489144        1.7263824153
 H         -0.7592258965        0.2029535819       -0.0055490662
 H          5.5217393880       -0.6572387694        0.1354666689
 H          6.0421781100       -3.0361915754        0.5488773351
 H          4.2743228753       -4.6919198997        0.8435026626
 H          1.8742519966       -4.0349585399        0.7364407341
 H          4.1167952417        1.3442551702       -1.0706190978
 H          4.0219321303        1.6970871234        0.6660689881
 H          1.8174583591        2.2611130048       -1.3724830047
 H          1.7285220983        2.6134890957        0.3497499972
 H          3.7704733762        3.8039930096       -1.5888937110
 H          3.6809282929        4.1569737843        0.1367909797
 H          1.4727375458        4.7278290052       -1.8982031595
 H          1.3816096764        5.0796989694       -0.1715082168
 H          3.3082574726        6.6531519698       -0.3761063400
 H          3.4018574931        6.2952700951       -2.1295954311
  58
        -82.23318054
 C         -5.0142302069       -0.0823044751        1.2559867462
 C         -4.5515607666        0.7033206976        0.0297723917
 C         -5.0323114291       -0.0006959609       -1.2383473000
 C         -4.4464591645       -1.4113058234       -1.2873070327
 C         -4.9069396952       -2.2003386138       -0.0628069073
 C         -4.4289377476       -1.4930739928        1.2041674941
 C         -2.9039234905       -1.4143892016        1.1987197845
 C         -2.4367216533       -0.6233686975       -0.0286352586
 C         -3.0250865964        0.7866921386        0.0214245596
 C         -2.9214501657       -1.3322218581       -1.2984895649
 N         -0.9848357234       -0.5146830459       -0.0351788152
 C         -0.1174832566       -1.5468793029       -0.0807608532
 O         -0.4293800164       -2.7250095195       -0.1364161188
 C          1.2892496518       -1.0989554512       -0.0583373243
 N          1.6163408806        0.1780582189        0.0284149834
 N          2.9448713656        0.2699877940        0.0219633667
 C          3.5241129674       -0.9593560638       -0.0629161182
 C          4.8580521346       -1.3599930557       -0.0961656399
 C          5.1005878985       -2.7104649251       -0.1908335201
 C          4.0588940256       -3.6481644016       -0.2503540875
 C          2.7405852374       -3.2632389654       -0.2167186741
 C          2.4659963098       -1.8986140330       -0.1209403848
 C          3.6126067207        1.5418999245        0.1279655048
 C          2.6299161811        2.6872570407       -0.0895311393
 C          3.3178610246        4.0438779051        0.0315940228
 C          2.3726697764        5.2108920295       -0.2580409720
 C          1.2477349900        5.3574841557        0.7586480175
 F          0.2500256285        4.4364577014        0.5402854566
 H         -6.1053570659       -0.1320925040        1.2739728867
 H         -4.6871455671        0.4237277773        2.1672966464
 H         -4.9671865477        1.7169606470        0.0659986301
 H         -4.7184969413        0.5640575911       -2.1193360414
 H         -6.1236100250       -0.0500656385       -1.2436618867
 H         -4.7877884336       -1.9168739107       -2.1976219674
 H         -5.9967597201       -2.2786983104       -0.0576951871
 H         -4.4955874709       -3.2107964350       -0.0988500278
 H         -4.7577842623       -2.0572423098        2.0841636730
 H         -2.4704485700       -2.4141201166        1.1609010641
 H         -2.5455854441       -0.9215763118        2.1059744605
 H         -2.6874473226        1.3569933946       -0.8473557958
 H         -2.6745511478        1.3004941491        0.9198730196
 H         -2.4878167605       -2.3318827981       -1.3330602966
 H         -2.5759433738       -0.7804840970       -2.1762749505
 H         -0.5754242875        0.4063643330        0.0180732157
 H          5.6639643818       -0.6431984610       -0.0478725629
 H          6.1211368615       -3.0636256493       -0.2196746610
 H          4.3102931502       -4.6958687865       -0.3238397602
 H          1.9283922189       -3.9705151365       -0.2605390262
 H          4.4123352632        1.5770804388       -0.6207901680
 H          4.0740319509        1.6267840506        1.1210084548
 H          2.1815605144        2.5872228722       -1.0791657749
 H          1.8281084777        2.5999150389        0.6419104232
 H          4.1498336111        4.0902427872       -0.6753696806
 H          3.7319762813        4.1571022245        1.0366255893
 H          2.9429489962        6.1413788380       -0.2553692929
 H          1.9282740501        5.0874010188       -1.2473298915
 H          1.6024503821        5.1979419815        1.7821496065
 H          0.7727866466        6.3408652402        0.6794837786
  58
        -82.23312795
 C         -5.3413305899        0.4896641051        0.5645002329
 C         -4.9514510295        0.4080302534       -0.9106396392
 C         -5.3561945887       -0.9546808250       -1.4709015334
 C         -4.6370271539       -2.0560030724       -0.6928965263
 C         -5.0237488822       -1.9776687396        0.7830006648
 C         -4.6217671279       -0.6131116981        1.3400708289
 C         -3.1114082984       -0.4323633928        1.2044325660
 C         -2.7180535049       -0.5112603649       -0.2748960926
 C         -3.4398672735        0.5903483585       -1.0510544395
 C         -3.1267488858       -1.8790508690       -0.8333904324
 N         -1.2820516013       -0.3142865293       -0.4240093072
 C         -0.3220311744       -1.0927034055        0.1186471857
 O         -0.5257278488       -2.0617633746        0.8300154244
 C          1.0395696141       -0.6433685347       -0.2323170437
 N          1.2658568962        0.4271877581       -0.9739842799
 N          2.5850733857        0.5793426856       -1.0942746542
 C          3.2567454321       -0.4113072078       -0.4443625299
 C          4.6170177837       -0.6803141141       -0.2977867812
 C          4.9589919734       -1.7794953560        0.4541741080
 C          3.9908519131       -2.6022847264        1.0489622301
 C          2.6483217723       -2.3501089781        0.9073251240
 C          2.2740650360       -1.2393726606        0.1500521752
 C          3.1426664330        1.6496989541       -1.8805435789
 C          2.3510859510        2.9513043000       -1.7443796119
 C          2.5953270284        3.7309405820       -0.4509989519
 C          2.0318453764        3.0707264655        0.8164390579
 C          3.0923212711        2.3532528136        1.6391994502
 F          3.9853018752        3.2654803021        2.1574093126
 H         -6.4223549753        0.3735220912        0.6681566526
 H         -5.0697452383        1.4678501565        0.9682755829
 H         -5.4629262682        1.2004843183       -1.4692962210
 H         -5.0949383522       -1.0148054312       -2.5300443745
 H         -6.4373997101       -1.0833188670       -1.3853648347
 H         -4.9238570159       -3.0338953216       -1.0951065838
 H         -6.1006732921       -2.1233803878        0.8945132857
 H         -4.5164391085       -2.7675924202        1.3397864371
 H         -4.8975226132       -0.5543828420        2.3987534459
 H         -2.5834641234       -1.2126426743        1.7529166811
 H         -2.8066467934        0.5355280327        1.6104983719
 H         -3.1562955808        0.5436888572       -2.1057727973
 H         -3.1454946374        1.5683252244       -0.6613115163
 H         -2.5990013844       -2.6578168823       -0.2824186768
 H         -2.8322219887       -1.9456290306       -1.8838087980
 H         -0.9621896163        0.4432690369       -1.0081781250
 H          5.3720800562       -0.0582752579       -0.7548440865
 H          6.0027714133       -2.0204695322        0.5915110742
 H          4.3196784769       -3.4521850336        1.6279079635
 H          1.8900315012       -2.9717292093        1.3547219324
 H          3.1473122471        1.3462713888       -2.9358336812
 H          4.1776379040        1.7981211172       -1.5636064027
 H          2.6286078584        3.5915187509       -2.5839186017
 H          1.2899020795        2.7165349652       -1.8352721233
 H          2.1273727516        4.7094048972       -0.5724546927
 H          3.6656099440        3.9036039843       -0.3206730395
 H          1.5876877050        3.8344535715        1.4575007038
 H          1.2511355665        2.3549426788        0.5586884035
 H          2.6476297245        1.8315548037        2.4926671383
 H          3.6847587346        1.6500740728        1.0487806512
  58
        -82.23311239
 C         -5.3862590507       -0.7548156404        1.4838731805
 C         -5.0458010528        0.1554458378        0.3048118485
 C         -5.5014828984       -0.5030067890       -0.9965554597
 C         -4.7849050947       -1.8423461643       -1.1643642051
 C         -5.1226843666       -2.7555356722        0.0128763214
 C         -4.6697095273       -2.0937973880        1.3132031277
 C         -3.1605377467       -1.8647481820        1.2693028450
 C         -2.8159816313       -0.9492881854        0.0890017577
 C         -3.5354986919        0.3889554015        0.2583578225
 C         -3.2760057485       -1.6127871081       -1.2141291116
 N         -1.3819492749       -0.6988718630        0.0475625373
 C         -0.4227182545       -1.6385895992       -0.0919362970
 O         -0.6268822510       -2.8358668806       -0.2019757140
 C          0.9355886634       -1.0620611016       -0.0980502632
 N          1.1531900995        0.2381123924        0.0086964032
 N          2.4691742848        0.4421981155       -0.0240386390
 C          3.1481955480       -0.7300898860       -0.1598365547
 C          4.5102069236       -1.0115610963       -0.2433942500
 C          4.8650605798       -2.3335344189       -0.3766660506
 C          3.9065927849       -3.3568775884       -0.4276850558
 C          2.5617205054       -3.0891150831       -0.3468467776
 C          2.1739126113       -1.7554893823       -0.2112376746
 C          3.0406729720        1.7629014285        0.0533201579
 C          1.9729241696        2.7988346952        0.3904819213
 C          2.5539354124        4.1908294213        0.6268949322
 C          3.1094915849        4.8380830574       -0.6416997501
 C          3.6338205533        6.2401752968       -0.3674054718
 F          4.7219253140        6.1864139474        0.4717995836
 H         -6.4660565510       -0.9129728870        1.5291903890
 H         -5.0776152511       -0.2833545416        2.4198638205
 H         -5.5556094735        1.1184080675        0.4262510891
 H         -5.2756518078        0.1494241339       -1.8433373165
 H         -6.5822968964       -0.6588384539       -0.9734862380
 H         -5.1084472383       -2.3146821246       -2.0985250994
 H         -6.1988689477       -2.9412298554        0.0440561469
 H         -4.6174228173       -3.7154159182       -0.1080475342
 H         -4.9104753724       -2.7468621927        2.1593388854
 H         -2.6344252023       -2.8116736855        1.1469848686
 H         -2.8188249477       -1.4029743017        2.1990778480
 H         -3.2865106064        1.0484411947       -0.5771353277
 H         -3.2046557750        0.8697082680        1.1826329156
 H         -2.7497652253       -2.5601193805       -1.3327984762
 H         -3.0167005042       -0.9709413566       -2.0599252069
 H         -1.0583647210        0.2533776028        0.1265994764
 H          5.2518464576       -0.2281299159       -0.2058488182
 H          5.9106559272       -2.5959651845       -0.4450089890
 H          4.2449841834       -4.3768775663       -0.5336170730
 H          1.8125609654       -3.8630927803       -0.3849079357
 H          3.5155506667        1.9961863456       -0.9070487657
 H          3.8173406891        1.7607721136        0.8269801280
 H          1.2407957160        2.8318785211       -0.4175539097
 H          1.4535031151        2.4693536813        1.2916360889
 H          3.3477185998        4.1356593067        1.3743863393
 H          1.7650485284        4.8311617312        1.0279695779
 H          3.9292398216        4.2407658766       -1.0427215606
 H          2.3287648774        4.9078589639       -1.4007715581
 H          3.9740472649        6.7302279929       -1.2853332035
 H          2.8848325349        6.8621458826        0.1336560642
  58
        -82.23293865
 C         -5.2858980259       -0.6816199612        1.4786606425
 C         -4.9293698775        0.2088599447        0.2892838020
 C         -5.3963686854       -0.4566104258       -1.0044707220
 C         -4.7032868311       -1.8101093757       -1.1565493366
 C         -5.0571321629       -2.7035700601        0.0310727118
 C         -4.5928333629       -2.0347990192        1.3237803241
 C         -3.0798460520       -1.8328008220        1.2777454008
 C         -2.7193308945       -0.9371942197        0.0870040487
 C         -3.4151937970        0.4153253628        0.2405717441
 C         -3.1905719856       -1.6075538558       -1.2085823327
 N         -1.2808475565       -0.7126759307        0.0433165600
 C         -0.3389717803       -1.6708228401       -0.0847105960
 O         -0.5637401097       -2.8656841230       -0.1802840541
 C          1.0302640064       -1.1197555626       -0.0970854525
 N          1.2738106029        0.1765653382       -0.0070387876
 N          2.5942065324        0.3537320182       -0.0376249269
 C          3.2497067376       -0.8335655204       -0.1591481020
 C          4.6053681706       -1.1453064286       -0.2384475413
 C          4.9327105630       -2.4760586490       -0.3537986385
 C          3.9533708251       -3.4798003157       -0.3921178793
 C          2.6143941285       -3.1825420107       -0.3164104151
 C          2.2546290265       -1.8394646498       -0.1988669362
 C          3.1862323750        1.6661513681        0.0158186707
 C          2.1801599975        2.6967978311        0.5200983745
 C          2.8057466073        4.0711985160        0.7437124391
 C          3.2636154936        4.7454496719       -0.5498979645
 C          3.7053317941        6.1809256115       -0.3017979084
 F          2.6413106742        6.9461092428        0.1127130945
 H         -6.3683167590       -0.8203393510        1.5255002289
 H         -4.9691330559       -0.2047975593        2.4092028581
 H         -5.4221225890        1.1818946679        0.3994150089
 H         -5.1590485576        0.1819298580       -1.8586282082
 H         -6.4797599063       -0.5933220162       -0.9798903722
 H         -5.0348606304       -2.2876032524       -2.0852810647
 H         -6.1364165316       -2.8700758892        0.0640791887
 H         -4.5686813470       -3.6735096466       -0.0785628137
 H         -4.8450220671       -2.6738039976        2.1773197985
 H         -2.5704275452       -2.7902193851        1.1666836699
 H         -2.7303379809       -1.3661947755        2.2021840182
 H         -3.1547925432        1.0606118763       -0.6024065327
 H         -3.0761436355        0.9010275395        1.1592186029
 H         -2.6810669436       -2.5653164510       -1.3162564937
 H         -2.9201111692       -0.9800523602       -2.0615753805
 H         -0.9410608220        0.2348182144        0.1107079249
 H          5.3642175768       -0.3777947536       -0.2130418153
 H          5.9727290231       -2.7608773933       -0.4184431235
 H          4.2704378202       -4.5079183648       -0.4844871823
 H          1.8489089607       -3.9407448256       -0.3453775432
 H          3.5428550869        1.9374987800       -0.9854602905
 H          4.0503249768        1.6235960117        0.6881440902
 H          1.3604284950        2.7717461772       -0.1949745482
 H          1.7630807632        2.3352278156        1.4614274155
 H          3.6545752627        3.9813749386        1.4259759652
 H          2.0631792761        4.7146286770        1.2190860631
 H          4.1049031910        4.2104745655       -0.9916500216
 H          2.4413301400        4.7524010016       -1.2678718849
 H          4.4582359399        6.2397148230        0.4911983316
 H          4.0869143234        6.6485286465       -1.2152138944
  58
        -82.23291796
 C         -4.8099717746        0.1229610581        1.3356887907
 C         -4.3976037843        1.0257285221        0.1740802027
 C         -4.9465239891        0.4576138149       -1.1339265622
 C         -4.3787996922       -0.9440152994       -1.3544521204
 C         -4.7901305832       -1.8503930111       -0.1954343029
 C         -4.2449030886       -1.2792654920        1.1124971714
 C         -2.7212385793       -1.2103991540        1.0415867611
 C         -2.3025663899       -0.3031440446       -0.1214557032
 C         -2.8726048538        1.0981055313        0.0988518959
 C         -2.8550561799       -0.8746223126       -1.4315963976
 N         -0.8513124988       -0.2027875861       -0.1872454472
 C         -0.0056109404       -1.2354869388       -0.3816111819
 O         -0.3424870081       -2.3885117483       -0.5952015936
 C          1.4124865421       -0.8288026896       -0.3120450316
 N          1.7914223147        0.4355034048       -0.3013786411
 N          3.1212114622        0.4736516882       -0.2013681533
 C          3.6473367060       -0.7812912385       -0.1500315670
 C          4.9567524669       -1.2476397689       -0.0485737847
 C          5.1360684340       -2.6107108554       -0.0230436562
 C          4.0564907660       -3.5031872688       -0.0969153453
 C          2.7619021365       -3.0559788513       -0.1970047435
 C          2.5526306527       -1.6767981163       -0.2253451281
 C          3.8180770010        1.7323846206       -0.1871785350
 C          3.2655464596        2.7027377052        0.8736348573
 C          2.5947803102        3.9318175459        0.2575375295
 C          1.2446253174        3.6155169753       -0.3935127106
 C          0.0828867700        3.6477111126        0.5891314597
 F          0.1162538492        2.5747208919        1.4511786204
 H         -5.8994927119        0.0800233576        1.4023481613
 H         -4.4324332251        0.5311104319        2.2760923647
 H         -4.7997672582        2.0334487108        0.3332757717
 H         -4.6700459882        1.1072693769       -1.9679043366
 H         -6.0372309890        0.4155467109       -1.0903753006
 H         -4.7686687356       -1.3517606764       -2.2938193546
 H         -5.8793413996       -1.9218624136       -0.1461605251
 H         -4.3923410987       -2.8544510976       -0.3535928136
 H         -4.5385323621       -1.9276608845        1.9455746416
 H         -2.3019552440       -2.2042706201        0.8821617343
 H         -2.3138106572       -0.8135389998        1.9747853877
 H         -2.5727744121        1.7467465410       -0.7288679908
 H         -2.4719047784        1.5132341138        1.0267780859
 H         -2.4356636645       -1.8681664597       -1.5894755688
 H         -2.5450094343       -0.2385618558       -2.2645151652
 H         -0.4271016060        0.6764324959        0.0658770367
 H          5.7983254007       -0.5733149889        0.0079936191
 H          6.1369430711       -3.0096788971        0.0551543868
 H          4.2589921534       -4.5636439919       -0.0740810368
 H          1.9193783664       -3.7255136976       -0.2579886405
 H          3.7432942074        2.1892155127       -1.1812369209
 H          4.8690229564        1.5116085087        0.0041826711
 H          2.5448392306        2.1733032051        1.4963243674
 H          4.0817704478        3.0346278896        1.5168538324
 H          3.2658432597        4.3617029031       -0.4895843907
 H          2.4519501898        4.6850928738        1.0354608888
 H          1.0258338920        4.3528297387       -1.1674987861
 H          1.2811870221        2.6247140508       -0.8503178347
 H          0.1039040614        4.5461169228        1.2153914351
 H         -0.8769785689        3.5855545243        0.0654142972
  58
        -82.23291175
 C         -5.3033933355       -0.8049424548        1.5158898195
 C         -4.9404077902        0.1819340284        0.4072523372
 C         -5.4020524807       -0.3716831670       -0.9400568541
 C         -4.7099969342       -1.7087754709       -1.2023591635
 C         -5.0701515887       -2.6983417835       -0.0955443389
 C         -4.6110469365       -2.1413173624        1.2509364903
 C         -3.0976456073       -1.9381666366        1.2288531745
 C         -2.7306580166       -0.9463487790        0.1192025234
 C         -3.4257762324        0.3895066039        0.3829200615
 C         -3.1968148599       -1.5049455965       -1.2302108977
 N         -1.2918021967       -0.7208633738        0.1007453111
 C         -0.3499119349       -1.6668510416       -0.0983838707
 O         -0.5744726066       -2.8516962367       -0.2801376533
 C          1.0189398245       -1.1155763785       -0.0733723781
 N          1.2609225905        0.1721856260        0.1038553613
 N          2.5803769002        0.3539542070        0.0752874295
 C          3.2372333555       -0.8218913279       -0.1244789325
 C          4.5935512055       -1.1237042875       -0.2259931413
 C          4.9236358583       -2.4427933234       -0.4321240829
 C          3.9461670692       -3.4437309289       -0.5366082197
 C          2.6065849371       -3.1557828102       -0.4379667272
 C          2.2439098275       -1.8246812329       -0.2287101619
 C          3.1792242319        1.6556104771        0.2304033343
 C          2.1136483829        2.7228251230        0.4579632438
 C          2.7092680641        4.1022324878        0.7282923035
 C          3.4227482204        4.7020257482       -0.4838195769
 C          3.8355101440        6.1446375405       -0.2274976854
 F          2.7262295690        6.9401805018       -0.0662272731
 H         -6.3861600084       -0.9456325096        1.5459174789
 H         -4.9905412758       -0.4085146524        2.4847204930
 H         -5.4326183435        1.1430227891        0.5965430356
 H         -5.1599812789        0.3361096659       -1.7363795414
 H         -6.4857188870       -0.5082952090       -0.9320635544
 H         -5.0379450557       -2.1059213805       -2.1694516121
 H         -6.1497789302       -2.8654092810       -0.0814413916
 H         -4.5822911803       -3.6563923546       -0.2841436843
 H         -4.8677728832       -2.8494838695        2.0466077378
 H         -2.5886991664       -2.8835926023        1.0402846237
 H         -2.7519943444       -1.5512431937        2.1907461791
 H         -3.1607972728        1.1032811013       -0.4014144076
 H         -3.0903941106        0.7955114784        1.3407589497
 H         -2.6879343348       -2.4511573564       -1.4155130269
 H         -2.9216823358       -0.8085380784       -2.0263744081
 H         -0.9524544937        0.2205941061        0.2283621765
 H          5.3497384987       -0.3572947038       -0.1462844594
 H          5.9641242646       -2.7205623161       -0.5167425396
 H          4.2653095494       -4.4625746173       -0.6985085624
 H          1.8430412956       -3.9125015224       -0.5159168998
 H          3.7617275759        1.8784241477       -0.6709965991
 H          3.8679548906        1.6261623228        1.0840767939
 H          1.4596277179        2.7634118170       -0.4139576494
 H          1.5048595280        2.4205159901        1.3111527214
 H          3.4067450190        4.0424884728        1.5672869026
 H          1.9003341326        4.7765009917        1.0151225182
 H          4.3234877463        4.1369695792       -0.7257173016
 H          2.7559148079        4.6781402740       -1.3478471705
 H          4.4220445955        6.2386682707        0.6924533235
 H          4.3951338873        6.5595736951       -1.0720193607
  58
        -82.23286193
 C         -4.9619512184       -2.4077757289        0.0412806554
 C         -4.4823037622       -1.6998668367        1.3072429561
 C         -5.1075764165       -0.3075286641        1.3844895209
 C         -4.6898863320        0.5038126747        0.1589236034
 C         -5.1721371244       -0.2007801119       -1.1082440220
 C         -4.5466477091       -1.5931445535       -1.1825959744
 C         -3.0250469281       -1.4694134501       -1.2196844274
 C         -2.5382997461       -0.7602261852        0.0491564341
 C         -2.9605224605       -1.5764472840        1.2761409734
 C         -3.1665984828        0.6314886300        0.1248739790
 N         -1.0899005478       -0.6105178923        0.0183426275
 C         -0.1954927208       -1.6196109646       -0.0505098085
 O         -0.4799394751       -2.8044755627       -0.0970469036
 C          1.1993795129       -1.1382039785       -0.0635020339
 N          1.5063312139        0.1467787257       -0.0041578052
 N          2.8341831515        0.2574287048       -0.0265873056
 C          3.4306613456       -0.9636364870       -0.1105326438
 C          4.7699576758       -1.3435808811       -0.1683810531
 C          5.0316835484       -2.6913887861       -0.2463756502
 C          4.0040341180       -3.6463197161       -0.2686135271
 C          2.6808681288       -3.2816716111       -0.2140299747
 C          2.3872117401       -1.9197800889       -0.1341806269
 C          3.4903598205        1.5395271606        0.0059514019
 C          2.5300903062        2.6358636224        0.4546780499
 C          3.2340573515        3.9881847910        0.5273403270
 C          2.3144160610        5.1131771280        1.0068788878
 C          1.2968780931        5.5344102905       -0.0442450385
 F          1.9361436821        6.0578637436       -1.1436861419
 H         -6.0486322155       -2.5181627867        0.0647207917
 H         -4.5219225212       -3.4051507855       -0.0127970867
 H         -4.7785444932       -2.2821370218        2.1868081211
 H         -4.7800075231        0.1983805425        2.2958288188
 H         -6.1961499046       -0.3893510314        1.4202872581
 H         -5.1340897244        1.5046556672        0.2132710132
 H         -6.2612988543       -0.2816162683       -1.0946355317
 H         -4.8908837997        0.3818250036       -1.9886225024
 H         -4.8890942097       -2.0988281263       -2.0921683415
 H         -2.7112243667       -0.8993316379       -2.0977125544
 H         -2.5633362185       -2.4555480346       -1.2721903816
 H         -2.6004386600       -1.0829362420        2.1824289794
 H         -2.4989405929       -2.5624597828        1.2199898238
 H         -2.8621465829        1.2199008208       -0.7446280566
 H         -2.8160378813        1.1446316952        1.0243096803
 H         -0.7025714228        0.3202138489        0.0525792998
 H          5.5651404097       -0.6136256479       -0.1559037658
 H          6.0567135681       -3.0288654526       -0.2939607255
 H          4.2705164255       -4.6908763233       -0.3317240716
 H          1.8791116571       -4.0018085399       -0.2312717918
 H          3.8816289826        1.7738610651       -0.9927455664
 H          4.3387828032        1.4729438622        0.6959328557
 H          1.6989964377        2.6715747849       -0.2489866610
 H          2.1259608498        2.3736836850        1.4344235870
 H          3.6287688611        4.2520462410       -0.4556725799
 H          4.0790353484        3.9120014155        1.2151524569
 H          1.7733002013        4.8023855875        1.9017531108
 H          2.9205948914        5.9854667467        1.2586388363
 H          0.6994631114        4.6915698518       -0.4033629746
 H          0.6368528636        6.3210899004        0.3353716137
  58
        -82.23285053
 C         -4.9657036743       -0.3630818263        1.3988479877
 C         -4.4828469488        0.6419057506        0.3540527602
 C         -4.9411399318        0.1956152099       -1.0335696573
 C         -4.3541847480       -1.1811987308       -1.3423820383
 C         -4.8347253021       -2.1891067593       -0.2997242365
 C         -4.3786785584       -1.7392310576        1.0872120253
 C         -2.8537494413       -1.6651640866        1.1226758377
 C         -2.3667860777       -0.6553304987        0.0774874406
 C         -2.9562943414        0.7207989937        0.3875528818
 C         -2.8291983880       -1.1057859693       -1.3127558353
 N         -0.9144622911       -0.5509370581        0.1158766446
 C         -0.0442688802       -1.5594049824       -0.1020047111
 O         -0.3550230674       -2.7080473245       -0.3671264318
 C          1.3626431557       -1.1243999775        0.0094944071
 N          1.6958589229        0.1107967268        0.3381675402
 N          3.0267671615        0.2001530790        0.3392556494
 C          3.5988930352       -0.9940536815        0.0174075549
 C          4.9285663383       -1.3941512902       -0.1018585721
 C          5.1588035797       -2.7032972619       -0.4541757796
 C          4.1099922338       -3.6060351513       -0.6838126930
 C          2.7960003660       -3.2241321421       -0.5673232528
 C          2.5351417434       -1.9004499642       -0.2111945606
 C          3.6985020864        1.4309160631        0.6700944902
 C          2.9984809757        2.6512085127        0.0648428994
 C          1.7847889991        3.0839192487        0.8885012607
 C          0.9175550082        4.1212841223        0.1798625036
 C          1.6313993450        5.4525730590       -0.0106044546
 F          0.7589178240        6.3847980504       -0.5215017677
 H         -6.0567405366       -0.4122952054        1.3879880357
 H         -4.6552467602       -0.0423103826        2.3960395157
 H         -4.8992866973        1.6310572445        0.5769343532
 H         -4.6130688462        0.9180820325       -1.7845225647
 H         -6.0319512082        0.1513924983       -1.0661840229
 H         -4.6795183811       -1.5015903900       -2.3382899738
 H         -5.9242756201       -2.2638831375       -0.3278845654
 H         -4.4224506852       -3.1750272466       -0.5219597977
 H         -4.7216031980       -2.4606055214        1.8371379951
 H         -2.4193622762       -2.6402894913        0.9014525362
 H         -2.5110723822       -1.3565642545        2.1135679550
 H         -2.6051329803        1.4466868490       -0.3504950535
 H         -2.6224944046        1.0497230386        1.3752018039
 H         -2.3947290460       -2.0816073672       -1.5308410156
 H         -2.4692651156       -0.3971397512       -2.0629199565
 H         -0.5076735845        0.3484837339        0.3226125949
 H          5.7458277575       -0.7114888620        0.0765873516
 H          6.1764318412       -3.0508289810       -0.5561864338
 H          4.3522236462       -4.6222945952       -0.9565283369
 H          1.9763147133       -3.9029850823       -0.7374998823
 H          4.7167581807        1.3530149407        0.2826297006
 H          3.7510363792        1.5415275962        1.7606439281
 H          3.7202572301        3.4670513143        0.0074220260
 H          2.6818670712        2.4036830779       -0.9498706389
 H          2.1226175821        3.4851758500        1.8468668852
 H          1.1777693730        2.2001664154        1.0849405669
 H          0.6050264716        3.7421498079       -0.7950239539
 H          0.0175348308        4.3044256354        0.7708763670
 H          1.9928164722        5.8531437308        0.9427241774
 H          2.4577778652        5.3816433010       -0.7241068939
  58
        -82.23284575
 C         -5.1754905826       -0.3155430686       -1.0068352146
 C         -4.5462790071       -1.7050464199       -0.9125680757
 C         -4.9807836853       -2.3774783286        0.3885484622
 C         -4.5241101803       -1.5288945394        1.5739883431
 C         -5.1533569483       -0.1392361196        1.4827048086
 C         -4.7162504519        0.5297215680        0.1803388814
 C         -3.1928482678        0.6585601643        0.1575864196
 C         -2.5606395695       -0.7303413248        0.2503459971
 C         -3.0244882126       -1.5805674247       -0.9379280590
 C         -3.0022858812       -1.4038606705        1.5546535521
 N         -1.1121718513       -0.5797134397        0.2267877516
 C         -0.2155385419       -1.5871096101        0.2931193311
 O         -0.4981805733       -2.7696950201        0.3862071203
 C          1.1788248721       -1.1072840301        0.2416096702
 N          1.4841545244        0.1754837979        0.1370945132
 N          2.8117508027        0.2847207635        0.1145347492
 C          3.4100628940       -0.9347952182        0.2056444489
 C          4.7507507350       -1.3133070846        0.2227932815
 C          5.0155182254       -2.6587779628        0.3269819984
 C          3.9893988978       -3.6118530635        0.4125083237
 C          2.6648923212       -3.2481510847        0.3963885896
 C          2.3680028638       -1.8886051596        0.2914841664
 C          3.4732340709        1.5604485752        0.0096485433
 C          2.4628898398        2.6961805415       -0.1034170115
 C          3.1655090001        4.0464420186       -0.2179705915
 C          2.1895619669        5.2232349260       -0.2791308763
 C          1.4591911002        5.3184004952       -1.6115208608
 F          2.3533607517        5.5551155437       -2.6292843139
 H         -6.2645830775       -0.3984663974       -1.0023189146
 H         -4.8804656441        0.1647848329       -1.9427431580
 H         -4.8723097393       -2.3116785820       -1.7646432291
 H         -4.5380039440       -3.3728548618        0.4551580785
 H         -6.0674993145       -2.4886655591        0.4061607967
 H         -4.8341342665       -2.0090320821        2.5087298944
 H         -6.2422623783       -0.2205964186        1.5091375075
 H         -4.8423770036        0.4677962369        2.3362530278
 H         -5.1631891881        1.5286143693        0.1135974762
 H         -2.8586372339        1.2714397342        0.9988413342
 H         -2.8747404546        1.1462209216       -0.7676439907
 H         -2.5601531445       -2.5645811008       -0.8704615601
 H         -2.6968230015       -1.1125704424       -1.8696479181
 H         -2.6587275447       -0.8094303663        2.4050360361
 H         -2.5378845058       -2.3880424894        1.6184940998
 H         -0.7269774088        0.3493305283        0.1496041699
 H          5.5435516127       -0.5837313031        0.1571815155
 H          6.0415719625       -2.9960146740        0.3438970627
 H          4.2582571348       -4.6546512780        0.4927644279
 H          1.8647220412       -3.9673558397        0.4610982081
 H          4.1242872718        1.5487340649       -0.8730038020
 H          4.1055767522        1.7051837052        0.8947158758
 H          1.8361854795        2.5127466868       -0.9761050573
 H          1.8184357284        2.6850633596        0.7772010158
 H          3.7915753067        4.0624088553       -1.1122056398
 H          3.8184472775        4.1806161894        0.6471967934
 H          1.4450226542        5.1375646437        0.5136602568
 H          2.7432576322        6.1522642889       -0.1303717984
 H          0.9372000339        4.3912789995       -1.8647157501
 H          0.7527011425        6.1546729835       -1.6176790806
  58
        -82.23284285
 C         -5.0168824797        0.8111767718        0.4591464725
 C         -4.4498978103        0.4560148668       -0.9146382929
 C         -4.9614452257       -0.9190553224       -1.3397979989
 C         -4.5114403763       -1.9619554410       -0.3182682799
 C         -5.0837022774       -1.6126649206        1.0543282230
 C         -4.5721079290       -0.2371945563        1.4780414793
 C         -3.0462956920       -0.2636853745        1.5507915442
 C         -2.4671915447       -0.6203685404        0.1747189656
 C         -2.9238426175        0.4311644293       -0.8464253749
 C         -2.9847152907       -1.9928153889       -0.2493099905
 N         -1.0140927253       -0.5724190192        0.2613836431
 C         -0.0740856052       -1.5123663212        0.0280165646
 O         -0.2643213110       -2.6650545876       -0.3138369081
 C          1.2914420837       -0.9751167610        0.2291380880
 N          1.5194609165        0.2740324990        0.5931849429
 N          2.8396067420        0.4509230976        0.6749816071
 C          3.5107166140       -0.6881032989        0.3526774679
 C          4.8707603249       -0.9849704980        0.2961067357
 C          5.2140670192       -2.2670063977       -0.0639160463
 C          4.2462415374       -3.2378858177       -0.3620280681
 C          2.9029289281       -2.9563018933       -0.3064880367
 C          2.5268282815       -1.6622938445        0.0561323118
 C          3.3791349270        1.7462350011        0.9745547953
 C          3.8309565639        2.4900931970       -0.2900115754
 C          2.7541158993        2.5585748674       -1.3764351403
 C          1.4250664028        3.1659879133       -0.9305511987
 C          1.5582636081        4.6086442024       -0.4649382386
 F          0.3134401350        5.1280192546       -0.1936454931
 H         -6.1075463879        0.8437178255        0.4129068695
 H         -4.6653064605        1.7998679142        0.7631116826
 H         -4.7662334336        1.2085845089       -1.6458958238
 H         -4.5696116666       -1.1728129170       -2.3270829448
 H         -6.0518391816       -0.9061616856       -1.4047500182
 H         -4.8721909296       -2.9501563367       -0.6229396637
 H         -6.1753291636       -1.6067906383        1.0134148521
 H         -4.7794800100       -2.3642317427        1.7859246913
 H         -4.9762104106        0.0175439598        2.4645165364
 H         -2.7164233304       -1.0029488638        2.2838873429
 H         -2.6703682843        0.7137677936        1.8645767501
 H         -2.5067372774        0.1875953259       -1.8260125626
 H         -2.5468412815        1.4149596498       -0.5544287817
 H         -2.6545788038       -2.7471699519        0.4648874296
 H         -2.5689049492       -2.2587995378       -1.2211519729
 H         -0.6427325012        0.3255381349        0.5417201532
 H          5.6214389131       -0.2440887079        0.5267129278
 H          6.2581364418       -2.5384608285       -0.1200713597
 H          4.5758582010       -4.2280875152       -0.6392584842
 H          2.1457695367       -3.6901835277       -0.5296486190
 H          4.2289661594        1.6286645108        1.6537526489
 H          2.5961329993        2.3061171971        1.4888698237
 H          4.1449302164        3.4944401442       -0.0029678650
 H          4.6997145685        1.9780216988       -0.7092588761
 H          2.5549008081        1.5482602057       -1.7392580711
 H          3.1517311875        3.1344101250       -2.2152009820
 H          0.7316090686        3.1460544545       -1.7741184686
 H          0.9882288560        2.5625642932       -0.1339899489
 H          2.1342824498        4.6986749692        0.4613794276
 H          1.9998880592        5.2430692585       -1.2411933623
  58
        -82.23276834
 C         -5.2888419836       -2.7397286286       -0.2558726081
 C         -4.8924452461       -2.2504189136        1.1360325124
 C         -5.6918673815       -0.9957622614        1.4855607473
 C         -5.3945563250        0.0962474688        0.4590077380
 C         -5.7940616793       -0.3898592801       -0.9334248668
 C         -4.9944444598       -1.6451555553       -1.2801623153
 C         -3.5020787324       -1.3217415935       -1.2652845223
 C         -3.0987824836       -0.8308812415        0.1298420600
 C         -3.3998076024       -1.9285819876        1.1567263601
 C         -3.9010608106        0.4230510193        0.4778185192
 N         -1.6821978234       -0.4932426165        0.1544847246
 C         -0.6669391045       -1.3443959179       -0.1021016314
 O         -0.7969683452       -2.5198007952       -0.4005230652
 C          0.6555612232       -0.6990412030        0.0135032214
 N          0.8000352358        0.5779461284        0.3215891733
 N          2.1045292803        0.8518897336        0.3594005088
 C          2.8491856699       -0.2474570669        0.0591039092
 C          4.2248685803       -0.4516218122       -0.0244271330
 C          4.6513633822       -1.7183777790       -0.3473432394
 C          3.7492854606       -2.7663413948       -0.5828036444
 C          2.3912360481       -2.5785368276       -0.4973225826
 C          1.9325238892       -1.3015560040       -0.1723226734
 C          2.5572931202        2.1955076789        0.5854938041
 C          2.6745267189        2.9692746630       -0.7348489551
 C          3.2066636661        4.3935205353       -0.5308945552
 C          4.6852453462        4.5665159418       -0.8880071414
 C          5.6212288056        3.7064991002       -0.0514425260
 F          5.4443929352        3.9521113143        1.2904009466
 H         -6.3518550505       -2.9913965565       -0.2740584953
 H         -4.7240541754       -3.6398483913       -0.5052060566
 H         -5.1022641645       -3.0337451547        1.8727972713
 H         -5.4234570491       -0.6493448645        2.4863320688
 H         -6.7603543759       -1.2225264020        1.4854774396
 H         -5.9639417176        0.9990417072        0.7092124279
 H         -6.8634432772       -0.6112909065       -0.9552285788
 H         -5.5991898040        0.3920365088       -1.6712328713
 H         -5.2775027341       -1.9936060590       -2.2796609912
 H         -3.2733562592       -0.5481868936       -2.0027184651
 H         -2.9172972667       -2.2085051837       -1.5105136873
 H         -3.0977973534       -1.5889313877        2.1506372625
 H         -2.8152344108       -2.8146424754        0.9082873520
 H         -3.6834521439        1.2115806394       -0.2472504915
 H         -3.6111606358        0.7815991559        1.4688667927
 H         -1.4179322168        0.4508154910        0.3927770316
 H          4.9295589127        0.3444353076        0.1640937503
 H          5.7107659898       -1.9164178190       -0.4214247288
 H          4.1422366206       -3.7405417915       -0.8328878588
 H          1.6834921460       -3.3730074027       -0.6694125707
 H          3.5137715293        2.1609426929        1.1102151561
 H          1.8226141941        2.6847362296        1.2297178683
 H          3.3216192928        2.4185057357       -1.4213946301
 H          1.6808844471        3.0044680769       -1.1849018658
 H          3.0602124908        4.6894649795        0.5092048658
 H          2.6368876098        5.0867746760       -1.1511673511
 H          4.8504742491        4.3118754544       -1.9364088990
 H          4.9556692320        5.6146756893       -0.7457369517
 H          5.4370322101        2.6387387836       -0.2018093128
 H          6.6692127606        3.9309884747       -0.2748554579
  58
        -82.23276316
 C         -5.3745983259       -0.5212877768        1.5287713340
 C         -5.0728691063        0.2610254000        0.2513796530
 C         -5.5389110916       -0.5429108114       -0.9615577629
 C         -4.7996379996       -1.8799452842       -0.9972235830
 C         -5.0984413343       -2.6653097117        0.2786555046
 C         -4.6351759025       -1.8581558766        1.4902052635
 C         -3.1317690115       -1.6089407157        1.3917646827
 C         -2.8261378182       -0.8216404874        0.1124316817
 C         -3.5684903294        0.5143124198        0.1499285073
 C         -3.2966478478       -1.6310295988       -1.1015957901
 N         -1.3982023654       -0.5530049803        0.0157291808
 C         -0.4244758430       -1.4863598848       -0.0404719963
 O         -0.6079730039       -2.6915931373       -0.0000829371
 C          0.9213640564       -0.8927900156       -0.1563911538
 N          1.1226707045        0.4139550221       -0.1832847808
 N          2.4317183446        0.6299438754       -0.3073730205
 C          3.1244622372       -0.5404550552       -0.3504179389
 C          4.4854511969       -0.8148321035       -0.4695102230
 C          4.8546723574       -2.1391578238       -0.4924344913
 C          3.9112422562       -3.1735811350       -0.4013135338
 C          2.5673090671       -2.9139901690       -0.2863258134
 C          2.1654727704       -1.5779557576       -0.2595416491
 C          2.9582629957        1.9648915229       -0.2944657172
 C          3.4365416456        2.3541493767        1.1084931947
 C          4.0290263675        3.7615803956        1.1567150207
 C          2.9880208627        4.8718413378        0.9302473574
 C          3.2196151993        5.6533010765       -0.3556083217
 F          3.0877558847        4.8413935197       -1.4580481799
 H         -6.4501771276       -0.6924741996        1.6123341252
 H         -5.0586528771        0.0545657498        2.4018924408
 H         -5.5991150024        1.2224576592        0.2777264008
 H         -5.3405911487        0.0172704448       -1.8783369582
 H         -6.6160233646       -0.7139553734       -0.9003890952
 H         -5.1307196403       -2.4567270492       -1.8679805988
 H         -6.1701258162       -2.8652465147        0.3512858766
 H         -4.5767347518       -3.6236938969        0.2525326664
 H         -4.8480431449       -2.4193926823        2.4068847274
 H         -2.5894666331       -2.5541516349        1.3626245088
 H         -2.7825888924       -1.0426785936        2.2588986433
 H         -3.3473337497        1.0831743768       -0.7568748345
 H         -3.2305435259        1.0983305626        1.0099431954
 H         -2.7543429149       -2.5764517200       -1.1271252127
 H         -3.0648933093       -1.0807373744       -2.0169820181
 H         -1.0926786096        0.4068976067       -0.0394982271
 H          5.2171598264       -0.0244991967       -0.5428527494
 H          5.9002857092       -2.3951568803       -0.5835365971
 H          4.2604954357       -4.1952284988       -0.4247126622
 H          1.8290988380       -3.6963569002       -0.2177398754
 H          2.1617406899        2.6300082725       -0.6303100029
 H          3.7863776034        2.0281470087       -1.0053780899
 H          2.5975177134        2.2812821863        1.8039626447
 H          4.1958326868        1.6371187480        1.4293252527
 H          4.8131256476        3.8367799814        0.4008730448
 H          4.5010681143        3.8992179540        2.1305550562
 H          1.9856667334        4.4426824257        0.9034474601
 H          3.0163132553        5.5925961931        1.7481795752
 H          2.4833065837        6.4552757509       -0.4722676649
 H          4.2314609888        6.0696149611       -0.3966281338
  58
        -82.23271900
 C         -4.9160710478       -2.3686203927       -0.1063590768
 C         -4.4647550100       -1.6848209697        1.1830884506
 C         -5.0754648104       -0.2862068369        1.2628764043
 C         -4.6129155197        0.5374635005        0.0619190369
 C         -5.0667358632       -0.1428381966       -1.2287859564
 C         -4.4561485356       -1.5416535007       -1.3057393961
 C         -2.9326895267       -1.4362259088       -1.2974078109
 C         -2.4744373002       -0.7513322367       -0.0048234723
 C         -2.9413178362       -1.5797365010        1.1974542987
 C         -3.0878678293        0.6467867215        0.0735533239
 N         -1.0237223979       -0.6192218488        0.0077297518
 C         -0.1405844825       -1.6385611300       -0.0454760681
 O         -0.4374620317       -2.8194609665       -0.1106217138
 C          1.2609037714       -1.1758051455       -0.0167711303
 N          1.5849738780        0.1035607627        0.0629453063
 N          2.9149170181        0.1950874885        0.0605479644
 C          3.4951647079       -1.0345842290       -0.0135358078
 C          4.8296404942       -1.4342553136       -0.0384588364
 C          5.0730729508       -2.7851716739       -0.1234112190
 C          4.0321630171       -3.7240037761       -0.1812447899
 C          2.7135880348       -3.3398508482       -0.1554794767
 C          2.4385058187       -1.9744879711       -0.0696898533
 C          3.5902688737        1.4637148036        0.1567317836
 C          2.6264357014        2.6183783064       -0.0966129359
 C          3.3426932237        3.9642854436       -0.0131867186
 C          2.4424643782        5.1416064582       -0.3820675806
 C          1.3187531496        5.3589393075        0.6224336736
 F          0.6407331473        6.5163110415        0.3212720927
 H         -6.0041907238       -2.4659329827       -0.1157175076
 H         -4.4866084476       -3.3705191990       -0.1625346017
 H         -4.7929477479       -2.2761128059        2.0450904292
 H         -4.7684792494        0.2024879354        2.1905692458
 H         -6.1654882268       -0.3551569468        1.2661651215
 H         -5.0462588620        1.5427788794        0.1182555735
 H         -6.1566892444       -0.2104455933       -1.2475565347
 H         -4.7534191248        0.4489445111       -2.0920582730
 H         -4.7781931440       -2.0299920150       -2.2321286162
 H         -2.5870289969       -0.8574636453       -2.1576704977
 H         -2.4815583625       -2.4272298732       -1.3511915252
 H         -2.6017877996       -1.1036074792        2.1207868930
 H         -2.4902303370       -2.5705266864        1.1404126555
 H         -2.7515426032        1.2444182213       -0.7777363819
 H         -2.7578346456        1.1422713315        0.9903901942
 H         -0.6270331825        0.3069106021        0.0565514631
 H          5.6350276143       -0.7169925415        0.0090885127
 H          6.0938211967       -3.1379073461       -0.1450687628
 H          4.2844511231       -4.7718940645       -0.2466463094
 H          1.9017261815       -4.0474620273       -0.1982511922
 H          4.4013779658        1.4783138958       -0.5798601383
 H          4.0365476330        1.5626497297        1.1551968223
 H          2.1809313048        2.4951239764       -1.0849811006
 H          1.8253286400        2.5655729024        0.6397730137
 H          4.1937753984        3.9561204374       -0.6976824546
 H          3.7326053128        4.1084730575        0.9970160494
 H          3.0397009241        6.0551830171       -0.4201186380
 H          2.0097589582        4.9850395079       -1.3719489554
 H          0.5786902705        4.5538618297        0.5980188346
 H          1.7083550203        5.4805696368        1.6388953926
  58
        -82.23271604
 C         -5.2775858965       -2.6113125603       -0.4313000866
 C         -4.8492706298       -2.4310661220        1.0240389086
 C         -5.6412423287       -1.2858275569        1.6538011472
 C         -5.3688586986        0.0033745813        0.8802228061
 C         -5.8002443655       -0.1735523706       -0.5748927511
 C         -5.0080376281       -1.3200931105       -1.2020064794
 C         -3.5158994451       -0.9990158150       -1.1515761605
 C         -3.0808239702       -0.8178865514        0.3071076879
 C         -3.3567748014       -2.1126344882        1.0799375059
 C         -3.8755463283        0.3270775188        0.9352042123
 N         -1.6640877197       -0.4849473042        0.3719487455
 C         -0.6542902927       -1.2562786895       -0.0816068913
 O         -0.7885699521       -2.3441246515       -0.6159185087
 C          0.6702186761       -0.6402002573        0.1350612509
 N          0.8203002815        0.5472444245        0.6936155590
 N          2.1258579724        0.8171528343        0.7528926380
 C          2.8649109794       -0.1964161866        0.2228483814
 C          4.2387327565       -0.3774724539        0.0722446711
 C          4.6558834519       -1.5502267731       -0.5120568791
 C          3.7477551860       -2.5305041109       -0.9384238574
 C          2.3923603157       -2.3677102972       -0.7872484789
 C          1.9428045624       -1.1853377986       -0.1982503384
 C          2.5723864204        2.0867944979        1.2563345158
 C          2.2109365785        3.2194084040        0.2870305886
 C          2.9327541279        3.1332909827       -1.0644975806
 C          4.1664156766        4.0288405924       -1.1742190658
 C          5.3102527033        3.6009611605       -0.2667687022
 F          6.4144273482        4.3848742371       -0.5054718065
 H         -6.3405086894       -2.8591818743       -0.4792133226
 H         -4.7181866895       -3.4333518415       -0.8814933624
 H         -5.0410697239       -3.3559351207        1.5791804700
 H         -5.3499264881       -1.1616442359        2.6994251562
 H         -6.7092026999       -1.5134052652        1.6289358009
 H         -5.9328334661        0.8277882014        1.3319172802
 H         -6.8696127533       -0.3912488924       -0.6197189525
 H         -5.6233009186        0.7500667435       -1.1310368410
 H         -5.3139696184       -1.4466009870       -2.2464219669
 H         -3.3049907502       -0.0835459016       -1.7101091469
 H         -2.9365270856       -1.8089048864       -1.5952838483
 H         -3.0319975822       -1.9932725348        2.1166392551
 H         -2.7776376051       -2.9211181483        0.6333697092
 H         -3.6757415670        1.2545661392        0.3922654342
 H         -3.5628780058        0.4654098066        1.9734467599
 H         -1.3964696428        0.3913288303        0.7941836014
 H          4.9490754253        0.3648718524        0.4047944268
 H          5.7132016713       -1.7256542599       -0.6465069515
 H          4.1339405754       -3.4314832157       -1.3910003850
 H          1.6792884561       -3.1117516204       -1.1027372833
 H          3.6485914886        2.0259050524        1.4186431513
 H          2.0770139834        2.2670449510        2.2157742219
 H          1.1330589869        3.1635154635        0.1258076446
 H          2.4259987566        4.1757918232        0.7652179118
 H          2.2409282424        3.4371467907       -1.8516065345
 H          3.2139763347        2.0979143565       -1.2680263415
 H          4.5318066107        4.0073475069       -2.2033034212
 H          3.8973014077        5.0611482645       -0.9404067940
 H          5.0698534735        3.7296279911        0.7934132971
 H          5.6143490390        2.5680749832       -0.4680669013
  58
        -82.23271616
 C         -5.7216992877       -1.4789397282       -1.1496137284
 C         -4.8893826376       -2.5354139302       -0.4240064434
 C         -5.2386290206       -2.5307819438        1.0632562062
 C         -4.9377108622       -1.1526187279        1.6497932999
 C         -5.7702085153       -0.0946352786        0.9265932909
 C         -5.4178157323       -0.1023892892       -0.5601897688
 C         -3.9318630102        0.2123223820       -0.7353369966
 C         -3.0968282590       -0.8440039194       -0.0114951585
 C         -3.4042434111       -2.2260221239       -0.5991978468
 C         -3.4526562630       -0.8398839808        1.4795176659
 N         -1.6879141125       -0.5215154903       -0.1937217941
 C         -0.6500166930       -1.2292365999        0.2984533401
 O         -0.7481244181       -2.2384810936        0.9757212377
 C          0.6568856564       -0.6493796625       -0.0711758982
 N          0.7690326233        0.4538250774       -0.7887413536
 N          2.0677175404        0.7094667763       -0.9586849640
 C          2.8407693289       -0.2278827843       -0.3437365129
 C          4.2217955563       -0.3923133815       -0.2511774043
 C          4.6774074094       -1.4793918454        0.4569420009
 C          3.7999144686       -2.3919971084        1.0607946180
 C          2.4373149985       -2.2460166384        0.9687042703
 C          1.9490940134       -1.1498438660        0.2566351288
 C          2.4779752894        1.8997476725       -1.6513093368
 C          2.1923846905        3.1508779410       -0.8109468992
 C          3.0242324504        3.2369950415        0.4758161899
 C          4.2552294071        4.1362479703        0.3658839316
 C          5.3204287862        3.5954924186       -0.5764045320
 F          6.4322754814        4.4035444126       -0.5378467382
 H         -6.7852213632       -1.7018949250       -1.0392478480
 H         -5.4870649842       -1.4874702105       -2.2166178403
 H         -5.1038255767       -3.5229542352       -0.8472744499
 H         -4.6503478315       -3.2893232118        1.5827571892
 H         -6.2957323655       -2.7709928177        1.1987816932
 H         -5.1869274809       -1.1465377066        2.7166891982
 H         -6.8341113902       -0.3053716261        1.0556087181
 H         -5.5706293225        0.8917902744        1.3517864046
 H         -6.0107691778        0.6582959620       -1.0812586795
 H         -3.7101480227        1.2009303788       -0.3249748457
 H         -3.6757503446        0.2187866433       -1.7979867304
 H         -2.7965270442       -2.9715231916       -0.0859457311
 H         -3.1357213618       -2.2382790090       -1.6585581622
 H         -3.2189711875        0.1388231214        1.9061562634
 H         -2.8447911409       -1.5870587214        1.9900760683
 H         -1.4492326236        0.2912663691       -0.7416342331
 H          4.9082344428        0.2976138533       -0.7192091115
 H          5.7415076484       -1.6392004634        0.5513199512
 H          4.2157059311       -3.2269349385        1.6045760029
 H          1.7470617241       -2.9396457787        1.4203995199
 H          1.9118454166        1.9613493066       -2.5861317452
 H          3.5388973241        1.8067890850       -1.8841250329
 H          2.3627924374        4.0356776621       -1.4255045403
 H          1.1316516883        3.1233114514       -0.5558520762
 H          3.3297993996        2.2356585622        0.7862918221
 H          2.3979816212        3.6413970927        1.2725451311
 H          3.9582660865        5.1315489578        0.0283218820
 H          4.7077644674        4.2435892164        1.3541397051
 H          5.6528278780        2.5970069092       -0.2725681211
 H          4.9870212834        3.5869225921       -1.6190240784
  58
        -82.23270743
 C         -5.0979287237       -0.2891703324       -1.0460071918
 C         -4.4851106869       -1.6852053236       -0.9413730094
 C         -4.9355644451       -2.3467016379        0.3599585249
 C         -4.4768547330       -1.4979128964        1.5444724549
 C         -5.0894934763       -0.1015562342        1.4427647898
 C         -4.6366398453        0.5563362876        0.1401655098
 C         -3.1117867271        0.6677372715        0.1265352330
 C         -2.4962470740       -0.7278297082        0.2297497054
 C         -2.9618128243       -1.5781362499       -0.9576417997
 C         -2.9535622700       -1.3904841610        1.5342325678
 N         -1.0457594235       -0.5935701474        0.2148771062
 C         -0.1608280439       -1.6101066509        0.2881496343
 O         -0.4554221665       -2.7905663514        0.3694694205
 C          1.2397155639       -1.1446003387        0.2585526173
 N          1.5605709146        0.1354869232        0.1776482963
 N          2.8901891931        0.2296175329        0.1677761852
 C          3.4735948036       -0.9980801280        0.2491433439
 C          4.8092081637       -1.3935665022        0.2770182886
 C          5.0564372267       -2.7437617313        0.3627153785
 C          4.0180678726       -3.6854088546        0.4209600531
 C          2.6983696972       -3.3049944299        0.3955918914
 C          2.4193645158       -1.9404866866        0.3088366691
 C          3.5628867986        1.5017762548        0.1048120291
 C          2.5847168789        2.6227565558       -0.2307322696
 C          3.3016066433        3.9665080950       -0.3405318765
 C          2.3423743778        5.1392317331       -0.5331281013
 C          1.6211161579        5.0938804882       -1.8735460712
 F          0.8910481488        6.2453751295       -2.0497067436
 H         -6.1878548584       -0.3598605007       -1.0480383027
 H         -4.7916180671        0.1835212239       -1.9821426046
 H         -4.8124092958       -2.2921961944       -1.7927424514
 H         -4.5047150555       -3.3468374445        0.4339152753
 H         -6.0235522124       -2.4453474476        0.3710169252
 H         -4.7981981161       -1.9702244601        2.4793960144
 H         -6.1793601236       -0.1703950988        1.4628825909
 H         -4.7769330050        0.5058828425        2.2953921350
 H         -5.0715280232        1.5598318714        0.0659657749
 H         -2.7763706490        1.2807641159        0.9671485531
 H         -2.7823479779        1.1475533186       -0.7987432946
 H         -2.5091980370       -2.5670863228       -0.8830607088
 H         -2.6230496892       -1.1178393744       -1.8892394073
 H         -2.6086526817       -0.7961885579        2.3841775492
 H         -2.5010650086       -2.3797833700        1.6054612472
 H         -0.6507533909        0.3327880703        0.1566769894
 H          5.6122327339       -0.6732999748        0.2353151104
 H          6.0781453727       -3.0935189492        0.3873706993
 H          4.2732884856       -4.7325059368        0.4879849713
 H          1.8885990834       -4.0148804943        0.4404441695
 H          4.3450822956        1.4421430742       -0.6607268737
 H          4.0471322844        1.7026219708        1.0694924784
 H          2.0865576879        2.3777805007       -1.1688569487
 H          1.8239580356        2.6694440263        0.5491479305
 H          4.0096180974        3.9368568904       -1.1719963371
 H          3.8732469273        4.1380720102        0.5741759413
 H          1.6020631108        5.1514460155        0.2689782459
 H          2.9020051266        6.0758035358       -0.4847738132
 H          2.3290678728        5.0420719707       -2.7077866956
 H          0.9088908425        4.2658329853       -1.9338182037
  58
        -82.23270337
 C         -5.1594092063       -2.7732975609        0.2222336738
 C         -4.7117476301       -1.9739260706        1.4447497555
 C         -5.4701278577       -0.6481913395        1.4963683632
 C         -5.1752079647        0.1531729895        0.2292703385
 C         -5.6256006775       -0.6429683500       -0.9946637438
 C         -4.8673475388       -1.9689235574       -1.0433038365
 C         -3.3675973879       -1.6977249258       -1.1394286736
 C         -2.9130566281       -0.8961057337        0.0856900173
 C         -3.2116487737       -1.7024764776        1.3546706820
 C         -3.6741811457        0.4287953315        0.1360587826
 N         -1.4883981835       -0.6057797648       -0.0028912860
 C         -0.5013717926       -1.5244534327       -0.0623842396
 O         -0.6671787176       -2.7323252520       -0.0361167746
 C          0.8379425963       -0.9118526065       -0.1628149510
 N          1.0222063104        0.3966369250       -0.2038666663
 N          2.3317467543        0.6274219700       -0.3071859701
 C          3.0404040621       -0.5348284510       -0.3224156072
 C          4.4064441148       -0.7929990414       -0.4149042284
 C          4.7918798759       -2.1130723644       -0.4146097985
 C          3.8597442548       -3.1577659806       -0.3263846181
 C          2.5108534654       -2.9135931407       -0.2377323242
 C          2.0925131844       -1.5823445184       -0.2352366315
 C          2.8399498250        1.9704132202       -0.3093732844
 C          3.3312598086        2.3768407522        1.0841087500
 C          4.0321802821        3.7340007686        1.1186235299
 C          3.1191253566        4.9267572134        0.8025586893
 C          3.1945668629        5.3736555144       -0.6515773308
 F          4.4603312965        5.8287071745       -0.9407781822
 H         -6.2283652477       -2.9890314779        0.2886405559
 H         -4.6242544064       -3.7239178721        0.1868518518
 H         -4.9196132141       -2.5488026479        2.3539804045
 H         -5.1652971567       -0.0782297030        2.3772279965
 H         -6.5434001313       -0.8354285306        1.5740976310
 H         -5.7149154163        1.1067609473        0.2649411832
 H         -6.7002825737       -0.8300163314       -0.9392026562
 H         -5.4323848907       -0.0692821376       -1.9041895664
 H         -5.1871358366       -2.5400225652       -1.9219318558
 H         -3.1406291598       -1.1336167973       -2.0476238596
 H         -2.8121043245       -2.6351637737       -1.1739993170
 H         -2.8735494162       -1.1414953921        2.2295776988
 H         -2.6561812068       -2.6396836106        1.3166406217
 H         -3.4581995881        1.0113352951       -0.7633844404
 H         -3.3474720650        1.0074588331        1.0040067405
 H         -1.1973835718        0.3591905037       -0.0440409100
 H          5.1301805313        0.0049275483       -0.4848135838
 H          5.8419398311       -2.3568692059       -0.4839447710
 H          4.2217188911       -4.1751256413       -0.3303652421
 H          1.7809540869       -3.7039308579       -0.1723769116
 H          2.0196046494        2.6152672201       -0.6302917745
 H          3.6604101772        2.0344099025       -1.0307892657
 H          2.4802636237        2.3848036854        1.7686771799
 H          4.0306487614        1.6148330725        1.4362284810
 H          4.8726316031        3.7335893126        0.4221031277
 H          4.4444318385        3.8638945306        2.1204905797
 H          2.0817010624        4.6856181990        1.0370716277
 H          3.4126719543        5.7783763446        1.4188544110
 H          2.9948688721        4.5603632565       -1.3544754528
 H          2.5133411637        6.2089574504       -0.8450734206
  58
        -82.23269918
 C         -5.0088186743       -0.6719872812        1.3770168216
 C         -4.3951638915        0.6896030273        1.0536362477
 C         -4.7125425328        1.0639919044       -0.3932630634
 C         -4.1287300562        0.0062577191       -1.3287323680
 C         -4.7400171683       -1.3570164877       -1.0092046185
 C         -4.4241111002       -1.7273017730        0.4389641786
 C         -2.9103507074       -1.7975812173        0.6281835533
 C         -2.2936455286       -0.4322973571        0.3074881984
 C         -2.8793302398        0.6263984644        1.2416701706
 C         -2.6143552270       -0.0567877196       -1.1437673423
 N         -0.8508396900       -0.4685461017        0.5066659331
 C          0.0205398366       -1.2474804569       -0.1675178017
 O         -0.2855667209       -2.1057071113       -0.9774866965
 C          1.4276236487       -0.9307304077        0.1533922826
 N          1.7603853821        0.0347689396        0.9919107234
 N          3.0891446372        0.1441506643        0.9981464962
 C          3.6618782664       -0.7698971991        0.1665893450
 C          4.9913359374       -1.0432628357       -0.1493721847
 C          5.2234335210       -2.0515738566       -1.0552672201
 C          4.1765915799       -2.7794506526       -1.6402053023
 C          2.8628553830       -2.5205436033       -1.3343784345
 C          2.5997625786       -1.5025168557       -0.4170501028
 C          3.7558425749        1.1320201511        1.8059237243
 C          2.9381296168        2.4196627101        1.9185678769
 C          2.6163090537        3.0513057408        0.5528247870
 C          1.1187493274        3.0121586481        0.2559188762
 C          0.7987732911        3.5129372311       -1.1436529879
 F         -0.5592392543        3.4596921191       -1.3571526281
 H         -6.0935263684       -0.6266759210        1.2565863286
 H         -4.7984981969       -0.9387672302        2.4155721042
 H         -4.8102796843        1.4477527047        1.7279364912
 H         -4.2850113901        2.0414541703       -0.6269437663
 H         -5.7943306085        1.1279301373       -0.5305552485
 H         -4.3531710086        0.2741408762       -2.3669308981
 H         -5.8219673109       -1.3248333916       -1.1579774463
 H         -4.3290214389       -2.1127879685       -1.6811619930
 H         -4.8618770614       -2.7046987747        0.6709978057
 H         -2.4767374717       -2.5463086463       -0.0350758844
 H         -2.6683582759       -2.0735011818        1.6577258334
 H         -2.4378403196        1.5997505168        1.0127728024
 H         -2.6420630890        0.3753445584        2.2790186169
 H         -2.1808308505       -0.8047818389       -1.8081897140
 H         -2.1644762960        0.9114774167       -1.3763809016
 H         -0.4491892725        0.1899964445        1.1566125757
 H          5.8056548947       -0.4935054708        0.2984913168
 H          6.2407477226       -2.2941096406       -1.3256632351
 H          4.4202404897       -3.5603477248       -2.3450252121
 H          2.0451707245       -3.0685405700       -1.7733823394
 H          4.7236911729        1.3392516569        1.3416886777
 H          3.9346496056        0.7275877708        2.8108103447
 H          2.0090372883        2.1903991157        2.4397253958
 H          3.5055997207        3.1152907644        2.5373636069
 H          3.1467790363        2.5139114408       -0.2362503206
 H          2.9609083052        4.0865826399        0.5272788990
 H          0.7646011507        1.9839442462        0.3452433779
 H          0.5805291995        3.6261960945        0.9813864325
 H          1.0972351683        4.5573072132       -1.2852675804
 H          1.2611860380        2.8851973079       -1.9124554463
  58
        -82.23266038
 C         -5.7105247886       -0.9866262279       -0.9510714407
 C         -4.9077574862       -2.2472314612       -0.6318850126
 C         -5.2149968852       -2.7034247384        0.7934250357
 C         -4.8346282719       -1.5945217589        1.7730104196
 C         -5.6372457920       -0.3331253793        1.4565411575
 C         -5.3270564468        0.1197799990        0.0305292227
 C         -3.8336835150        0.4217785734       -0.0969788589
 C         -3.0280698915       -0.8381294610        0.2205575424
 C         -3.4154558743       -1.9501002457       -0.7610625304
 C         -3.3421628514       -1.2958617002        1.6495782169
 N         -1.6118374500       -0.5242523329        0.0926620441
 C         -0.5939111380       -1.3871993716        0.2956518899
 O         -0.7219483463       -2.5562143099        0.6197128003
 C          0.7265395276       -0.7637356062        0.0838002304
 N          0.8678630581        0.5099673593       -0.2421610902
 N          2.1693990525        0.7633957018       -0.3720346198
 C          2.9170558294       -0.3444704395       -0.1167724392
 C          4.2931286759       -0.5633863260       -0.1237729537
 C          4.7245631921       -1.8336821197        0.1776877790
 C          3.8271923001       -2.8690208711        0.4793350788
 C          2.4688232214       -2.6648807998        0.4860746799
 C          2.0044633072       -1.3840170833        0.1846927485
 C          2.6362473441        2.0921727136       -0.6484507807
 C          2.9862204118        2.8314885932        0.6476939054
 C          3.4971244202        4.2493573826        0.3959421694
 C          4.8950602001        4.2942053009       -0.2460508337
 C          4.8934149510        4.8662667459       -1.6569724864
 F          4.2004319974        4.0506795271       -2.5210036705
 H         -6.7797827849       -1.1958913146       -0.8732849110
 H         -5.5063029473       -0.6637854194       -1.9746247427
 H         -5.1794005374       -3.0409812647       -1.3366790209
 H         -4.6478529099       -3.6076592421        1.0216187983
 H         -6.2779294915       -2.9373883303        0.8893123334
 H         -5.0537000496       -1.9192276520        2.7963535530
 H         -6.7058630861       -0.5365102162        1.5559335390
 H         -5.3803648510        0.4593957200        2.1633976661
 H         -5.8988328249        1.0268097154       -0.1982455175
 H         -3.5550466947        1.2203735966        0.5954439357
 H         -3.6070539436        0.7565320332       -1.1125290880
 H         -2.8283077716       -2.8405099423       -0.5354463338
 H         -3.1773348779       -1.6343247056       -1.7798773092
 H         -3.0516302364       -0.5123904740        2.3540516526
 H         -2.7551118093       -2.1872096334        1.8717484253
 H         -1.3495262523        0.4126833165       -0.1741082843
 H          4.9905071562        0.2264984939       -0.3587868600
 H          5.7840156859       -2.0451557988        0.1834961176
 H          4.2243005443       -3.8467423656        0.7087268535
 H          1.7654380368       -3.4494675067        0.7128724815
 H          1.8377267392        2.6205285098       -1.1734958412
 H          3.5035249680        2.0275197419       -1.3081211265
 H          2.0874327373        2.8797530978        1.2661926982
 H          3.7371830080        2.2606498352        1.1991830332
 H          3.5221263582        4.7762117521        1.3508084550
 H          2.7829835585        4.7692544864       -0.2451054208
 H          5.5642312702        4.9186835054        0.3468768844
 H          5.3245833716        3.2918343551       -0.2774920095
 H          4.4047784585        5.8451497059       -1.6941731161
 H          5.9105716559        4.9436347933       -2.0551708200
  58
        -82.23260394
 C         -5.3538733573       -1.3976779093        1.6680519481
 C         -5.0348270831        0.0445465114        1.2770060355
 C         -5.5427090681        0.3138815046       -0.1387040408
 C         -4.8551558576       -0.6413987728       -1.1134218731
 C         -5.1718693015       -2.0848365155       -0.7259859206
 C         -4.6669304602       -2.3511450543        0.6910650471
 C         -3.1560413142       -2.1351504294        0.7420587226
 C         -2.8328862596       -0.6879110569        0.3534116162
 C         -3.5228358963        0.2658669116        1.3288007210
 C         -3.3447417013       -0.4210043683       -1.0665517955
 N         -1.3962767867       -0.4564776925        0.4221827551
 C         -0.4595781127       -1.1086003476       -0.2980523279
 O         -0.6889063318       -1.9739420300       -1.1259344594
 C          0.9107379848       -0.6578396995        0.0162979954
 N          1.1611760049        0.2774646976        0.9153434333
 N          2.4807999682        0.4665542862        0.9622445200
 C          3.1293646134       -0.3589050694        0.0943352740
 C          4.4810443293       -0.5338017419       -0.2003315398
 C          4.7955091931       -1.4660099414       -1.1611668152
 C          3.8091737452       -2.2171279908       -1.8174054651
 C          2.4755828552       -2.0597792872       -1.5291647530
 C          2.1287548450       -1.1179999202       -0.5595533304
 C          3.0570478516        1.4314884531        1.8610767427
 C          2.2092547863        2.7016297917        1.9341793607
 C          2.0370236224        3.4134686990        0.5910242338
 C          3.3481944541        3.9396178412       -0.0082951967
 C          3.8362669271        3.0844590806       -1.1710551609
 F          5.0511055407        3.5507281135       -1.6180212577
 H         -6.4342748873       -1.5563804855        1.6460912261
 H         -5.0076833450       -1.5931707697        2.6856945702
 H         -5.5233735491        0.7309830415        1.9783540394
 H         -5.3324019105        1.3485566184       -0.4195908416
 H         -6.6247657701        0.1702898742       -0.1769389832
 H         -5.2157663987       -0.4477895304       -2.1296992596
 H         -6.2496115069       -2.2565184737       -0.7762242459
 H         -4.6876594294       -2.7692140384       -1.4249196585
 H         -4.8924562838       -3.3859307175        0.9716134781
 H         -2.6511924857       -2.8083123754        0.0488073975
 H         -2.7771716357       -2.3348060216        1.7476233216
 H         -3.2884891430        1.2992492440        1.0601632577
 H         -3.1551509724        0.0849813331        2.3422487136
 H         -2.8394292886       -1.0961795232       -1.7573097108
 H         -3.1012958972        0.6050775747       -1.3536375360
 H         -1.0521915470        0.2260856738        1.0805251097
 H          5.2523440202        0.0291011914        0.3042351322
 H          5.8317028817       -1.6282571468       -1.4186207105
 H          4.1166020955       -2.9354275574       -2.5625693123
 H          1.7039620166       -2.6308720582       -2.0191363747
 H          4.0658544174        1.6568298242        1.5106380907
 H          3.1329063683        0.9953344998        2.8655486371
 H          1.2223537507        2.4284003894        2.3094983378
 H          2.6724988327        3.3802245838        2.6524696833
 H          1.3534394754        4.2485780090        0.7491038019
 H          1.5561895961        2.7338739097       -0.1149096872
 H          3.2129083447        4.9574239979       -0.3780483509
 H          4.1285942602        3.9757568592        0.7545188842
 H          3.9907670392        2.0386989636       -0.8898121189
 H          3.1481063176        3.1355043142       -2.0211818284
  58
        -82.23258817
 C         -5.4420257424       -1.0062332316       -1.2135501399
 C         -4.7214954091       -2.2960077080       -0.8226573723
 C         -5.1284473109       -2.7018952378        0.5928027613
 C         -4.7479519785       -1.5889714582        1.5677736887
 C         -5.4686642934       -0.2985066492        1.1796179006
 C         -5.0587087457        0.1040139370       -0.2362289930
 C         -3.5473899315        0.3304473767       -0.2864393288
 C         -2.8239804178       -0.9588673944        0.1028600253
 C         -3.2114364609       -2.0745163876       -0.8745115904
 C         -3.2379892867       -1.3656261863        1.5216540614
 N         -1.3887579911       -0.7167361375        0.0470473654
 C         -0.4275959851       -1.6218887627        0.3284320881
 O         -0.6306327851       -2.7731270458        0.6755768837
 C          0.9324305855       -1.0706681888        0.1723780451
 N          1.1535570416        0.1712156546       -0.2246150606
 N          2.4713480691        0.3641186239       -0.2666703669
 C          3.1476260936       -0.7576010094        0.1055855399
 C          4.5098457731       -1.0288436211        0.2143918516
 C          4.8611546490       -2.2926451229        0.6277296334
 C          3.8989777005       -3.2688349132        0.9270985519
 C          2.5538367099       -3.0106896080        0.8225248364
 C          2.1697129574       -1.7356801552        0.4053305011
 C          3.0517370988        1.6213376135       -0.6662043559
 C          1.9667800521        2.6438585192       -0.9882141341
 C          2.5312518873        3.9495242717       -1.5450370893
 C          3.3598305705        4.7284070915       -0.5260646483
 C          3.7640373183        6.0885790495       -1.0769923030
 F          4.5345807080        6.7620549225       -0.1602011829
 H         -6.5229216130       -1.1617126794       -1.1911150514
 H         -5.1664617800       -0.7186818730       -2.2309478849
 H         -4.9929964848       -3.0926263775       -1.5241692822
 H         -4.6201114151       -3.6265652420        0.8719298117
 H         -6.2052461198       -2.8819738891        0.6340616303
 H         -5.0384187429       -1.8776318341        2.5839797733
 H         -6.5497934595       -0.4477470179        1.2232306437
 H         -5.2122344896        0.4977049642        1.8824175034
 H         -5.5713275414        1.0317280863       -0.5163149603
 H         -3.2679996782        1.1312169467        0.4031779672
 H         -3.2492986703        0.6292007136       -1.2948562396
 H         -2.6825374775       -2.9864896423       -0.5969465258
 H         -2.9024973664       -1.7957671366       -1.8851628564
 H         -2.9482015381       -0.5799700688        2.2239291075
 H         -2.7089792354       -2.2784712853        1.7959333546
 H         -1.0667494703        0.1978681441       -0.2311855791
 H          5.2543095666       -0.2814298167       -0.0145851474
 H          5.9067971659       -2.5452127989        0.7259469888
 H          4.2346481565       -4.2440683084        1.2469322405
 H          1.8018307181       -3.7489656249        1.0485472280
 H          3.6816366101        1.4543996042       -1.5492269528
 H          3.6914512521        1.9803188325        0.1476143493
 H          1.2909332731        2.2029865301       -1.7222683275
 H          1.3873995448        2.8432949964       -0.0859025555
 H          1.6958293657        4.5741550809       -1.8685469944
 H          3.1430295546        3.7364733947       -2.4245420268
 H          2.7825294973        4.8765848073        0.3886564561
 H          4.2674030820        4.1807683263       -0.2681810873
 H          4.3695124611        5.9918238706       -1.9845115038
 H          2.8919593237        6.7195094794       -1.2781696181
  58
        -82.23253705
 C         -5.3182319280       -0.7428491190       -1.3599667456
 C         -4.6405821961       -2.0405585675       -0.9214749377
 C         -5.0805476227       -2.3943524888        0.4980897979
 C         -4.6834444016       -1.2652239956        1.4474810291
 C         -5.3612479459        0.0332690313        1.0117033183
 C         -4.9184882900        0.3836634377       -0.4081322156
 C         -3.4008346084        0.5663080344       -0.4403882898
 C         -2.7200187615       -0.7309960010       -0.0035600149
 C         -3.1242957127       -1.8628567967       -0.9552595063
 C         -3.1673002566       -1.0854958882        1.4192436048
 N         -1.2783935167       -0.5309378999       -0.0434132546
 C         -0.3467429482       -1.4529865850        0.2807492234
 O         -0.5877347620       -2.5885006081        0.6554189624
 C          1.0285043827       -0.9405075472        0.1340612880
 N          1.2858691178        0.2742565662       -0.3221893240
 N          2.6062971372        0.4392077041       -0.3407703993
 C          3.2498201022       -0.6716638663        0.1110075476
 C          4.6031344038       -0.9619253743        0.2716111147
 C          4.9189089620       -2.2086799437        0.7582782301
 C          3.9303036011       -3.1506044887        1.0808191282
 C          2.5937510435       -2.8735415575        0.9269897914
 C          2.2454364411       -1.6152622916        0.4343871805
 C          3.2228296412        1.6644750495       -0.7833742922
 C          2.1769119205        2.6377657960       -1.3165815419
 C          2.7953173649        3.8286837644       -2.0475413934
 C          3.7116526981        4.7050047585       -1.1899604127
 C          3.0229855581        5.3077166284        0.0274745832
 F          2.9194101722        4.3867282398        1.0441847818
 H         -6.4033953034       -0.8674075511       -1.3506355452
 H         -5.0190028751       -0.4922690384       -2.3804910363
 H         -4.9240877328       -2.8489551788       -1.6046587041
 H         -4.6029011126       -3.3244839994        0.8111798448
 H         -6.1625963011       -2.5430911140        0.5271498120
 H         -4.9976230219       -1.5165900761        2.4666045295
 H         -6.4468018745       -0.0842993548        1.0423012438
 H         -5.0927959094        0.8416161455        1.6958892527
 H         -5.4005368937        1.3169230247       -0.7223618524
 H         -3.1091358995        1.3780413192        0.2309878488
 H         -3.0788837623        0.8278001052       -1.4518129224
 H         -2.6254992651       -2.7807433655       -0.6435745945
 H         -2.7921420669       -1.6219206714       -1.9682761679
 H         -2.8658496992       -0.2886496368        2.1036960046
 H         -2.6683846868       -2.0045093275        1.7272796234
 H         -0.9253730405        0.3673979233       -0.3368562612
 H          5.3677231198       -0.2400431390        0.0273851208
 H          5.9565134301       -2.4746666803        0.8986597371
 H          4.2384224975       -4.1140011472        1.4593332204
 H          1.8219912188       -3.5856804043        1.1699606913
 H          3.9493686319        1.4225886870       -1.5694208640
 H          3.7585950923        2.1083478945        0.0627171835
 H          1.5287249564        2.0998987787       -2.0104251462
 H          1.5585438402        2.9764306297       -0.4862031083
 H          1.9858239387        4.4491313820       -2.4390378538
 H          3.3723165878        3.4642195031       -2.9007701986
 H          4.5752149290        4.1320776062       -0.8494020112
 H          4.0800577660        5.5284398260       -1.8044148752
 H          3.6016385178        6.1429336568        0.4351113261
 H          2.0050237609        5.6377891677       -0.2029683697
  58
        -82.23252955
 C         -5.2470921659       -0.6235103893        1.6049897416
 C         -4.8830300926        0.4065058483        0.5366662959
 C         -5.3690390390       -0.0800163933       -0.8278172833
 C         -4.6995101434       -1.4135481242       -1.1577997528
 C         -5.0608706602       -2.4463106751       -0.0916077649
 C         -4.5775519104       -1.9563770190        1.2723168352
 C         -3.0617926762       -1.7737493110        1.2401032520
 C         -2.6933658048       -0.7385755105        0.1711043008
 C         -3.3659994070        0.5937649342        0.5024065233
 C         -3.1840785006       -1.2297320516       -1.1957352428
 N         -1.2521983480       -0.5331983415        0.1448196572
 C         -0.3268576212       -1.4811950755       -0.1162619901
 O         -0.5732122764       -2.6512353994       -0.3575692269
 C          1.0490395166       -0.9508582529       -0.0793094059
 N          1.3131121533        0.3104705760        0.2190730740
 N          2.6322825977        0.4805505077        0.1718131837
 C          3.2678565545       -0.6737763431       -0.1687164241
 C          4.6165666947       -0.9770033146       -0.3436577590
 C          4.9240251978       -2.2720107451       -0.6892277331
 C          3.9316834384       -3.2489118638       -0.8606535430
 C          2.5995139138       -2.9595816098       -0.6920862740
 C          2.2597133345       -1.6525628973       -0.3407752179
 C          3.2500300403        1.7562507557        0.4319777910
 C          2.2384339712        2.7411081722        1.0092267622
 C          2.8941724241        4.0030184689        1.5683101582
 C          3.6702466592        4.8328310722        0.5425564428
 C          2.8202650495        5.3203433997       -0.6234694588
 F          2.6279074729        4.3202746434       -1.5483371322
 H         -6.3314178106       -0.7501280482        1.6424798227
 H         -4.9168003877       -0.2750865152        2.5864580422
 H         -5.3591980745        1.3649898583        0.7746664453
 H         -5.1260614711        0.6589146959       -1.5949955675
 H         -6.4544843224       -0.2015341007       -0.8121391015
 H         -5.0448655820       -1.7626137524       -2.1372943600
 H         -6.1425897638       -2.5988746953       -0.0713437555
 H         -4.5891175600       -3.4016019535       -0.3286537514
 H         -4.8353220105       -2.6954992419        2.0390453926
 H         -2.5687567308       -2.7166297786        1.0028450711
 H         -2.6987956829       -1.4352925123        2.2138660984
 H         -3.0997554829        1.3374220622       -0.2531489850
 H         -3.0131350519        0.9521120865        1.4729905057
 H         -2.6909976621       -2.1735562864       -1.4292857341
 H         -2.9081712401       -0.5024392898       -1.9633843597
 H         -0.8951912432        0.3940481600        0.3196565736
 H          5.3843328982       -0.2287678039       -0.2167561688
 H          5.9578835111       -2.5492935127       -0.8353268005
 H          4.2332040068       -4.2495363948       -1.1329616611
 H          1.8247486036       -3.6978529657       -0.8205257223
 H          3.6631095758        2.1436684186       -0.5060852201
 H          4.0734433822        1.6008097445        1.1395656587
 H          1.5164074060        2.9951703377        0.2343558381
 H          1.6944460073        2.2436993117        1.8141147687
 H          3.5804687550        3.7238153952        2.3713190926
 H          2.1141620881        4.6302492059        2.0060449076
 H          4.0802592579        5.7111517876        1.0443497703
 H          4.5064450731        4.2573697295        0.1430629498
 H          1.8262757787        5.6413612633       -0.2959210287
 H          3.3165958397        6.1355485841       -1.1598463743
  58
        -82.23251398
 C         -5.0775026707       -2.5419207587        0.2491220192
 C         -4.6158507997       -1.6608514729        1.4086671272
 C         -5.3307021891       -0.3116955546        1.3438005818
 C         -4.9975925327        0.3746797086        0.0198750487
 C         -5.4622514351       -0.5034269277       -1.1410750082
 C         -4.7470942723       -1.8522792632       -1.0734624333
 C         -3.2384947542       -1.6372915546       -1.1728191959
 C         -2.7697018709       -0.7538922992       -0.0108939684
 C         -3.1069757476       -1.4454443876        1.3151462353
 C         -3.4876441998        0.5941416300       -0.0770281682
 N         -1.3360322639       -0.5173573766       -0.1047322037
 C         -0.3793202738       -1.4684414321       -0.0832423456
 O         -0.5839421369       -2.6669143842        0.0182666551
 C          0.9795131926       -0.9034118499       -0.1968640453
 N          1.1999771174        0.3952806468       -0.3009736630
 N          2.5144165321        0.5883049309       -0.3947198337
 C          3.1925633633       -0.5909654357       -0.3415203989
 C          4.5524105719       -0.8891596182       -0.4017196557
 C          4.9036763367       -2.2168669420       -0.3298184508
 C          3.9436642021       -3.2316614852       -0.2025420687
 C          2.6005041480       -2.9486834529       -0.1458475095
 C          2.2167616785       -1.6091324743       -0.2159977840
 C          3.0592014248        1.9154930744       -0.4563333521
 C          3.5716443170        2.3602495980        0.9195764448
 C          4.4160718111        3.6369866159        0.8859321016
 C          3.6290784325        4.9479708881        0.9605506011
 C          2.8149262524        5.2955758813       -0.2791392804
 F          1.5917993161        4.6665735136       -0.2676989034
 H         -6.1535988253       -2.7176631666        0.3195919223
 H         -4.5732328014       -3.5088000227        0.2970414667
 H         -4.8514353366       -2.1534179094        2.3587239194
 H         -5.0154232108        0.3177733135        2.1792515880
 H         -6.4103141299       -0.4577135227        1.4236976874
 H         -5.5063651812        1.3445544579       -0.0280338261
 H         -6.5430628202       -0.6512996288       -1.0838462399
 H         -5.2415955607       -0.0117327629       -2.0914091518
 H         -5.0769851722       -2.4824219999       -1.9069900801
 H         -2.9846830984       -1.1555261510       -2.1203664600
 H         -2.7133023588       -2.5914871646       -1.1253866156
 H         -2.7590430560       -0.8265545396        2.1460100597
 H         -2.5819832594       -2.3999194603        1.3592157919
 H         -3.2435949481        1.0946121084       -1.0174646778
 H         -3.1502579098        1.2309186086        0.7446551578
 H         -1.0111552377        0.4340974388       -0.1923704629
 H          5.2979304954       -0.1144774417       -0.5014272816
 H          5.9480040809       -2.4904558209       -0.3719519450
 H          4.2790034735       -4.2568845311       -0.1502790974
 H          1.8495287243       -3.7160429708       -0.0512702157
 H          2.2574518643        2.5656052181       -0.8042610736
 H          3.8792142203        1.9218117278       -1.1821271486
 H          2.7202985180        2.4946413499        1.5883079851
 H          4.1838992925        1.5494621460        1.3222059224
 H          5.0392718022        3.6401850430       -0.0117661831
 H          5.0877140125        3.6199282589        1.7468985100
 H          2.9516651683        4.9207327688        1.8161550257
 H          4.3384594959        5.7619563586        1.1215686863
 H          2.5974391499        6.3680277696       -0.3149769037
 H          3.3190992167        4.9891038533       -1.2012261622
  58
        -82.23248957
 C         -4.8981853538       -2.0686363988        0.1011927174
 C         -4.3780372224       -1.1934857666        1.2403708048
 C         -4.9772692841        0.2076720054        1.1259240724
 C         -4.5737346032        0.8229298419       -0.2131987460
 C         -5.0960298022       -0.0490908248       -1.3541600285
 C         -4.4965592060       -1.4499878953       -1.2367060628
 C         -2.9741563598       -1.3640740525       -1.3215782458
 C         -2.4480446895       -0.4871118482       -0.1799828270
 C         -2.8554803439       -1.1066088819        1.1615161409
 C         -3.0497290426        0.9136652521       -0.2953110355
 N         -0.9986131202       -0.3699152616       -0.2605672545
 C         -0.1167745380       -1.3888494727       -0.1838275392
 O         -0.4133878886       -2.5639149741       -0.0521867379
 C          1.2842218172       -0.9289559188       -0.2689368849
 N          1.6028707642        0.3418906505       -0.4436006342
 N          2.9348216883        0.4379742050       -0.4693279432
 C          3.5207945589       -0.7764523944       -0.2924752142
 C          4.8558457177       -1.1710092404       -0.2339262755
 C          5.1029455894       -2.5110271892       -0.0506040944
 C          4.0651454164       -3.4471819292        0.0723543072
 C          2.7458625844       -3.0695386725        0.0172075740
 C          2.4669365109       -1.7145897873       -0.1666341988
 C          3.5381857074        1.7379910178       -0.5705811388
 C          3.4443963027        2.4916954110        0.7667832666
 C          3.2562914292        4.0009825584        0.6155042785
 C          1.9965859978        4.4214984088       -0.1522725627
 C          0.7289363998        3.7134029767        0.3091753328
 F          0.5161864432        3.9173405161        1.6534115881
 H         -5.9858304686       -2.1521524175        0.1617074327
 H         -4.4770833902       -3.0721937426        0.1848579856
 H         -4.6641347598       -1.6353320428        2.2011970742
 H         -4.6197237104        0.8341824621        1.9462995044
 H         -6.0660090301        0.1543440706        1.1953581669
 H         -4.9994973358        1.8296349360       -0.2968831990
 H         -6.1858172373       -0.1052170167       -1.3075222850
 H         -4.8247817471        0.3931448951       -2.3157682645
 H         -4.8682027194       -2.0757528733       -2.0557269032
 H         -2.6704585257       -0.9348801595       -2.2798051929
 H         -2.5306274493       -2.3564869586       -1.2380701617
 H         -2.4670245782       -0.4927017631        1.9779020075
 H         -2.4122174493       -2.0994090191        1.2419411629
 H         -2.7546903266        1.3630726950       -1.2473993352
 H         -2.6703823829        1.5443708828        0.5129045023
 H         -0.6034450765        0.5509027463       -0.3741893638
 H          5.6616286155       -0.4582608903       -0.3250048589
 H          6.1248467017       -2.8572259479        0.0018736579
 H          4.3206353072       -4.4866678869        0.2143593178
 H          1.9356774660       -3.7742931599        0.1099165914
 H          2.9988899812        2.2835107325       -1.3481545357
 H          4.5755293087        1.6172489709       -0.8860898801
 H          2.6046301806        2.0868995367        1.3331573859
 H          4.3448207397        2.3072406337        1.3553399246
 H          4.1253460975        4.4332783930        0.1149381160
 H          3.2041899241        4.4265629647        1.6191465961
 H          1.8662039057        5.4980696003       -0.0253129725
 H          2.1062910107        4.2281264104       -1.2203911823
 H         -0.1497118745        4.1140284041       -0.2080059286
 H          0.7875310847        2.6308424426        0.1572779984
  58
        -82.23246778
 C         -5.6610223934       -1.0640161840       -0.9811055335
 C         -4.8676944790       -2.3246999356       -0.6395162461
 C         -5.1848696141       -2.7582215764        0.7906756612
 C         -4.8026480806       -1.6375191501        1.7559984382
 C         -5.5957762101       -0.3759577151        1.4171373192
 C         -5.2757166825        0.0541907646       -0.0137002181
 C         -3.7798373969        0.3451273342       -0.1378726113
 C         -2.9839234492       -0.9150182838        0.2020881699
 C         -3.3728841337       -2.0386715733       -0.7653620715
 C         -3.3076738826       -1.3499280428        1.6359832497
 N         -1.5647574795       -0.6113893966        0.0766950834
 C         -0.5537879941       -1.4777640472        0.2953700621
 O         -0.6892403825       -2.6428301739        0.6296095609
 C          0.7732120233       -0.8650294755        0.0865055498
 N          0.9269102948        0.3996360232       -0.2649598217
 N          2.2329930947        0.6416357107       -0.3824464657
 C          2.9699941382       -0.4657268218       -0.0931562807
 C          4.3442211574       -0.6942513413       -0.0782036850
 C          4.7619299178       -1.9615534649        0.2545648096
 C          3.8530253671       -2.9837455025        0.5655040247
 C          2.4961566521       -2.7695027649        0.5509210279
 C          2.0456494837       -1.4918014722        0.2172082679
 C          2.7106047611        1.9617160666       -0.6852678684
 C          3.0949454420        2.7133315234        0.5936451731
 C          3.4707222320        4.1758202295        0.3606396906
 C          4.7535347836        4.3764316257       -0.4584940682
 C          4.4880291116        4.6467427210       -1.9338360039
 F          3.8253234025        5.8427512079       -2.0819531505
 H         -6.7318733671       -1.2656491633       -0.9057390091
 H         -5.4497933890       -0.7573571665       -2.0082174205
 H         -5.1405424128       -3.1269366592       -1.3340893914
 H         -4.6246240211       -3.6625703998        1.0349334873
 H         -6.2496599865       -2.9841768448        0.8844280886
 H         -5.0287584383       -1.9459361237        2.7827659054
 H         -6.6660360926       -0.5713780683        1.5140042371
 H         -5.3376137198        0.4251858428        2.1136767317
 H         -5.8404864281        0.9612910024       -0.2585407010
 H         -3.4999697036        1.1520129263        0.5443534980
 H         -3.5461576308        0.6637053864       -1.1570195998
 H         -2.7926416750       -2.9294982157       -0.5240343919
 H         -3.1278707878       -1.7390817025       -1.7874435565
 H         -3.0159598357       -0.5580524533        2.3304944011
 H         -2.7275589570       -2.2416677334        1.8743030658
 H         -1.2966413862        0.3227437815       -0.1940331896
 H          5.0510332202        0.0861671259       -0.3177259860
 H          5.8195826981       -2.1801513773        0.2788523724
 H          4.2397101521       -3.9592488832        0.8202538026
 H          1.7837584952       -3.5437057333        0.7849167307
 H          1.9022105700        2.4880767733       -1.1983061951
 H          3.5704217496        1.8696887643       -1.3542179285
 H          2.2409787137        2.6763465544        1.2737137763
 H          3.9256126227        2.1941559714        1.0776187535
 H          3.6029356017        4.6393105684        1.3394807644
 H          2.6468493028        4.6940354192       -0.1328851381
 H          5.3026213794        5.2343630514       -0.0664795132
 H          5.4006032698        3.5021565346       -0.3766993480
 H          5.4240811272        4.7396470546       -2.4948884834
 H          3.8510918780        3.8866171876       -2.3946326266
  58
        -82.23244528
 C         -5.2614561196       -0.8152306621        1.4029650355
 C         -4.8471641200        0.3362934900        0.4880692503
 C         -5.2724196097        0.0268212166       -0.9465383591
 C         -4.5921792816       -1.2608766417       -1.4097243293
 C         -5.0036462591       -2.4150298672       -0.4972863797
 C         -4.5811493899       -2.1018890336        0.9370835411
 C         -3.0649623658       -1.9291170076        0.9951080893
 C         -2.6467182801       -0.7724547275        0.0802841890
 C         -3.3296239691        0.5140314214        0.5445844715
 C         -3.0759717982       -1.0861949149       -1.3574669321
 N         -1.2042911696       -0.5770155017        0.1434696044
 C         -0.2718655318       -1.4960289141       -0.1826538452
 O         -0.5090019721       -2.6244891154       -0.5793898971
 C          1.1060451244       -0.9935382000       -0.0096667451
 N          1.3717619595        0.2356109116        0.3966457839
 N          2.6976724194        0.3733463533        0.4612754524
 C          3.3334992460       -0.7682409307        0.0796438021
 C          4.6840524209       -1.0962232208       -0.0163279018
 C          4.9871778238       -2.3715955727       -0.4320669831
 C          3.9891305421       -3.3057832189       -0.7468464503
 C          2.6548276019       -2.9926840994       -0.6537911608
 C          2.3196910980       -1.7045507774       -0.2349233560
 C          3.2784447386        1.6404633374        0.8030200374
 C          3.6406778873        2.4422347457       -0.4539329096
 C          4.1100396845        3.8670208679       -0.1346164070
 C          3.0186431791        4.9267062570       -0.2831263810
 C          1.8621276451        4.7498420322        0.6908964899
 F          1.0058050663        5.8217966786        0.5934400074
 H         -6.3465860323       -0.9367318722        1.3763617231
 H         -4.9747954820       -0.5939882406        2.4337423437
 H         -5.3304929984        1.2617453153        0.8219320983
 H         -4.9937149508        0.8533945174       -1.6043101724
 H         -6.3576329025       -0.0871673914       -0.9941566965
 H         -4.8937176855       -1.4829685702       -2.4393950702
 H         -6.0854780734       -2.5599121030       -0.5441420614
 H         -4.5243509888       -3.3375034886       -0.8300931282
 H         -4.8746282969       -2.9284127607        1.5937140461
 H         -2.5647348203       -2.8397708145        0.6650148913
 H         -2.7454349427       -1.7167389682        2.0184700405
 H         -3.0285397390        1.3439803418       -0.0998534211
 H         -3.0202696008        0.7463105622        1.5669147360
 H         -2.5756712715       -1.9978328890       -1.6848621487
 H         -2.7645533686       -0.2712716768       -2.0157916742
 H         -0.8560470516        0.3165531220        0.4562131823
 H          5.4581605360       -0.3834334757        0.2251294666
 H          6.0226295998       -2.6663767299       -0.5206108225
 H          4.2876100419       -4.2924386090       -1.0684110602
 H          1.8750262498       -3.6981966247       -0.8899922659
 H          4.1731830400        1.4668931202        1.4080805119
 H          2.5436858505        2.1782478324        1.4042040136
 H          4.4274811567        1.9022209326       -0.9841458335
 H          2.7707668438        2.4764717417       -1.1120851938
 H          4.9189883383        4.1361258605       -0.8153841886
 H          4.5144065102        3.8993053185        0.8793840697
 H          3.4541484593        5.9135662446       -0.1108081663
 H          2.6263716761        4.9118699907       -1.3019632093
 H          1.2644111659        3.8606587016        0.4688241889
 H          2.2112085662        4.7256425579        1.7291851512
  58
        -82.23223917
 C         -5.4285883927       -0.7233328473       -1.1994044610
 C         -4.6894637945       -2.0499178843       -1.0283697412
 C         -5.1065600009       -2.7031860958        0.2881436200
 C         -4.7585531877       -1.7718147763        1.4480734918
 C         -5.4977381508       -0.4448977287        1.2798942129
 C         -5.0777781488        0.2050839008       -0.0376151093
 C         -3.5703798798        0.4606329941       -0.0242123306
 C         -2.8285583592       -0.8652464961        0.1453268803
 C         -3.1831602241       -1.7989529983       -1.0175641769
 C         -3.2523839442       -1.5201984030        1.4649055838
 N         -1.3972192614       -0.5943827224        0.1544500265
 C         -0.4235420216       -1.5192881396        0.2840801465
 O         -0.6081033154       -2.7183107514        0.4087130388
 C          0.9288570879       -0.9269492102        0.2588405307
 N          1.1367277747        0.3703493904        0.1172167440
 N          2.4529877940        0.5848719861        0.1446529003
 C          3.1419634656       -0.5800858986        0.2923682581
 C          4.5056776210       -0.8536023552        0.3730884611
 C          4.8682262305       -2.1700443637        0.5373017252
 C          3.9157408565       -3.1963833133        0.6215499813
 C          2.5689035934       -2.9366053267        0.5461045826
 C          2.1737929425       -1.6089667637        0.3785247583
 C          2.9829327689        1.9042547864       -0.0543465335
 C          3.4322520153        2.1046103601       -1.5056533809
 C          4.1339045403        3.4402071104       -1.7507307265
 C          3.2344484906        4.6656816004       -1.5471094551
 C          3.4331947304        5.3197130628       -0.1856301936
 F          2.5874124681        6.3954840516       -0.0550709824
 H         -6.5066462697       -0.8975015746       -1.2212197768
 H         -5.1456358078       -0.2582415377       -2.1466536001
 H         -4.9375270939       -2.7160670177       -1.8621542060
 H         -4.5851315171       -3.6543927414        0.4094566023
 H         -6.1803500451       -2.9045330468        0.2808039661
 H         -5.0562983176       -2.2381010881        2.3937889417
 H         -6.5764175180       -0.6166084216        1.2803565844
 H         -5.2645231830        0.2203352063        2.1145555378
 H         -5.6036502445        1.1591889857       -0.1593882735
 H         -3.3144626573        1.1330191391        0.7986840785
 H         -3.2652885787        0.9355281205       -0.9602808393
 H         -2.6413087188       -2.7370350670       -0.8956175582
 H         -2.8670165176       -1.3428417993       -1.9591125502
 H         -2.9857558983       -0.8648934328        2.2979221383
 H         -2.7104581520       -2.4586525393        1.5838537134
 H         -1.0903018143        0.3622597342        0.0631619999
 H          5.2452305120       -0.0694576088        0.3107913837
 H          5.9157977818       -2.4252384995        0.6036288372
 H          4.2600293917       -4.2117273207        0.7502550598
 H          1.8235253974       -3.7123357811        0.6116177284
 H          3.8284034860        2.0507036536        0.6252989142
 H          2.1852147816        2.6041650188        0.2001331552
 H          4.1172046045        1.2951717271       -1.7691618732
 H          2.5600350850        2.0236519692       -2.1572662874
 H          4.4959557290        3.4346662616       -2.7797928851
 H          5.0077896616        3.5167970717       -1.0998717597
 H          3.4515447124        5.4184437844       -2.3070795781
 H          2.1852209113        4.3865964306       -1.6566273054
 H          3.2035807505        4.6428323410        0.6424916369
 H          4.4512507996        5.7083948434       -0.0745996101
  58
        -82.23215412
 C         -5.2308047670       -2.8870567022        0.2534337733
 C         -4.7929119693       -2.1055443345        1.4909521624
 C         -5.5965784275       -0.8094849518        1.5898829973
 C         -5.3497491990        0.0357786803        0.3411404745
 C         -5.7907793030       -0.7427247243       -0.8974681536
 C         -4.9869897371       -2.0389085385       -0.9936166266
 C         -3.4994345052       -1.7117542856       -1.1039829451
 C         -3.0546019383       -0.9278995217        0.1360464406
 C         -3.3048832549       -1.7784818621        1.3865399352
 C         -3.8609892021        0.3672159358        0.2337296973
 N         -1.6424736879       -0.5849015093        0.0350312711
 C         -0.6255557352       -1.4661364887       -0.0676402920
 O         -0.7492313695       -2.6792238545       -0.0840855414
 C          0.6910234224       -0.8044900949       -0.1596247061
 N          0.8315140312        0.5095219145       -0.1363016257
 N          2.1307971920        0.7891604335       -0.2497487731
 C          2.8768788344       -0.3465513204       -0.3349326887
 C          4.2486023191       -0.5544138819       -0.4613875902
 C          4.6768978254       -1.8591940631       -0.5343070270
 C          3.7809062956       -2.9374228170       -0.4849418747
 C          2.4265232339       -2.7429982813       -0.3628956334
 C          1.9653769954       -1.4282720800       -0.2860207064
 C          2.5970871602        2.1454886090       -0.1833287109
 C          3.0405975712        2.5046545340        1.2389342103
 C          3.4201272691        3.9753568635        1.4100025543
 C          4.6516797939        4.4011002867        0.6006514131
 C          4.2834236788        5.1213093038       -0.6903529090
 F          5.4222887002        5.4313058050       -1.3952065660
 H         -6.2903081329       -3.1426000270        0.3293410774
 H         -4.6629752582       -3.8166389531        0.1841434969
 H         -4.9663235542       -2.7117617595        2.3869807293
 H         -5.2983890000       -0.2529385775        2.4815333981
 H         -6.6612492325       -1.0368849224        1.6780857229
 H         -5.9221040069        0.9681914907        0.4108579291
 H         -6.8571960944       -0.9695302896       -0.8314669361
 H         -5.6321402423       -0.1382247438       -1.7936092189
 H         -5.2998984485       -2.5971914222       -1.8828972583
 H         -3.3067335960       -1.1153361687       -1.9993263252
 H         -2.9118421496       -2.6274626824       -1.1727388451
 H         -2.9732175966       -1.2296580211        2.2715924583
 H         -2.7174279527       -2.6939841124        1.3145403414
 H         -3.6795588981        0.9809628940       -0.6524437300
 H         -3.5415706302        0.9337178364        1.1123623845
 H         -1.3848910952        0.3904426409        0.0323864300
 H          4.9456386823        0.2689332260       -0.5026893390
 H          5.7329565506       -2.0638862326       -0.6325198299
 H          4.1755771140       -3.9406321983       -0.5466808121
 H          1.7238406506       -3.5594227457       -0.3261622588
 H          1.7679930795        2.7884118905       -0.4889909425
 H          3.4250270735        2.2579264999       -0.8874958317
 H          2.2167702200        2.2731245731        1.9177469034
 H          3.8869328022        1.8737326048        1.5189831806
 H          3.6192732202        4.1400010113        2.4698447005
 H          2.5694157866        4.6035034229        1.1376322147
 H          5.2714684218        5.0789100087        1.1902667885
 H          5.2650633171        3.5314995878        0.3582274429
 H          3.6666812606        4.5060651647       -1.3521855081
 H          3.7740327314        6.0691467979       -0.4866966276
  58
        -82.23211344
 C         -5.6979225682       -0.7991743252        1.5774948407
 C         -5.4914266508       -0.0394985486        0.2679028707
 C         -5.9082444682       -0.9238414298       -0.9063689884
 C         -5.0547464427       -2.1914502220       -0.9134655723
 C         -5.2583627465       -2.9540254760        0.3945881610
 C         -4.8446521328       -2.0669421605        1.5675443794
 C         -3.3711961820       -1.6911335879        1.4269008693
 C         -3.1613844072       -0.9260718236        0.1152026328
 C         -4.0174046716        0.3404925711        0.1240702642
 C         -3.5818433677       -1.8158867182       -1.0600621954
 N         -1.7644532678       -0.5367346421       -0.0225799745
 C         -0.7144856161       -1.3826859934       -0.0729681963
 O         -0.7901693024       -2.5980100035       -0.0075445966
 C          0.5747651007       -0.6776811384       -0.2183891708
 N          0.6641087355        0.6394709759       -0.2750821459
 N          1.9506202967        0.9622355637       -0.4176188832
 C          2.7397234666       -0.1471995177       -0.4427426436
 C          4.1171983573       -0.3113726312       -0.5704067108
 C          4.5952955515       -1.6008120837       -0.5694794230
 C          3.7420212137       -2.7072890900       -0.4466007487
 C          2.3821363209       -2.5569320763       -0.3226954632
 C          1.8715262546       -1.2584166183       -0.3199435886
 C          2.3609101057        2.3379432182       -0.4356158907
 C          2.8297094814        2.7919870405        0.9525943706
 C          3.2533974255        4.2649706329        0.9955944283
 C          4.7551987176        4.4964664154        0.8305489256
 C          5.2880184206        4.1137358706       -0.5428513724
 F          6.5850837192        4.5489332531       -0.6766306807
 H         -6.7523331575       -1.0605299782        1.6910916992
 H         -5.4169009963       -0.1672015831        2.4232595913
 H         -6.0995459979        0.8726353502        0.2735736297
 H         -5.7782916348       -0.3815388955       -1.8458710908
 H         -6.9645596180       -1.1862867151       -0.8149979157
 H         -5.3502068764       -2.8255954231       -1.7566226324
 H         -6.3065932919       -3.2440926806        0.4979192655
 H         -4.6549045431       -3.8634948130        0.3891944204
 H         -4.9892633049       -2.6115775620        2.5071640879
 H         -2.7487333384       -2.5860944391        1.4173986422
 H         -3.0565026394       -1.0661256020        2.2664420149
 H         -3.8648698870        0.8936484783       -0.8063068294
 H         -3.7157451705        0.9822886247        0.9559576825
 H         -2.9591635669       -2.7107097443       -1.0663510508
 H         -3.4176760438       -1.2800529706       -1.9983390838
 H         -1.5448042960        0.4456903342       -0.0881484830
 H          4.7827811131        0.5331011127       -0.6675827298
 H          5.6577288235       -1.7703057566       -0.6658101847
 H          4.1744724047       -3.6966662865       -0.4523867792
 H          1.7113977541       -3.3954676689       -0.2299437070
 H          1.4929953863        2.9265834097       -0.7424616090
 H          3.1525693320        2.4590100820       -1.1785990353
 H          1.9995779083        2.6313042223        1.6433363021
 H          3.6543753346        2.1568759963        1.2814368144
 H          2.9681394559        4.6822343955        1.9624620927
 H          2.7118859819        4.8224268770        0.2284660452
 H          4.9680735053        5.5571852042        0.9821845348
 H          5.3025486483        3.9380300050        1.5927300126
 H          5.3159312804        3.0301514307       -0.6917128403
 H          4.7145464065        4.5921278171       -1.3444879385
  58
        -82.23199523
 C         -5.4093740162       -1.0810698707       -1.3484971800
 C         -4.7013270155       -2.3090458151       -0.7773785320
 C         -5.1260489424       -2.5162255413        0.6754094071
 C         -4.7485340071       -1.2828550035        1.4940319811
 C         -5.4565418262       -0.0536203062        0.9255736097
 C         -5.0292265381        0.1500588570       -0.5272228620
 C         -3.5160547255        0.3599093873       -0.5906591337
 C         -2.8052181828       -0.8679252571       -0.0211261417
 C         -3.1893759396       -2.1042994967       -0.8418389024
 C         -3.2367050627       -1.0756940273        1.4350947095
 N         -1.3680336918       -0.6421919938       -0.0929781339
 C         -0.4147803490       -1.5062139395        0.3155870493
 O         -0.6272573240       -2.6033047408        0.8035978419
 C          0.9496533747       -0.9820332736        0.1104537458
 N          1.1806860165        0.2048316503       -0.4245640615
 N          2.4999819388        0.3902636074       -0.4677442454
 C          3.1671313293       -0.6848790184        0.0360500962
 C          4.5266163569       -0.9483996476        0.1898479658
 C          4.8666639218       -2.1577128785        0.7495760055
 C          3.8963425704       -3.0890593879        1.1486287361
 C          2.5538776000       -2.8390601556        0.9997376150
 C          2.1812238335       -1.6188973178        0.4343779233
 C          3.0875148618        1.5854429324       -1.0183734305
 C          2.0371496302        2.6779959102       -1.1926121589
 C          2.5864090017        3.9261217895       -1.8834199423
 C          3.7133078851        4.6367112267       -1.1341153115
 C          3.2859754828        5.1347671739        0.2399489504
 F          4.2835222038        5.9075956249        0.7857460959
 H         -6.4914222821       -1.2266546731       -1.3174118698
 H         -5.1211503057       -0.9362240179       -2.3923428031
 H         -4.9704964863       -3.1924510917       -1.3668629894
 H         -4.6269436730       -3.3968598693        1.0836610945
 H         -6.2043947668       -2.6833731818        0.7285271588
 H         -5.0516230892       -1.4288357632        2.5367146037
 H         -6.5390124400       -0.1899382057        0.9769814686
 H         -5.2021703632        0.8296404218        1.5161702271
 H         -5.5327586091        1.0335352392       -0.9368334097
 H         -3.2387595760        1.2458925542       -0.0134864223
 H         -3.2053585082        0.5167945319       -1.6269129891
 H         -2.6693846319       -2.9726370864       -0.4368476083
 H         -2.8680131137       -1.9672847594       -1.8774267670
 H         -2.9491243299       -0.2033313998        2.0273651058
 H         -2.7166981536       -1.9455494277        1.8368380484
 H         -1.0383513673        0.2307302584       -0.4761934095
 H          5.2787620427       -0.2379520409       -0.1181796390
 H          5.9099327648       -2.4020033220        0.8862885828
 H          4.2234082215       -4.0226376615        1.5816099681
 H          1.7953362436       -3.5433605512        1.3001412607
 H          3.5430416789        1.3508669119       -1.9897159566
 H          3.8806092688        1.9120630737       -0.3385534549
 H          1.2250337204        2.2719406400       -1.7971240882
 H          1.6193349253        2.9324241641       -0.2183015795
 H          1.7621579144        4.6281568056       -2.0255978483
 H          2.9561753929        3.6486801121       -2.8728245314
 H          4.5780159938        3.9807476681       -1.0245144073
 H          4.0333536895        5.5020211694       -1.7188809902
 H          2.3960270352        5.7699380457        0.1762180264
 H          3.1119955045        4.3169409557        0.9456508171
  58
        -82.23190404
 C         -5.4475033665        0.2737824643       -0.5218785429
 C         -4.7352867610       -0.9788255060       -1.0309709512
 C         -5.1056173848       -2.1720832461       -0.1517902888
 C         -4.6786656744       -1.8919905655        1.2880763704
 C         -5.3905610067       -0.6403212061        1.7999050213
 C         -5.0177072799        0.5505076467        0.9180511155
 C         -3.5053421006        0.7697028132        0.9671301892
 C         -2.7905800678       -0.4817283990        0.4570386497
 C         -3.2242534731       -0.7625229644       -0.9861382090
 C         -3.1675163142       -1.6779041036        1.3385594801
 N         -1.3542295800       -0.2468700782        0.5141369261
 C         -0.3989602314       -1.1265373007        0.1471627067
 O         -0.6073098392       -2.2443539672       -0.2929697129
 C          0.9645051900       -0.5919169188        0.3352302629
 N          1.1943796178        0.6025677056        0.8499741255
 N          2.5142135057        0.7945192607        0.8826192830
 C          3.1829471114       -0.2880122378        0.3974379420
 C          4.5420249738       -0.5602918167        0.2456322860
 C          4.8788611391       -1.7760204237       -0.3021215617
 C          3.9070490239       -2.7099380027       -0.6898917190
 C          2.5658300138       -2.4564280189       -0.5368158319
 C          2.1967383872       -1.2297246124        0.0158255604
 C          3.0677777283        2.0132405470        1.4102567198
 C          2.2775170541        3.2350284229        0.9397267894
 C          2.2546730708        3.4162974680       -0.5782919442
 C          3.6338685338        3.6936662277       -1.1960461606
 C          4.2005496084        2.4930776255       -1.9432422156
 F          3.4488355339        2.2424762338       -3.0668251317
 H         -6.5295066996        0.1304086977       -0.5637845504
 H         -5.1983314282        1.1279678250       -1.1558122425
 H         -5.0400422187       -1.1771780366       -2.0644558258
 H         -4.6035809998       -3.0696145929       -0.5174886363
 H         -6.1833612214       -2.3463021943       -0.1939821531
 H         -4.9427367444       -2.7464883877        1.9210015620
 H         -6.4720703954       -0.7917991468        1.7788664915
 H         -5.1004338248       -0.4431222611        2.8346452017
 H         -5.5241656565        1.4508853983        1.2850645102
 H         -3.1929944751        0.9789912185        1.9936267499
 H         -3.2333906112        1.6271008184        0.3460235602
 H         -2.7014540810       -1.6487312283       -1.3462997600
 H         -2.9418206660        0.0808293804       -1.6211740629
 H         -2.8443864991       -1.4888697848        2.3654398140
 H         -2.6448692925       -2.5630122090        0.9753365922
 H         -1.0273091405        0.6392146537        0.8685570147
 H          5.3020090635        0.1448035450        0.5501491432
 H          5.9218697960       -2.0225968191       -0.4366913536
 H          4.2317716289       -3.6478900510       -1.1148172353
 H          1.8046351374       -3.1631184243       -0.8244333306
 H          4.1092315357        2.0759328810        1.0887788542
 H          3.0479593423        1.9767915100        2.5072296734
 H          1.2506678197        3.1267176308        1.2908987588
 H          2.7076344985        4.1218061095        1.4092932601
 H          1.5869631989        4.2499019174       -0.7998770701
 H          1.8209863571        2.5298227283       -1.0434790390
 H          3.5590857646        4.5147580549       -1.9109303501
 H          4.3470807284        3.9908464928       -0.4256485417
 H          5.2215945497        2.6850998523       -2.2911746379
 H          4.1759134317        1.5747491170       -1.3493453780
  58
        -82.23188732
 C         -5.3795353043       -1.1574575010       -1.4218223470
 C         -4.6762434110       -2.1679432209       -0.5163754218
 C         -5.0830379453       -1.9248286857        0.9360057002
 C         -4.6818380872       -0.5082696309        1.3438942498
 C         -5.3850838465        0.5041760499        0.4406557950
 C         -4.9757820873        0.2577197280       -1.0107084178
 C         -3.4616240844        0.4181249348       -1.1492538888
 C         -2.7556609654       -0.5928101600       -0.2454699561
 C         -3.1632957992       -2.0127896184       -0.6544212605
 C         -3.1690050729       -0.3491103972        1.2103982733
 N         -1.3175548949       -0.4178435296       -0.3953580462
 C         -0.3675922286       -1.1281480101        0.2480863727
 O         -0.5823754224       -2.0235472666        1.0473121148
 C          0.9987211441       -0.7030422832       -0.1162233003
 N          1.2335553102        0.2276954277       -1.0235578665
 N          2.5535828613        0.3965107111       -1.1144105377
 C          3.2177054031       -0.4383623081       -0.2678692934
 C          4.5753319196       -0.6317491429       -0.0159408171
 C          4.9074057414       -1.5685335555        0.9346017629
 C          3.9321977834       -2.3050864865        1.6227762575
 C          2.5923078563       -2.1279757184        1.3778824735
 C          2.2279544570       -1.1827183338        0.4186168006
 C          3.1157128343        1.3434694909       -2.0405742632
 C          2.2850717893        2.6255667483       -2.1030930177
 C          2.1604113882        3.3567636612       -0.7659732545
 C          3.4942149435        3.8743033282       -0.2068119787
 C          4.0253291952        3.0256480704        0.9416380931
 F          3.2019012936        3.1501657275        2.0356769224
 H         -6.4624889180       -1.2722217801       -1.3376924139
 H         -5.1042120464       -1.3356330546       -2.4640281825
 H         -4.9625963460       -3.1835127800       -0.8115865847
 H         -4.5873311878       -2.6496894427        1.5842388709
 H         -6.1622051367       -2.0536426233        1.0475348348
 H         -4.9719493361       -0.3312890329        2.3854439106
 H         -6.4681273293        0.4046177080        0.5414941404
 H         -5.1133613964        1.5199908030        0.7370721001
 H         -5.4759813940        0.9848905129       -1.6610420306
 H         -3.1675057733        1.4321515441       -0.8662363244
 H         -3.1636678238        0.2535837000       -2.1881046620
 H         -2.6466641587       -2.7271642948       -0.0131134212
 H         -2.8548981494       -2.1965899683       -1.6867394486
 H         -2.8642442755        0.6562982311        1.5112987989
 H         -2.6525196590       -1.0657843816        1.8491900252
 H         -0.9850856949        0.2876645503       -1.0351907088
 H          5.3371742835       -0.0777155038       -0.5450878060
 H          5.9491165210       -1.7457855475        1.1587027163
 H          4.2532068036       -3.0268907319        2.3587762995
 H          1.8287860246       -2.6866447357        1.8940683932
 H          3.1550235786        0.8950779653       -3.0420346026
 H          4.1381932499        1.5580819578       -1.7227103306
 H          2.7375641906        3.2883203047       -2.8433778592
 H          1.2841169319        2.3625364379       -2.4470296281
 H          1.6923759848        2.6976249342       -0.0334034578
 H          1.4828739201        4.1986430073       -0.9149794736
 H          4.2515818519        3.9105819036       -0.9914209619
 H          3.3639036915        4.8887027581        0.1739429420
 H          4.0549238514        1.9586505560        0.7028337109
 H          5.0173401888        3.3633300249        1.2614374304
  58
        -82.23185006
 C         -5.2832997727       -0.1914984936        1.0907353403
 C         -4.8850775168        0.3222068428       -0.2921045802
 C         -5.3187483544       -0.6858029116       -1.3553825918
 C         -4.6317591663       -2.0254487685       -1.0931642700
 C         -5.0273496409       -2.5426163775        0.2888645391
 C         -4.5964199156       -1.5317654733        1.3501719375
 C         -3.0812365248       -1.3496213340        1.2945216622
 C         -2.6788967955       -0.8312583393       -0.0908784388
 C         -3.3686210722        0.5079269748       -0.3515841288
 C         -3.1166829340       -1.8444420457       -1.1546712767
 N         -1.2380263275       -0.6268600767       -0.1531234797
 C         -0.3001118790       -1.5814428742        0.0214728631
 O         -0.5309704224       -2.7550656214        0.2593622070
 C          1.0732458300       -1.0558724683       -0.1068905997
 N          1.3247892018        0.2176509205       -0.3575153668
 N          2.6467982781        0.3768557937       -0.4100341414
 C          3.2953494340       -0.8017829342       -0.1992972395
 C          4.6500850302       -1.1254915101       -0.1666623738
 C          4.9699800094       -2.4401315133        0.0799998337
 C          3.9842525576       -3.4162607588        0.2890036791
 C          2.6461793920       -3.1070663863        0.2573549825
 C          2.2938465666       -1.7799008660        0.0091473112
 C          3.2530248130        1.6550945637       -0.6837001239
 C          2.2181466077        2.7742958596       -0.6226776527
 C          2.8155057993        4.1452706874       -0.9370496056
 C          3.7331401399        4.7062858889        0.1530086613
 C          2.9678380376        5.1712650627        1.3844407719
 F          2.1505420950        6.2299285761        1.0650897887
 H         -6.3676125077       -0.3123523768        1.1422447581
 H         -4.9906418939        0.5318268429        1.8554218247
 H         -5.3733798568        1.2855661872       -0.4796620462
 H         -5.0515177564       -0.3177773844       -2.3487454300
 H         -6.4033958300       -0.8110883732       -1.3257882462
 H         -4.9392579269       -2.7489108728       -1.8563793487
 H         -6.1083585802       -2.6938789242        0.3350868752
 H         -4.5433519938       -3.5029010201        0.4758696596
 H         -4.8786572317       -1.9004048621        2.3426012311
 H         -2.5761296393       -2.2983331908        1.4771277376
 H         -2.7557351951       -0.6379234449        2.0574310517
 H         -3.0784445133        0.8855248618       -1.3354778181
 H         -3.0533654759        1.2365243343        0.3997972385
 H         -2.6115989773       -2.7925015156       -0.9688117085
 H         -2.8163584497       -1.4864759927       -2.1426756330
 H         -0.8936088235        0.3022759969       -0.3423933118
 H          5.4133088062       -0.3796040133       -0.3302478766
 H          6.0089196565       -2.7340505289        0.1132918958
 H          4.2956272600       -4.4328859373        0.4776745185
 H          1.8760973397       -3.8445272820        0.4148579238
 H          3.7143750018        1.6294391605       -1.6797913641
 H          4.0467382107        1.8167136067        0.0536147293
 H          1.4364047890        2.5521275619       -1.3499271810
 H          1.7519487383        2.7725612972        0.3627723927
 H          2.0018905928        4.8560101727       -1.0914543109
 H          3.3775611631        4.0799136051       -1.8710093638
 H          4.4681612542        3.9649905081        0.4667731212
 H          4.2727624257        5.5651630771       -0.2509284467
 H          2.3189018471        4.3895125816        1.7900900631
 H          3.6487247493        5.5280855205        2.1641184763
  58
        -82.23184023
 C         -5.3451345439        0.4725409582        0.7364392886
 C         -4.9769260186        0.5266699102       -0.7455498326
 C         -5.3992402083       -0.7756161850       -1.4240696648
 C         -4.6764797994       -1.9486615033       -0.7629353507
 C         -5.0417755654       -2.0062222644        0.7193604903
 C         -4.6223757136       -0.7018726936        1.3951222951
 C         -3.1130599471       -0.5177584228        1.2543014804
 C         -2.7406622568       -0.4602401909       -0.2316475966
 C         -3.4663579932        0.7127965137       -0.8909917858
 C         -3.1672601959       -1.7676686751       -0.9088718936
 N         -1.3064328562       -0.2580858194       -0.3820804392
 C         -0.3425762225       -1.0891714408        0.0716272363
 O         -0.5460038226       -2.1236345065        0.6849037818
 C          1.0145041305       -0.6080335314       -0.2462063660
 N          1.2290648684        0.5314078796       -0.8848355699
 N          2.5464456410        0.7024586523       -0.9992729282
 C          3.2286660758       -0.3397173605       -0.4519151870
 C          4.5909413579       -0.6134971867       -0.3461465605
 C          4.9449881117       -1.7789501387        0.2899823542
 C          3.9872143191       -2.6635444333        0.8095421013
 C          2.6425614622       -2.4066696438        0.7075126054
 C          2.2557657004       -1.2287847309        0.0660598261
 C          3.0924835408        1.8427040818       -1.6897362849
 C          2.2562691860        3.1092484791       -1.4872871837
 C          2.5441120873        3.8510789288       -0.1804520841
 C          2.1189491116        3.0838606656        1.0842402703
 C          3.3021777003        2.7344862713        1.9768844781
 F          4.2533329351        2.0244867127        1.2816710281
 H         -6.4254607316        0.3535365038        0.8449750010
 H         -5.0607644560        1.4073021331        1.2255153222
 H         -5.4910709563        1.3706382132       -1.2202061803
 H         -5.1536083592       -0.7380760032       -2.4879800085
 H         -6.4800846648       -0.9055743452       -1.3347618046
 H         -4.9760445066       -2.8831689989       -1.2501326370
 H         -6.1180908508       -2.1558362457        0.8327918125
 H         -4.5318218949       -2.8473173730        1.1924972754
 H         -4.8829162475       -0.7405162230        2.4586808352
 H         -2.5823863706       -1.3488346911        1.7191630783
 H         -2.7954552645        0.4062033857        1.7443850757
 H         -3.1980814883        0.7630142148       -1.9495117527
 H         -3.1594115564        1.6486535805       -0.4165457489
 H         -2.6365509528       -2.5970373178       -0.4408668410
 H         -2.8882310199       -1.7375617796       -1.9651582239
 H         -0.9876653932        0.5547273355       -0.8871945580
 H          5.3355329814        0.0618222474       -0.7365905896
 H          5.9912768635       -2.0261424657        0.3951023632
 H          4.3261685539       -3.5646048409        1.2992133850
 H          1.8919517694       -3.0734529787        1.0999586950
 H          3.1401715690        1.6132886789       -2.7626181304
 H          4.1091877629        1.9947425722       -1.3219270308
 H          2.4695757506        3.7864903736       -2.3163908242
 H          1.2013506175        2.8371010902       -1.5349836623
 H          2.0225179098        4.8090174848       -0.2174723897
 H          3.6134394752        4.0670569078       -0.1310010282
 H          1.4343142372        3.6830857885        1.6857018636
 H          1.5943384934        2.1704734220        0.8082735607
 H          3.8049393500        3.6355913460        2.3451564453
 H          2.9973473250        2.1062184199        2.8195789331
  58
        -82.23151139
 C         -5.2798461804        0.5840112616        0.5996331773
 C         -4.8953756457        0.5722224212       -0.8791400420
 C         -5.3264299147       -0.7519445316       -1.5080144931
 C         -4.6253453927       -1.9050622260       -0.7908747033
 C         -5.0071468408       -1.8966428993        0.6883610191
 C         -4.5786718268       -0.5705611536        1.3143582540
 C         -3.0656691545       -0.4106864243        1.1832374594
 C         -2.6774386484       -0.4192976803       -0.2995362100
 C         -3.3810915122        0.7340885214       -1.0149793522
 C         -3.1124368738       -1.7484339287       -0.9273185187
 N         -1.2388021469       -0.2402287738       -0.4424448176
 C         -0.2917067870       -1.0633787825        0.0555201216
 O         -0.5119081159       -2.0717624976        0.7038348223
 C          1.0771707787       -0.6145527366       -0.2683467618
 N          1.3189337274        0.4506441312       -1.0117063288
 N          2.6420730694        0.5986882760       -1.1093743111
 C          3.2989376861       -0.3909745347       -0.4423540747
 C          4.6553774211       -0.6621687312       -0.2682101799
 C          4.9801397071       -1.7564582091        0.4987186106
 C          3.9988883745       -2.5711915401        1.0823056419
 C          2.6599065316       -2.3165105675        0.9134605061
 C          2.3031272632       -1.2124452156        0.1388473092
 C          3.2116846888        1.6461547547       -1.9165196019
 C          2.4395224942        2.9611402472       -1.7971509476
 C          2.7360312927        3.7751998899       -0.5359630400
 C          2.2293272409        3.1476664718        0.7698478600
 C          3.3440434685        2.4917657045        1.5744282488
 F          2.8400482591        1.9894779725        2.7498786500
 H         -6.3626662320        0.4826380782        0.7009102297
 H         -4.9889746822        1.5346331294        1.0527492946
 H         -5.3938301262        1.4018238399       -1.3941584924
 H         -5.0690386627       -0.7615488013       -2.5698153451
 H         -6.4096656505       -0.8652088486       -1.4255134845
 H         -4.9311557552       -2.8553528212       -1.2424374395
 H         -6.0863882234       -2.0284803256        0.7956829044
 H         -4.5129148960       -2.7234601442        1.2015793015
 H         -4.8508398830       -0.5619145491        2.3755185364
 H         -2.5506812101       -1.2279584066        1.6883563160
 H         -2.7415056851        0.5283707887        1.6385994206
 H         -3.1008587383        0.7374143163       -2.0717107698
 H         -3.0680755623        1.6848744657       -0.5756552612
 H         -2.5975276506       -2.5642325688       -0.4195393478
 H         -2.8219580780       -1.7654604066       -1.9809019872
 H         -0.9064597639        0.5462048932       -0.9794293601
 H          5.4207421313       -0.0446423060       -0.7152201976
 H          6.0207676691       -1.9982601727        0.6581786137
 H          4.3145702137       -3.4154980103        1.6765888251
 H          1.8916066113       -2.9307175333        1.3537315984
 H          3.2031479676        1.3252730102       -2.9667079820
 H          4.2511717114        1.7833331412       -1.6094058236
 H          2.6941051743        3.5736794136       -2.6641605132
 H          1.3740412963        2.7344110665       -1.8450433416
 H          2.2597725887        4.7487186922       -0.6640619595
 H          3.8121442460        3.9511498081       -0.4637062821
 H          1.7807077441        3.9160327056        1.4025639218
 H          1.4570526466        2.4061971362        0.5612745276
 H          3.8026384982        1.6484935845        1.0506557587
 H          4.1145797059        3.2198209264        1.8535864776
  58
        -82.23150389
 C         -5.0019872334       -1.9569360775        0.2421689285
 C         -4.5414081190       -0.8487685730        1.1875940617
 C         -5.2263657482        0.4643473395        0.8107601567
 C         -4.8563468846        0.8344262424       -0.6248001327
 C         -5.3194279578       -0.2709982294       -1.5726057276
 C         -4.6346586924       -1.5834372372       -1.1929479577
 C         -3.1202934033       -1.4217366749       -1.3053375419
 C         -2.6531561200       -0.3111842446       -0.3575321090
 C         -3.0268914562       -0.6852532650        1.0811190443
 C         -3.3405464437        1.0010902470       -0.7353105661
 N         -1.2127529452       -0.1244508950       -0.4688860009
 C         -0.2766651185       -1.0622948456       -0.2103615506
 O         -0.5095377499       -2.1995340017        0.1610790517
 C          1.0973703308       -0.5651928523       -0.4224006542
 N          1.3513133375        0.6432101178       -0.8925167969
 N          2.6758109595        0.7978286947       -0.9501859064
 C          3.3214988202       -0.3274284204       -0.5340368293
 C          4.6748967788       -0.6431120003       -0.4243635711
 C          4.9874663829       -1.8906941972        0.0625510936
 C          3.9970829796       -2.8121519617        0.4331681732
 C          2.6608588605       -2.5132029515        0.3258190001
 C          2.3163878264       -1.2540846386       -0.1663394892
 C          3.2632915563        1.9975841984       -1.4882839096
 C          2.4648795735        3.2515943402       -1.1301683581
 C          2.6911562669        3.7831800251        0.2867361888
 C          2.1387317858        2.8911202131        1.4063656058
 C          3.2215825520        2.0620308695        2.0847539828
 F          2.6748417924        1.3282967332        3.1098711891
 H         -6.0825554060       -2.0943219559        0.3266920870
 H         -4.5194058363       -2.8975329713        0.5136238808
 H         -4.8031071207       -1.1142658132        2.2177387045
 H         -4.9122737195        1.2577821332        1.4929543944
 H         -6.3099734109        0.3580415395        0.8975681933
 H         -5.3431534311        1.7782316857       -0.8971569805
 H         -6.4038467508       -0.3839492447       -1.5070967886
 H         -5.0724152849       -0.0059537352       -2.6034009237
 H         -4.9636488138       -2.3767182059       -1.8733662933
 H         -2.8402634047       -1.1668351357       -2.3306910746
 H         -2.6167877002       -2.3505402413       -1.0363641414
 H         -2.6797031180        0.0959558110        1.7618387877
 H         -2.5234422895       -1.6147971658        1.3470713640
 H         -3.0705272179        1.2769655585       -1.7581808919
 H         -3.0044453306        1.7978463885       -0.0665874138
 H         -0.8710559852        0.7662396332       -0.7961957543
 H          5.4466377769        0.0567619413       -0.7094925399
 H          6.0253788311       -2.1724026519        0.1634188111
 H          4.3033332114       -3.7762587837        0.8105377644
 H          1.8857683837       -3.2078404529        0.6052671402
 H          3.3091686454        1.9071887865       -2.5818856356
 H          4.2854636152        2.0738220360       -1.1091315265
 H          2.7477806362        4.0354338463       -1.8353666189
 H          1.4065022895        3.0331915109       -1.2747592491
 H          2.2026823824        4.7574426820        0.3441122212
 H          3.7595777051        3.9494574139        0.4449892556
 H          1.6727408650        3.5083720013        2.1770450183
 H          1.3711365443        2.2222662839        1.0148246873
 H          3.6905905050        1.3430200826        1.4074936744
 H          3.9884937750        2.7020182544        2.5364000417
  58
        -82.23118657
 C         -2.7096622414        1.0495879785       -1.4070213965
 C         -3.1863830245       -0.3888599334       -1.5985152419
 C         -4.5836754493       -0.5496727281       -1.0026988804
 C         -4.5338789522       -0.2220876236        0.4883001677
 C         -4.0720689397        1.2215521320        0.6775369053
 C         -2.6745895103        1.3833714972        0.0832557569
 C         -1.7033457822        0.4404589315        0.7915546287
 C         -2.1541820752       -1.0098018483        0.5921073699
 C         -2.2168862757       -1.3429755515       -0.9026623069
 C         -3.5580615749       -1.1691718380        1.1875269770
 N         -1.2832189155       -1.9393684235        1.3023413710
 C          0.0368822166       -2.2390897382        1.2978724368
 O          0.4335874728       -3.1049900274        2.0701659995
 C          1.0083809997       -1.5680118653        0.4161971359
 N          0.7454168117       -0.7276333144       -0.5671262511
 N          1.8940981755       -0.3658749006       -1.1359744694
 C          2.9564841350       -0.9604488046       -0.5274770440
 C          4.3262060997       -0.8891869177       -0.7702926037
 C          5.1420652493       -1.6429225254        0.0405045879
 C          4.6239595311       -2.4476905969        1.0653271127
 C          3.2740137866       -2.5256125850        1.3093740250
 C          2.4220762888       -1.7713813410        0.5010567847
 C          1.9061758409        0.5914355450       -2.2057148312
 C          2.2912672037        1.9935201422       -1.7192871726
 C          1.2900811507        2.5297935421       -0.7004440454
 C          1.6269257812        3.9493078171       -0.2501874853
 C          0.5992097462        4.4730383996        0.7422531805
 F         -0.6308101718        4.5952767268        0.1388653257
 H         -3.3803077971        1.7382845831       -1.9253805846
 H         -1.7117662823        1.1645691808       -1.8341988399
 H         -3.2172632407       -0.6252624251       -2.6682888024
 H         -4.9358253417       -1.5734196152       -1.1489369378
 H         -5.2840077317        0.1203372364       -1.5061689145
 H         -5.5311066720       -0.3489521521        0.9250844277
 H         -4.7688321002        1.9023184924        0.1841180884
 H         -4.0562823158        1.4723526848        1.7405407712
 H         -2.3382556167        2.4168865998        0.2166468322
 H         -1.6686896450        0.6641707984        1.8605034139
 H         -0.7045964843        0.5602895388        0.3791573231
 H         -2.5483049287       -2.3764812807       -1.0277377468
 H         -1.2201021353       -1.2470763894       -1.3301505408
 H         -3.5307313014       -0.9458660441        2.2571668807
 H         -3.8952153193       -2.2015679805        1.0629432457
 H         -1.7644401897       -2.5265085883        1.9730133898
 H          4.7285978163       -0.2737374934       -1.5608259742
 H          6.2109963588       -1.6177601954       -0.1137742990
 H          5.3111176138       -3.0191408306        1.6714725014
 H          2.8606047987       -3.1446388283        2.0883583183
 H          0.8992747419        0.6082507332       -2.6293611722
 H          2.6103312781        0.2544826955       -2.9725542008
 H          3.2866233218        1.9599627425       -1.2708172553
 H          2.3318434556        2.6580160188       -2.5842660701
 H          1.2761930687        1.8750141469        0.1734941684
 H          0.2897481677        2.5277895662       -1.1375701013
 H          2.6070513298        3.9730404005        0.2290435013
 H          1.6513555822        4.6147373654       -1.1155441493
 H          0.4648122677        3.7846187028        1.5829267697
 H          0.8644663979        5.4690436386        1.1108188223
  58
        -82.23077118
 C         -5.2531386712       -0.0932678496        0.1837847599
 C         -4.7826421609       -0.7833803957       -1.0954143829
 C         -5.1197621335       -2.2724995541       -1.0289188390
 C         -4.4164808253       -2.8975830497        0.1749199969
 C         -4.8896271812       -2.2116880085        1.4556282371
 C         -4.5521463592       -0.7228519294        1.3863459145
 C         -3.0418261119       -0.5456527425        1.2451833175
 C         -2.5651433329       -1.2343710375       -0.0378269077
 C         -3.2729660820       -0.6064490243       -1.2433840417
 C         -2.9042304984       -2.7236739411        0.0308041191
 N         -1.1169581144       -1.0989649155       -0.1693049253
 C         -0.4505350893        0.0765436240       -0.2542730237
 O         -0.9757270351        1.1715530764       -0.2132084372
 C          1.0167043228       -0.1047101902       -0.3708397363
 N          1.7466656977        0.6932924675       -1.1197426649
 N          3.0230877114        0.3339639295       -1.0018131632
 C          3.1641395125       -0.7093448677       -0.1428883708
 C          4.2891538551       -1.4042111556        0.2970976534
 C          4.0845188657       -2.4285783969        1.1900802334
 C          2.8015351734       -2.7587200023        1.6496472106
 C          1.6861450678       -2.0820205570        1.2191037597
 C          1.8584507375       -1.0458623200        0.2974318366
 C          4.0451064121        1.1143540646       -1.6396887201
 C          4.6768266584        2.1280286609       -0.6746074439
 C          3.6445746109        2.9555796891        0.0918924198
 C          2.6913783011        3.7342904248       -0.8143880970
 C          1.7780689756        4.6381374530       -0.0023160953
 F          2.5083643703        5.6065419854        0.6547818942
 H         -6.3356543574       -0.1974251688        0.2869461535
 H         -5.0187962007        0.9716264391        0.1360205582
 H         -5.2838528028       -0.3339310130       -1.9596247519
 H         -4.7988394153       -2.7692106848       -1.9476218530
 H         -6.1996669441       -2.4064672005       -0.9362395624
 H         -4.6521784599       -3.9670626954        0.2228787628
 H         -5.9676138961       -2.3447318904        1.5693700062
 H         -4.4036097488       -2.6647983744        2.3229463316
 H         -4.8873255486       -0.2294959055        2.3052055679
 H         -2.5267127676       -0.9807946936        2.1054789693
 H         -2.7857374099        0.5126159413        1.1955598386
 H         -2.9226228400       -1.0850824994       -2.1615434934
 H         -3.0159105458        0.4518215516       -1.2924911867
 H         -2.3960268966       -3.1795156022        0.8849853721
 H         -2.5585516763       -3.2235299039       -0.8783640233
 H         -0.5914318187       -1.9497508245       -0.2916282281
 H          5.2789921906       -1.1449166261       -0.0457054700
 H          4.9298069743       -2.9909338259        1.5577900468
 H          2.6968445572       -3.5634595921        2.3620907301
 H          0.7050024608       -2.3330678605        1.5939171938
 H          3.5679644781        1.6337207482       -2.4721503534
 H          4.8150293462        0.4441122140       -2.0333541525
 H          5.2989145449        1.5955321686        0.0482818047
 H          5.3246971011        2.7874662495       -1.2545761814
 H          4.1775272383        3.6592789553        0.7346867839
 H          3.0574683554        2.2995461241        0.7385013575
 H          3.2635459927        4.3424761529       -1.5184076716
 H          2.0511635086        3.0458064549       -1.3659676751
 H          1.0664192409        5.1679734124       -0.6421483164
 H          1.2395697485        4.0741610920        0.7646632380
  58
        -82.23070766
 C         -4.7263419314       -2.0625926256        0.4727542486
 C         -4.1879697880       -1.0020221268        1.4321512965
 C         -4.7818536853        0.3593682898        1.0741409929
 C         -4.3895474680        0.7217797916       -0.3576417622
 C         -4.9244479020       -0.3365300875       -1.3209424269
 C         -4.3328554742       -1.6975918623       -0.9581495892
 C         -2.8109961481       -1.6380455342       -1.0727257435
 C         -2.2707173262       -0.5771773893       -0.1095525199
 C         -2.6646047553       -0.9396346635        1.3223937218
 C         -2.8680328424        0.7882578808       -0.4675304113
 N         -0.8131444473       -0.5306498227       -0.1794782753
 C         -0.0977710044       -0.2302904097       -1.2888595177
 O         -0.5712436057       -0.0419971960       -2.3910216405
 C          1.3588663681       -0.1676688679       -0.9984294938
 N          2.1159207316        0.8192781570       -1.4220642339
 N          3.3552954660        0.6267200414       -0.9623696889
 C          3.4322678529       -0.5065288431       -0.2137763412
 C          4.4920175561       -1.1058264792        0.4638428520
 C          4.2264988390       -2.2785610502        1.1305178347
 C          2.9486124763       -2.8558403247        1.1286087542
 C          1.8970781712       -2.2728756556        0.4637287212
 C          2.1329659968       -1.0738409266       -0.2119773029
 C          4.3347950348        1.6642432900       -1.1074709682
 C          4.3220190177        2.6378018138        0.0821082220
 C          2.9229914615        3.2168012128        0.3304059763
 C          2.1237989404        2.4134374078        1.3608409356
 C          0.6271891434        2.6093215810        1.1699189696
 F         -0.0713385432        1.7651598230        2.0078313515
 H         -5.8138983363       -2.1199871054        0.5568242917
 H         -4.3188014145       -3.0422812325        0.7332894112
 H         -4.4641859064       -1.2631993678        2.4602116331
 H         -4.4109869620        1.1193958596        1.7655675808
 H         -5.8698093097        0.3246218255        1.1653705794
 H         -4.8125884840        1.6990251288       -0.6160235994
 H         -6.0146968974       -0.3765210205       -1.2624732544
 H         -4.6501657524       -0.0761464256       -2.3449220164
 H         -4.7156567083       -2.4583653364       -1.6474771860
 H         -2.5152256328       -1.3802740679       -2.0896482408
 H         -2.3739896423       -2.6092035291       -0.8269325862
 H         -2.2698888296       -0.1882183534        2.0110025550
 H         -2.2330258422       -1.9079755929        1.5892054801
 H         -2.5705193229        1.0516132052       -1.4831457575
 H         -2.4728260166        1.5446449442        0.2152026065
 H         -0.3307684860       -0.5385700862        0.7061277604
 H          5.4794511188       -0.6699303861        0.4622518409
 H          5.0206021558       -2.7743954039        1.6687914220
 H          2.7971109935       -3.7815707564        1.6633934224
 H          0.9171937182       -2.7256058155        0.4532474284
 H          4.0878384516        2.2050442074       -2.0237622218
 H          5.3234376783        1.2101413364       -1.2146580597
 H          4.6747740798        2.1265851878        0.9798457588
 H          5.0252237156        3.4403847998       -0.1434247469
 H          2.3770752542        3.2234927240       -0.6149712095
 H          3.0049827393        4.2491896037        0.6730324740
 H          2.3346242138        1.3475924650        1.2663645661
 H          2.4046516534        2.7092427073        2.3739338951
 H          0.3093363381        3.6273631331        1.4146112575
 H          0.3236931376        2.3541356532        0.1493792614
  58
        -82.23069035
 C         -4.9596888210        0.4681041593       -0.9080093080
 C         -4.2981106416       -0.7545805407       -1.5419021746
 C         -4.7744179733       -2.0195084473       -0.8291176800
 C         -4.3900821065       -1.9431252554        0.6480165264
 C         -5.0498798141       -0.7219146182        1.2862897044
 C         -4.5771672267        0.5419144890        0.5697367373
 C         -3.0604774549        0.6627291020        0.6995926366
 C         -2.3948624885       -0.5621820520        0.0630325784
 C         -2.7791908530       -0.6379527254       -1.4146966294
 C         -2.8724892200       -1.8292933947        0.7785858716
 N         -0.9410795024       -0.4555814065        0.1484630804
 C         -0.2381500619       -0.3617123923        1.2993601279
 O         -0.7054812369       -0.4502254877        2.4157787616
 C          1.2162851922       -0.1864359404        1.0284034728
 N          1.9081143770        0.8410210149        1.4611322355
 N          3.1662868242        0.7184714141        1.0194908608
 C          3.3199150879       -0.4163474498        0.2867155721
 C          4.4241614533       -0.9722209991       -0.3576133199
 C          4.2272578545       -2.1556469614       -1.0299407979
 C          2.9748576792       -2.7854922770       -1.0688051069
 C          1.8824567426       -2.2513123898       -0.4291557247
 C          2.0514065841       -1.0483981307        0.2578293504
 C          4.1156425387        1.7760841460        1.2231735741
 C          4.4106671026        2.5697408741       -0.0587290409
 C          3.3517989785        3.6145252811       -0.4246924268
 C          1.9414169669        3.0776310014       -0.6702242175
 C          1.8724741692        2.0963985942       -1.8315450671
 F          0.5905822881        1.6031638403       -1.9568787270
 H         -6.0449628181        0.3958873470       -1.0091228315
 H         -4.6346681161        1.3751967260       -1.4226852951
 H         -4.5677104677       -0.8081542261       -2.6030688485
 H         -4.3184885677       -2.8999154064       -1.2881345019
 H         -5.8581268044       -2.1144826385       -0.9278737006
 H         -4.7278363336       -2.8508072383        1.1604173872
 H         -6.1369388744       -0.8061293612        1.2158759736
 H         -4.7826471721       -0.6685828883        2.3432435849
 H         -5.0493234042        1.4192762823        1.0256477140
 H         -2.7712285068        0.7181463080        1.7494884933
 H         -2.7060835889        1.5674897462        0.1993906727
 H         -2.2993804662       -1.5054624399       -1.8751001596
 H         -2.4270917455        0.2585946181       -1.9312720666
 H         -2.5832818175       -1.7767950779        1.8281307029
 H         -2.3876694629       -2.7025203145        0.3348416991
 H         -0.4640832729       -0.2306256982       -0.7116365558
 H          5.3937776754       -0.4988089823       -0.3237786046
 H          5.0581097239       -2.6180351053       -1.5421559648
 H          2.8781801501       -3.7135978608       -1.6121015158
 H          0.9199900537       -2.7392291716       -0.4473905689
 H          5.0468043605        1.3397584763        1.5999571725
 H          3.6974084913        2.4318174775        1.9892286003
 H          5.3565286100        3.0957726324        0.0863445013
 H          4.5504089618        1.8721602848       -0.8859346330
 H          3.6938226359        4.1404825920       -1.3201307055
 H          3.2932448449        4.3460025738        0.3839203599
 H          1.5608557873        2.5910375380        0.2294405352
 H          1.2808952807        3.9185525509       -0.8933017177
 H          2.1165274088        2.5752274261       -2.7858643482
 H          2.5130937765        1.2223009985       -1.6819079620
  58
        -82.23067934
 C         -5.0292370585        0.6739666173       -0.5282297791
 C         -4.3599095755       -0.3043887909       -1.4922996746
 C         -4.7791221929       -1.7318201135       -1.1434931848
 C         -4.3455551156       -2.0514605853        0.2866417195
 C         -5.0128457876       -1.0756312159        1.2543864688
 C         -4.5973109667        0.3516517361        0.9018328277
 C         -3.0804407160        0.4831476992        1.0193833537
 C         -2.4073000794       -0.4958496810        0.0516240030
 C         -2.8408144890       -0.1765211843       -1.3789283166
 C         -2.8276973841       -1.9263500403        0.4027609371
 N         -0.9542154411       -0.3662130502        0.1255285880
 C         -0.2129309149       -0.5717058770        1.2338829350
 O         -0.6369894659       -0.9636797325        2.3012131267
 C          1.2350462937       -0.3129770449        0.9765570294
 N          1.8748350449        0.7326291940        1.4428965418
 N          3.1443985825        0.6749664490        1.0142778555
 C          3.3537111406       -0.4314608563        0.2536517560
 C          4.4859164842       -0.9213314242       -0.3958175933
 C          4.3453568324       -2.0929145545       -1.1019872767
 C          3.1215260354       -2.7745919899       -1.1707058734
 C          2.0017565704       -2.3057342270       -0.5275229275
 C          2.1144258280       -1.1173355044        0.1952785771
 C          4.0570956541        1.7496746986        1.2844461293
 C          4.3434345181        2.6176246943        0.0495496732
 C          3.2687511122        3.6649311337       -0.2564538567
 C          1.8679166272        3.1164474273       -0.5269466343
 C          1.8137617459        2.2048150623       -1.7440705114
 F          0.5290021269        1.7345717816       -1.9205020355
 H         -6.1152393381        0.5958212883       -0.6161483759
 H         -4.7454318447        1.6980622255       -0.7813060133
 H         -4.6650531006       -0.0733402416       -2.5194234286
 H         -4.3175182839       -2.4361434017       -1.8395556285
 H         -5.8629027865       -1.8325811936       -1.2354360784
 H         -4.6422118866       -3.0759347205        0.5377091788
 H         -6.0992189993       -1.1738432783        1.1924263292
 H         -4.7104410701       -1.3058752491        2.2776158017
 H         -5.0749614900        1.0534758267        1.5945417578
 H         -2.7560321118        0.2574046590        2.0355977933
 H         -2.7671577232        1.5022934993        0.7796618035
 H         -2.3558464820       -0.8680670056       -2.0724864837
 H         -2.5283598156        0.8376084636       -1.6397557301
 H         -2.5035452722       -2.1545081013        1.4181606627
 H         -2.3370996986       -2.6268383307       -0.2778281944
 H         -0.5048748179        0.0495909573       -0.6762201569
 H          5.4335861123       -0.4070796711       -0.3414238693
 H          5.1995691936       -2.5048457309       -1.6189085978
 H          3.0696639206       -3.6902263768       -1.7406322108
 H          1.0604377653       -2.8318361224       -0.5690220007
 H          4.9961592478        1.3220502025        1.6512818473
 H          3.6106168228        2.3523882205        2.0776363048
 H          5.2816424950        3.1482428313        0.2241915595
 H          4.4924261673        1.9693152268       -0.8153505346
 H          3.5985463726        4.2446068513       -1.1227054231
 H          3.2013219186        4.3499821508        0.5911218503
 H          1.5015315231        2.5695191729        0.3437325359
 H          1.1901456313        3.9556789324       -0.6994833825
 H          2.0799041353        2.7354797795       -2.6643107081
 H          2.4428325383        1.3167540391       -1.6329502320
  58
        -82.23041884
 C         -2.7518251112        1.2556366203        1.6530852146
 C         -2.8788839318        1.4037166896        0.1378539770
 C         -4.3154880419        1.1092434010       -0.2888007149
 C         -4.6750343373       -0.3190082751        0.1156844822
 C         -4.5633666673       -0.4623562176        1.6322426278
 C         -3.1264328513       -0.1686614030        2.0593141118
 C         -2.1767078888       -1.1579940327        1.3856152239
 C         -2.2753061478       -1.0078736074       -0.1366246696
 C         -1.9263192544        0.4263230190       -0.5488021344
 C         -3.7188411109       -1.2999662617       -0.5633726321
 N         -1.4263850294       -1.9755379606       -0.8205817945
 C         -0.0973049363       -2.2234715872       -0.9049716752
 O          0.2702754765       -3.1513103588       -1.6166739012
 C          0.9127162722       -1.4263630621       -0.1885170250
 N          0.6926873622       -0.4584242868        0.6829710431
 N          1.8659529156        0.0008084640        1.1133270182
 C          2.9014759662       -0.6606073699        0.5283316644
 C          4.2817119537       -0.5366307752        0.6688771146
 C          5.0620501822       -1.3839831885       -0.0819177741
 C          4.4994360751       -2.3310919182       -0.9498532297
 C          3.1392084389       -2.4632384873       -1.0905112469
 C          2.3225272205       -1.6162561720       -0.3394122127
 C          1.9192756102        1.0896472967        2.0461199381
 C          2.3290244149        2.4212456222        1.4050223440
 C          1.3391526836        2.9347905016        0.3566052053
 C          1.5724797972        2.3583206751       -1.0407735135
 C          0.6379180417        2.9897282609       -2.0617702125
 F          0.9028010445        4.3337081090       -2.1935331983
 H         -3.4086597788        1.9709031458        2.1532798878
 H         -1.7257069515        1.4672871764        1.9605301959
 H         -2.6172985368        2.4284261893       -0.1518665820
 H         -4.4146181300        1.2276576140       -1.3701742619
 H         -4.9994046134        1.8139760307        0.1890234509
 H         -5.7006309450       -0.5418126915       -0.1993800173
 H         -5.2488363977        0.2326449774        2.1220864085
 H         -4.8416534133       -1.4747130213        1.9331957662
 H         -3.0410536331       -0.2724256176        3.1468138900
 H         -2.4376392112       -2.1814349699        1.6641849665
 H         -1.1507532524       -0.9680089651        1.6966010767
 H         -2.0034261733        0.5182728468       -1.6349503754
 H         -0.9005812691        0.6377433013       -0.2550423840
 H         -3.9837552314       -2.3231556626       -0.2851994197
 H         -3.8064901784       -1.2078300764       -1.6489449286
 H         -1.9346874825       -2.6477265014       -1.3825524916
 H          4.7184326785        0.1872854309        1.3399331535
 H          6.1375855929       -1.3223357566       -0.0030946874
 H          5.1602381048       -2.9708259768       -1.5155735246
 H          2.6921249699       -3.1905977387       -1.7477240855
 H          2.6288573539        0.8358082339        2.8407568387
 H          0.9210432464        1.1788149491        2.4814008194
 H          2.4064538439        3.1517335418        2.2123880573
 H          3.3168759881        2.3187840735        0.9526016160
 H          1.4346535591        4.0202767732        0.2873079360
 H          0.3189726193        2.7115600172        0.6766903384
 H          2.6040163086        2.5468643697       -1.3462063303
 H          1.4015488910        1.2832231863       -1.0637462817
 H          0.7715907899        2.5471792275       -3.0537177391
 H         -0.4091070351        2.9079217576       -1.7530413187
  58
        -82.23034943
 C         -4.2627914385        0.6911865899       -0.5976175207
 C         -4.6068751936       -0.5734513491        0.1866862854
 C         -4.5009914651       -0.2890575525        1.6836318285
 C         -3.0700735743        0.1310316798        2.0143387816
 C         -2.7107325301        1.3913094228        1.2291781776
 C         -2.8318230588        1.1111832299       -0.2678130450
 C         -1.8645608020       -0.0059426343       -0.6548417329
 C         -2.1977293031       -1.2734155757        0.1387657017
 C         -3.6353734456       -1.6915565737       -0.1921887840
 C         -2.1042708729       -0.9929870760        1.6429164058
 N         -1.3331503241       -2.3818205804       -0.2457219990
 C          0.0007037267       -2.6148418012       -0.2768212087
 O          0.3846530233       -3.7012248489       -0.6946396146
 C          0.9986196568       -1.6240787799        0.1630182130
 N          0.7702855806       -0.4824808733        0.7860748842
 N          1.9397017045        0.1025812776        1.0412453932
 C          2.9790071163       -0.6448183916        0.5785967826
 C          4.3569512349       -0.4448860902        0.6169882600
 C          5.1433556651       -1.4231911119        0.0552501363
 C          4.5887402152       -2.5706170598       -0.5298189762
 C          3.2308801896       -2.7766841917       -0.5686915274
 C          2.4084218508       -1.7999495565       -0.0048892093
 C          1.9896173549        1.3854659368        1.6833512706
 C          2.2418247647        2.5210765844        0.6848519649
 C          1.1082083830        2.6462002844       -0.3297935287
 C          1.3392246538        3.7989590909       -1.3011399818
 C          0.1915606377        3.9111575819       -2.2939545081
 F          0.4112429985        4.9533380289       -3.1618933076
 H         -4.9578009325        1.4915998323       -0.3347146313
 H         -4.3580562297        0.5037979510       -1.6694306915
 H         -5.6281469419       -0.8882657632       -0.0554811150
 H         -4.7678547977       -1.1819107265        2.2532324013
 H         -5.1977404297        0.5051171906        1.9606550127
 H         -2.9891077281        0.3344454010        3.0880483371
 H         -3.3784217471        2.2089464524        1.5106026694
 H         -1.6881243726        1.6907563347        1.4671277518
 H         -2.5783269886        2.0163338899       -0.8323098773
 H         -0.8436100213        0.2942946885       -0.4306004750
 H         -1.9383981775       -0.2186318256       -1.7238394264
 H         -3.8892617262       -2.6005810281        0.3589021907
 H         -3.7186376707       -1.9057433806       -1.2606773694
 H         -1.0817513513       -0.7103182862        1.8880819436
 H         -2.3530981049       -1.9020719187        2.1949098769
 H         -1.8303353387       -3.1993112073       -0.5781352082
 H          4.7880373172        0.4353116030        1.0696432594
 H          6.2174401073       -1.3085443146        0.0635771733
 H          5.2539317871       -3.3067262233       -0.9560343826
 H          2.7905680201       -3.6565865817       -1.0077449156
 H          2.7813602009        1.3703049119        2.4385806324
 H          1.0274663386        1.5313209545        2.1800658848
 H          2.3426634669        3.4539017984        1.2423533634
 H          3.1813254349        2.3373569355        0.1600469096
 H          0.1651890544        2.8028079497        0.1988432440
 H          1.0224218311        1.7153477657       -0.8939169091
 H          1.4255785740        4.7399391394       -0.7537304974
 H          2.2691171031        3.6452311090       -1.8522776292
 H          0.0972605135        3.0069373467       -2.9042915532
 H         -0.7579165776        4.1189559525       -1.7890197887
  58
        -82.23025548
 C         -4.9675793068       -1.0101701257        1.0949532328
 C         -4.4682653384        0.3812635393        0.7091225201
 C         -4.8894424986        0.6988983173       -0.7251439479
 C         -4.2875475345       -0.3390852502       -1.6710757241
 C         -4.7907064344       -1.7305213459       -1.2893746862
 C         -4.3679258151       -2.0456344165        0.1449866677
 C         -2.8445141500       -2.0120561799        0.2503757488
 C         -2.3398166289       -0.6181844410       -0.1335245572
 C         -2.9455683737        0.4221407421        0.8151754500
 C         -2.7628250458       -0.3012148589       -1.5680391336
 N         -0.8818147246       -0.5764569298       -0.0714195094
 C         -0.1476579154       -0.7982908981        1.0434191765
 O         -0.5924678562       -1.1649113310        2.1116849787
 C          1.2994821909       -0.5624570267        0.7907209922
 N          2.0286116982        0.2230253526        1.5500785305
 N          3.2590150016        0.2860474473        1.0316145111
 C          3.3623221345       -0.4846114925       -0.0842114188
 C          4.4223146521       -0.7415130164       -0.9525138817
 C          4.1763551898       -1.5797104588       -2.0140068692
 C          2.9172644489       -2.1612144593       -2.2215258117
 C          1.8660569645       -1.9170358106       -1.3718831655
 C          2.0839308138       -1.0625183918       -0.2896747525
 C          4.2378383913        1.1634689022        1.6157825780
 C          3.6749220458        2.5696976248        1.8461286632
 C          3.5459463878        3.4225434027        0.5807884687
 C          2.5576172578        2.9175492251       -0.4716049825
 C          1.1188421804        2.8879308016        0.0258427016
 F          0.3046755344        2.3473476035       -0.9496811911
 H         -6.0583385432       -1.0429298718        1.0413379530
 H         -4.6726039409       -1.2366749460        2.1211953574
 H         -4.8975196842        1.1256953817        1.3890139298
 H         -4.5449348675        1.6979254033       -1.0019919557
 H         -5.9787412444        0.6855896260       -0.8055356565
 H         -4.5846151555       -0.1116020009       -2.7014076422
 H         -5.8791912492       -1.7665338512       -1.3735344578
 H         -4.3776966112       -2.4765604610       -1.9724226889
 H         -4.7252678747       -3.0442477313        0.4198369800
 H         -2.4019925513       -2.7558485678       -0.4169646333
 H         -2.5278497296       -2.2382100545        1.2684386859
 H         -2.5717515804        1.4140573281        0.5486784125
 H         -2.6287773446        0.1996583236        1.8346730509
 H         -2.3252854544       -1.0339921701       -2.2510126490
 H         -2.3930516978        0.6885803170       -1.8481196235
 H         -0.4207200744       -0.1373918159       -0.8540618261
 H          5.3983875448       -0.3064566161       -0.7986316315
 H          4.9731567415       -1.8025977312       -2.7080427916
 H          2.7816979926       -2.8158506589       -3.0694224275
 H          0.8984486179       -2.3703819834       -1.5241614001
 H          5.1030227936        1.1979133774        0.9505432730
 H          4.5523569854        0.7484730421        2.5804329315
 H          2.7094671553        2.4685314915        2.3406183803
 H          4.3478433374        3.0887333391        2.5311735692
 H          4.5290138374        3.5011321929        0.1097267479
 H          3.2467850564        4.4293486661        0.8822803269
 H          2.6068272726        3.5770550143       -1.3418584028
 H          2.8323426944        1.9183221780       -0.8105757523
 H          0.9973637699        2.2524084183        0.9071916735
 H          0.7383665347        3.8941562984        0.2280069812
  58
        -82.23015372
 C         -5.1519300314       -1.9975608354       -1.1008361460
 C         -4.4741025103       -2.5704343612        0.1429298579
 C         -4.9250784898       -1.7890012893        1.3760599748
 C         -4.5344323530       -0.3203795006        1.2151362544
 C         -5.2099491700        0.2568071135       -0.0276640486
 C         -4.7614061077       -0.5285529587       -1.2589655776
 C         -3.2460695338       -0.4153098036       -1.4109512739
 C         -2.5638388264       -0.9911605195       -0.1653277246
 C         -2.9563207021       -2.4600942803       -0.0050867741
 C         -3.0184821516       -0.2062766086        1.0697694130
 N         -1.1121575158       -0.9152330947       -0.3005467187
 C         -0.4020376597        0.2255150418       -0.4539581854
 O         -0.8869509884        1.3412329628       -0.4964754127
 C          1.0590084050       -0.0055033961       -0.5203524088
 N          1.8292113550        0.7031540505       -1.3188999893
 N          3.0957332049        0.3587549394       -1.0978532804
 C          3.1872294588       -0.5771257402       -0.1165604959
 C          4.2826705417       -1.2109950752        0.4658063264
 C          4.0251500566       -2.1280910959        1.4560248583
 C          2.7177611858       -2.4124946475        1.8747809855
 C          1.6311364268       -1.7923693774        1.3084447941
 C          1.8597107653       -0.8661946828        0.2881486791
 C          4.1573957441        1.0980708628       -1.7213686844
 C          4.3987303332        2.4166789014       -0.9742609438
 C          3.2389274215        3.4051813065       -1.1752454821
 C          2.7822191694        4.0848600853        0.1179851826
 C          1.9210938303        3.1842954847        0.9949015176
 F          2.6712446911        2.1745912034        1.5647699644
 H         -6.2362172555       -2.0868950669       -1.0048481630
 H         -4.8468382044       -2.5620477955       -1.9851286760
 H         -4.7483337048       -3.6256589301        0.2568422594
 H         -4.4572462518       -2.2036574821        2.2721181128
 H         -6.0074230882       -1.8761870945        1.4934010168
 H         -4.8539789964        0.2412736051        2.0998232723
 H         -6.2957850360        0.1977514980        0.0770106086
 H         -4.9377574315        1.3076934710       -0.1411033057
 H         -5.2443349439       -0.1166471796       -2.1518844429
 H         -2.9508643413        0.6278379214       -1.5253761011
 H         -2.9109730447       -0.9628943279       -2.2955581263
 H         -2.4667021672       -2.8792702218        0.8782254956
 H         -2.6265728436       -3.0278101496       -0.8795673987
 H         -2.7245461760        0.8370244123        0.9544458338
 H         -2.5208010798       -0.6037360251        1.9580613477
 H         -0.6105901725       -1.7885569642       -0.3282338320
 H          5.2928652202       -0.9839866386        0.1611816855
 H          4.8475374796       -2.6381418830        1.9354707716
 H          2.5711454243       -3.1322319505        2.6666180148
 H          0.6291062386       -2.0018791187        1.6528055072
 H          3.8692009814        1.3003167915       -2.7560528237
 H          5.0582877687        0.4804947457       -1.7133188709
 H          4.5163950208        2.1850729659        0.0846539806
 H          5.3359157540        2.8516096581       -1.3249531605
 H          2.3816359624        2.8734068099       -1.5924481047
 H          3.5363455583        4.1723585550       -1.8920956256
 H          3.6463959971        4.4283762635        0.6913395385
 H          2.1725493754        4.9546649265       -0.1316034279
 H          1.4910983577        3.7448135303        1.8314120502
 H          1.1254683224        2.7023369576        0.4189286651
  58
        -82.23007181
 C         -5.3288716512       -0.1833734045       -0.2161671276
 C         -4.5861360033       -1.1491113095       -1.1379054516
 C         -4.9086386042       -2.5888360018       -0.7397788266
 C         -4.4688271645       -2.8247844119        0.7043277482
 C         -5.2137971277       -1.8629769241        1.6287188152
 C         -4.8916873956       -0.4238630043        1.2277871956
 C         -3.3888239035       -0.1822646649        1.3514121594
 C         -2.6391991142       -1.1472820998        0.4265048752
 C         -3.0823448658       -0.9095261367       -1.0208116624
 C         -2.9631995953       -2.5873063511        0.8253172324
 N         -1.1969497015       -0.9510719292        0.5464225141
 C         -0.5439890614        0.2030391674        0.2730203986
 O         -1.0763714229        1.2183420641       -0.1293683829
 C          0.9202344257        0.0943165069        0.4829181725
 N          1.6194407550        1.0938548988        0.9766419753
 N          2.9024573610        0.7399201050        1.0020385923
 C          3.0776920660       -0.5139642619        0.5084100734
 C          4.2203555085       -1.2935166778        0.3370106986
 C          4.0508011643       -2.5441633315       -0.2072833749
 C          2.7860600081       -3.0175041924       -0.5848205947
 C          1.6534364996       -2.2587987478       -0.4147846106
 C          1.7898622904       -0.9893153758        0.1528982420
 C          3.9075034196        1.6581958665        1.4594922641
 C          4.7038569763        2.2971924340        0.3132094509
 C          3.9848285757        3.4553209304       -0.3784285534
 C          2.7534429286        3.0305168748       -1.1789228969
 C          2.2028480258        4.1822846480       -2.0037293511
 F          3.1111481188        4.5719232616       -2.9656498126
 H         -6.4068217896       -0.3340579673       -0.3093128714
 H         -5.1051521780        0.8457092257       -0.5027503576
 H         -4.8973956120       -0.9786028406       -2.1742865487
 H         -4.3926652399       -3.2848405490       -1.4054385643
 H         -5.9815099537       -2.7701335515       -0.8335336233
 H         -4.6937900312       -3.8583008882        0.9921693598
 H         -6.2891912916       -2.0386821986        1.5551944379
 H         -4.9166837701       -2.0369416605        2.6656268665
 H         -5.4228506996        0.2673709874        1.8911943086
 H         -3.0624811659       -0.3387662971        2.3828374990
 H         -3.1424567730        0.8413655241        1.0687876963
 H         -2.5375981538       -1.5857989803       -1.6846384844
 H         -2.8367711336        0.1141942951       -1.3030367851
 H         -2.6411008786       -2.7669265048        1.8548334240
 H         -2.4252972332       -3.2812782221        0.1736073528
 H         -0.6679133737       -1.7095863685        0.9461918309
 H          5.1966421509       -0.9285610201        0.6166641267
 H          4.9106972690       -3.1795847671       -0.3582282191
 H          2.7096914673       -4.0024869116       -1.0207928181
 H          0.6862308829       -2.6263468021       -0.7237395086
 H          4.5900720423        1.1161592118        2.1224498581
 H          3.3916180386        2.4297708320        2.0345386697
 H          5.6408797306        2.6733976295        0.7288760927
 H          4.9503947797        1.5285711746       -0.4224243663
 H          4.6908154884        3.9339255594       -1.0613627937
 H          3.6913145318        4.1953590417        0.3695530328
 H          3.0181179735        2.2122748978       -1.8529764207
 H          1.9554798218        2.6932327687       -0.5171916508
 H          1.2916069113        3.8914235776       -2.5339529787
 H          2.0106501243        5.0647019706       -1.3853833347
