  54
        -67.35400532
 C         -1.7122212297       -0.8499956341       -1.7306840731
 C         -1.7452005133       -0.4557759808       -0.2498602894
 C         -2.5896750131       -1.4844968315        0.5240164187
 C         -4.0649849717       -1.4848327859        0.1139575701
 C         -4.6804158477       -0.1113236189        0.2055017032
 O         -5.7276324139        0.1046711294        0.7627645016
 C         -3.8696797484        0.9667718273       -0.4675870771
 C         -2.4035314015        0.9224070591       -0.0211423005
 C         -1.6020028237        2.0498667123       -0.6664594974
 C         -0.2090287328        2.0973302471       -0.0510842297
 C          0.5115815709        0.7627114889       -0.2505774781
 C         -0.3145261106       -0.3893128513        0.3662540690
 C          0.4092114298       -1.7476900545        0.3077265981
 C          1.8828044731       -1.7094698628        0.7320715416
 C          2.6156551808       -0.6001160375       -0.0126696835
 C          1.9435450332        0.7579893161        0.3142685487
 C          2.9329066358        1.7494288845       -0.3200921109
 C          4.3166985504        1.1358803988       -0.0307327986
 C          4.0832323656       -0.3339679993        0.4075333080
 O          5.0375698248       -1.2298109275       -0.0951976729
 C          1.9269575957        1.0679888721        1.8210425466
 C          2.6357457586       -0.9436567564       -1.5124133248
 H         -2.6783691472       -0.6934954741       -2.2009785811
 H         -0.9807034243       -0.2728129875       -2.2870933149
 H         -1.4651382752       -1.9036405981       -1.8360582519
 H         -2.1969447237       -2.4895861899        0.3665194661
 H         -2.5263792496       -1.2661429200        1.5929153638
 H         -4.6298163145       -2.1719581498        0.7468463132
 H         -4.1612365562       -1.8252972760       -0.9194228811
 H         -4.3019512633        1.9395803882       -0.2241901970
 H         -3.9426027979        0.8337590466       -1.5490921133
 H         -2.3987262553        1.0997439225        1.0618309112
 H         -2.1101993473        3.0015802713       -0.4956501056
 H         -1.5381203383        1.9002121912       -1.7451571766
 H          0.3744076789        2.8985272274       -0.5081297800
 H         -0.3133535437        2.3181151824        1.0116526996
 H          0.5889846129        0.6148571120       -1.3291806450
 H         -0.4610815224       -0.1450851804        1.4236270834
 H          0.3518107098       -2.1508031585       -0.7018516403
 H         -0.1072528153       -2.4483388212        0.9656599225
 H          2.3412383225       -2.6763518242        0.5133818642
 H          1.9626209292       -1.5529411853        1.8073552901
 H          2.7573980169        1.8387705136       -1.3923792066
 H          2.8438107615        2.7450672552        0.1115744267
 H          4.8399814395        1.6893156332        0.7472523094
 H          4.9530232368        1.1532554890       -0.9174065070
 H          4.1871105013       -0.4443752194        1.4895885984
 H          5.0475783438       -1.1660846420       -1.0569716864
 H          1.5693482922        2.0833235724        1.9728840447
 H          2.9232908147        1.0132382887        2.2450460662
 H          1.2844368871        0.3982571014        2.3811338385
 H          3.0940315781       -1.9240734978       -1.6379616532
 H          3.2057647872       -0.2175986950       -2.0862559274
 H          1.6414096274       -0.9986870121       -1.9385487357
  54
        -67.35206189
 C         -1.7115075629       -0.8546674958       -1.7311460428
 C         -1.7474066467       -0.4554613477       -0.2518179431
 C         -2.5961708360       -1.4797001557        0.5235365353
 C         -4.0703276836       -1.4777254781        0.1094054206
 C         -4.6822916601       -0.1024171901        0.1978909646
 O         -5.7286242368        0.1174536368        0.7553530218
 C         -3.8682234558        0.9716010508       -0.4772730755
 C         -2.4028378398        0.9249682342       -0.0282528313
 C         -1.5973953535        2.0486044903       -0.6753116685
 C         -0.2061964784        2.0955303653       -0.0558839012
 C          0.5121795805        0.7591258862       -0.2497698668
 C         -0.3176591343       -0.3902118274        0.3662653751
 C          0.4066102867       -1.7470897589        0.3042172532
 C          1.8730795345       -1.7094203601        0.7520445946
 C          2.6158217518       -0.6075085185        0.0041280271
 C          1.9430870120        0.7541774117        0.3178555281
 C          2.9376290668        1.7348126919       -0.3236294796
 C          4.3174085852        1.1251938833       -0.0097577829
 C          4.0820799445       -0.3381178950        0.4237604567
 O          5.0435276500       -1.1589379492       -0.1981614400
 C          1.9231148492        1.0765390878        1.8223662019
 C          2.6569156768       -0.9565885176       -1.4928722436
 H         -1.4725056180       -1.9106351142       -1.8319473746
 H         -2.6741767467       -0.6915829776       -2.2062711737
 H         -0.9725503488       -0.2855864228       -2.2859133156
 H         -2.2059559954       -2.4864781658        0.3701788711
 H         -2.5352552392       -1.2581386905        1.5919892290
 H         -4.6384113889       -2.1627388347        0.7416985834
 H         -4.1640976329       -1.8192467476       -0.9238061232
 H         -4.2983995115        1.9462300380       -0.2375687459
 H         -3.9394926703        0.8354463564       -1.5584626036
 H         -2.3995931002        1.1052901442        1.0542934803
 H         -2.1044972290        3.0017812615       -0.5094987332
 H         -1.5302803045        1.8947015158       -1.7531365525
 H          0.3804319020        2.8936816161       -0.5137849467
 H         -0.3131600865        2.3196767570        1.0059667852
 H          0.5925289262        0.6077280400       -1.3274398802
 H         -0.4650885959       -0.1482444130        1.4242299244
 H          0.3702825641       -2.1357767853       -0.7118330430
 H         -0.1193826527       -2.4570900061        0.9446967986
 H          2.3227032586       -2.6856533579        0.5479653024
 H          1.9348967822       -1.5441496997        1.8281817684
 H          2.7729505629        1.8020182059       -1.3984749219
 H          2.8465061285        2.7378977445        0.0900679788
 H          4.8276364416        1.6808045404        0.7750514942
 H          4.9681667360        1.1180528097       -0.8827245652
 H          4.1862020096       -0.4489843565        1.5133033421
 H          4.8814662653       -2.0723605874        0.0586007072
 H          1.5810972480        2.0986308337        1.9639135853
 H          2.9161188545        1.0100281462        2.2527202589
 H          1.2662284751        0.4225156492        2.3850552078
 H          3.3028025144       -0.2740434634       -2.0342074887
 H          1.6773950277       -0.9501024010       -1.9552983877
 H          3.0709982766       -1.9564892906       -1.6108964168
  54
        -67.35164187
 C         -1.8582763264       -0.7590529599       -1.4987251891
 C         -1.7710106930       -0.3778845860       -0.0164688495
 C         -2.5704398050       -1.4199238579        0.8005442092
 C         -4.0571389214       -1.0690113882        0.9876564928
 C         -4.5921789268       -0.2459795916       -0.1535023203
 O         -5.5379375353       -0.5680075804       -0.8290023105
 C         -3.8430998147        1.0496789311       -0.3427291694
 C         -2.4185463561        1.0058607773        0.2201189189
 C         -1.5982960342        2.1543138708       -0.3668735822
 C         -0.1809211597        2.1417263182        0.1877076836
 C          0.4973330544        0.8085430013       -0.1320246708
 C         -0.3082517397       -0.3384228071        0.5153973213
 C          0.3803104268       -1.7129126593        0.4142997733
 C          1.8787923730       -1.7046059591        0.7385976602
 C          2.5770244416       -0.6133503885       -0.0642043842
 C          1.9690178760        0.7603706034        0.3160150919
 C          2.9317328606        1.7267245299       -0.3935171939
 C          4.3174463231        1.0773364181       -0.2128752565
 C          4.0805904627       -0.3891965242        0.2350737754
 O          4.9648049804       -1.3071669768       -0.3491902105
 C          2.0768730729        1.0633589030        1.8205867556
 C          2.4634646941       -0.9485039481       -1.5617236991
 H         -1.4149701596       -0.0021482543       -2.1389609015
 H         -1.3557821391       -1.7031899812       -1.6897864789
 H         -2.8970286314       -0.8857398774       -1.7922042947
 H         -2.4998383174       -2.3859996123        0.3002053682
 H         -2.1289272188       -1.5317928888        1.7924950120
 H         -4.1803118303       -0.4659986101        1.8905785226
 H         -4.6505263137       -1.9768884276        1.1001380436
 H         -4.4171235730        1.8296814343        0.1661934508
 H         -3.8420407945        1.3075757825       -1.4034486616
 H         -2.4610995800        1.1558126671        1.3052307904
 H         -2.0845256186        3.1012153097       -0.1196448310
 H         -1.5696554352        2.0785948237       -1.4551343659
 H          0.3940686355        2.9616876593       -0.2459547681
 H         -0.2292770018        2.2934022082        1.2665398825
 H          0.4751939399        0.6974251152       -1.2176448217
 H         -0.3913934189       -0.0973798642        1.5813319767
 H          0.2549611182       -2.1187656859       -0.5873404120
 H         -0.1130269523       -2.4041970441        1.0996545521
 H          2.3018055344       -2.6814762679        0.4944034850
 H          2.0372517891       -1.5434900443        1.8045069210
 H          2.6748309163        1.8212614224       -1.4487246753
 H          2.9033736492        2.7242324899        0.0422537701
 H          4.9109101522        1.6122752887        0.5267541586
 H          4.8858663674        1.0851622219       -1.1445659631
 H          4.2715270728       -0.5102583072        1.3041243434
 H          4.8850674311       -1.2486102047       -1.3080396247
 H          1.4298519036        0.4338319789        2.4210869554
 H          1.7980855811        2.0991924106        1.9975334866
 H          3.0933949772        0.9400847497        2.1766990379
 H          3.0290130178       -0.2511943476       -2.1745622477
 H          1.4383193821       -0.9403076359       -1.9111621634
 H          2.8542890156       -1.9521925319       -1.7256507350
  54
        -67.35160026
 C         -1.7022988230       -0.8685924562       -1.7230847397
 C         -1.7420305424       -0.4589554585       -0.2464696940
 C         -2.5900078000       -1.4788391170        0.5350925422
 C         -4.0623413119       -1.4849099317        0.1144325663
 C         -4.6782796010       -0.1111691125        0.1952759022
 O         -5.7255815331        0.1093015915        0.7510149924
 C         -3.8665788786        0.9615057114       -0.4849421045
 C         -2.4009052887        0.9217415230       -0.0357603041
 C         -1.5973483684        2.0396476180       -0.6947371783
 C         -0.2075617516        2.0966812827       -0.0732287232
 C          0.5150109799        0.7598189154       -0.2481001670
 C         -0.3137744885       -0.3865306345        0.3746916357
 C          0.4100164714       -1.7454722011        0.3239981750
 C          1.8884731930       -1.7109491473        0.7322427130
 C          2.6151784268       -0.5930551992       -0.0055925905
 C          1.9404975098        0.7613332769        0.3307189134
 C          2.9301141897        1.7626371593       -0.2885655437
 C          4.3153405289        1.1367812476       -0.0294132809
 C          4.0763159706       -0.3306601872        0.4109948931
 O          4.9622776432       -1.2468496716       -0.1928812139
 C          1.9129202050        1.0601483362        1.8397063653
 C          2.6458316483       -0.9252644324       -1.5052224383
 H         -1.4834853251       -1.9296734290       -1.8156367337
 H         -2.6575119773       -0.6894020367       -2.2075765214
 H         -0.9469911671       -0.3182080418       -2.2746320672
 H         -2.1951349944       -2.4852918956        0.3926867621
 H         -2.5342851150       -1.2472738529        1.6016987788
 H         -4.6308356308       -2.1693064809        0.7470154375
 H         -4.1496070979       -1.8306584061       -0.9178978428
 H         -4.2995070527        1.9363318930       -0.2508453580
 H         -3.9375459285        0.8191253429       -1.5653924253
 H         -2.3977992880        1.1128863829        1.0449121350
 H         -2.1067923029        2.9937938862       -0.5415428520
 H         -1.5275810437        1.8723752461       -1.7703557534
 H          0.3781529062        2.8910090931       -0.5392328393
 H         -0.3175494844        2.3344348165        0.9855197914
 H          0.6078588430        0.5949949825       -1.3227862520
 H         -0.4646332065       -0.1345986463        1.4297169822
 H          0.3424644633       -2.1562019651       -0.6815025153
 H         -0.1018719205       -2.4401659837        0.9921382325
 H          2.3452225432       -2.6725976697        0.4906868219
 H          1.9800216132       -1.5709736076        1.8094867524
 H          2.7468216783        1.8791802606       -1.3561662517
 H          2.8494182266        2.7475259089        0.1694962575
 H          4.8605903227        1.6884993583        0.7369332975
 H          4.9230037279        1.1388178647       -0.9349467440
 H          4.1742062220       -0.4270208461        1.5020964454
 H          5.8585743913       -1.0260202141        0.0789380532
 H          2.9122030048        1.0403710021        2.2613663307
 H          1.2980141481        0.3627322721        2.3968884701
 H          1.5179838912        2.0602875716        1.9999976550
 H          3.2327834721       -1.8312173201       -1.6323388123
 H          3.1264045685       -0.1401187852       -2.0783815778
 H          1.6581666686       -1.0997580148       -1.9143394172
  54
        -67.34985481
 C         -1.8793949339       -0.8150879816       -1.4095406383
 C         -1.7656686295       -0.3806760151        0.0539420179
 C         -2.5764785673       -1.3486747664        0.9336033629
 C         -4.0593827758       -1.4110577349        0.5561601143
 C         -4.6150297753       -0.2293983797       -0.2010029658
 O         -5.6549407786       -0.3205550692       -0.8109479221
 C         -3.8571443655        1.0745964254       -0.1586555756
 C         -2.3926392638        1.0100582922        0.2883996313
 C         -1.5964182853        2.1289650003       -0.3806560269
 C         -0.1697681863        2.1417532835        0.1500689481
 C          0.5043719285        0.7970015824       -0.1252267935
 C         -0.2916449877       -0.3386456946        0.5568619338
 C          0.4006331600       -1.7109059808        0.4488043347
 C          1.9056982770       -1.7003086842        0.7442603258
 C          2.5923378775       -0.6101821436       -0.0691091720
 C          1.9800901955        0.7620619871        0.3098713811
 C          2.9298225038        1.7309806460       -0.4136580145
 C          4.3208391248        1.0894465098       -0.2453645142
 C          4.0968026680       -0.3745072910        0.2168862561
 O          4.9830320370       -1.2913749070       -0.3661937801
 C          2.1012284370        1.0758090604        1.8111186970
 C          2.4693638616       -0.9573806708       -1.5629904980
 H         -1.2255829874       -0.2351443660       -2.0539503537
 H         -1.6235776124       -1.8661746150       -1.5176592342
 H         -2.8966419212       -0.6900913712       -1.7699685750
 H         -2.1672552634       -2.3557457462        0.8599126908
 H         -2.4745305023       -1.0316090712        1.9740945068
 H         -4.6697473497       -1.5119594131        1.4581892728
 H         -4.2706785274       -2.2946893470       -0.0505452097
 H         -4.4168812348        1.7369115588        0.5083922652
 H         -3.9355857168        1.5185144357       -1.1548563536
 H         -2.3542276379        1.1879072704        1.3697831420
 H         -2.0776675161        3.0876325527       -0.1725816681
 H         -1.5920298910        1.9899549996       -1.4630082923
 H          0.3988793519        2.9417579349       -0.3269976943
 H         -0.2016310466        2.3400882956        1.2219580198
 H          0.4783817270        0.6555770494       -1.2072695426
 H         -0.3513650005       -0.0882805428        1.6216879630
 H          0.2498263138       -2.1195123736       -0.5485773650
 H         -0.0691063303       -2.3982953536        1.1541514838
 H          2.3238526840       -2.6775868232        0.4932820006
 H          2.0820745087       -1.5397749713        1.8074523877
 H          2.6615760209        1.8209590032       -1.4664716799
 H          2.9004848403        2.7295682408        0.0195022458
 H          4.9217788163        1.6332206360        0.4817023599
 H          4.8767794208        1.0921106894       -1.1846278887
 H          4.2953965306       -0.4852556778        1.2856297585
 H          4.9030781133       -1.2339769636       -1.3250881504
 H          1.7908224440        2.1027400745        1.9872216692
 H          3.1272097965        0.9886689638        2.1506045918
 H          1.4857341604        0.4286249507        2.4255849560
 H          2.8870449756       -1.9505571442       -1.7248387387
 H          3.0060124567       -0.2485264464       -2.1882618476
 H          1.4397944844       -0.9842586835       -1.8983811192
  54
        -67.34966000
 C         -1.8605125080       -0.7615332191       -1.5030426955
 C         -1.7741000345       -0.3771276753       -0.0217278662
 C         -2.5767396163       -1.4159723677        0.7966673486
 C         -4.0610806483       -1.0577674244        0.9878674073
 C         -4.5957497999       -0.2373505381       -0.1555491253
 O         -5.5437560004       -0.5592981636       -0.8278667301
 C         -3.8424611584        1.0547888444       -0.3510325400
 C         -2.4181713135        1.0086831928        0.2121522802
 C         -1.5946782991        2.1539055674       -0.3765186902
 C         -0.1785316984        2.1401569106        0.1812229280
 C          0.4977270177        0.8052156019       -0.1345976584
 C         -0.3116096293       -0.3399092820        0.5103559731
 C          0.3780031723       -1.7117814480        0.4006709824
 C          1.8679304157       -1.7034216397        0.7606195635
 C          2.5793636703       -0.6221839694       -0.0459639222
 C          1.9685721790        0.7559914688        0.3168257848
 C          2.9372726227        1.7079731369       -0.4018721750
 C          4.3204476462        1.0673788188       -0.1797888170
 C          4.0810634344       -0.3945503250        0.2569459636
 O          4.9662070857       -1.2323891009       -0.4497976360
 C          2.0719532082        1.0748130806        1.8189205528
 C          2.4919906864       -0.9668225141       -1.5425146388
 H         -1.3630684593       -1.7090661946       -1.6901571268
 H         -2.8994425904       -0.8824755848       -1.7984308546
 H         -1.4107340404       -0.0091713738       -2.1439875547
 H         -2.5130261544       -2.3818633294        0.2949298257
 H         -2.1334096214       -1.5314301910        1.7875586774
 H         -4.1784884499       -0.4505510754        1.8887132617
 H         -4.6579971289       -1.9626410843        1.1059944222
 H         -4.4137589374        1.8391498639        0.1542664880
 H         -3.8404079768        1.3078814954       -1.4128763745
 H         -2.4606310676        1.1609045276        1.2970243226
 H         -2.0797651956        3.1023393354       -0.1329253118
 H         -1.5636768374        2.0749160858       -1.4643945424
 H          0.3990866458        2.9575998511       -0.2533084339
 H         -0.2289018345        2.2944145523        1.2596667454
 H          0.4778784875        0.6921748470       -1.2198623079
 H         -0.3943412589       -0.1042604054        1.5777401969
 H          0.2829025816       -2.0950085457       -0.6130180209
 H         -0.1311194614       -2.4173458782        1.0597440691
 H          2.2849683626       -2.6901805986        0.5385819390
 H          2.0008956141       -1.5292065817        1.8288645785
 H          2.6982931001        1.7678159458       -1.4630241012
 H          2.9003824988        2.7171107616        0.0056295511
 H          4.8890396568        1.6054456599        0.5766505507
 H          4.9156691994        1.0556092195       -1.0914525313
 H          4.2715034397       -0.5221858001        1.3331465594
 H          4.7852666106       -2.1462713743       -0.2078233662
 H          3.0823726224        0.9327764695        2.1853939675
 H          1.4052075173        0.4685053049        2.4224506311
 H          1.8160652668        2.1189105797        1.9810348946
 H          1.4914822860       -0.8594420286       -1.9432939678
 H          2.7984972679       -2.0014382952       -1.6877344000
 H          3.1670067809       -0.3458420442       -2.1216481387
  54
        -67.34899885
 C         -1.8480084851       -0.7718803929       -1.4953128312
 C         -1.7678070809       -0.3792814557       -0.0157848135
 C         -2.5702731798       -1.4154549846        0.8057785394
 C         -4.0575876422       -1.0633626442        0.9856897123
 C         -4.5897199153       -0.2494990978       -0.1633349343
 O         -5.5348883165       -0.5763398084       -0.8374811887
 C         -3.8399068461        1.0442810742       -0.3616052002
 C         -2.4172524446        1.0059205807        0.2064926647
 C         -1.5956108859        2.1491751990       -0.3884991524
 C         -0.1807827089        2.1432008680        0.1723956498
 C          0.5005564014        0.8074570341       -0.1291288032
 C         -0.3075569954       -0.3346048074        0.5230243998
 C          0.3821865187       -1.7094438448        0.4330286286
 C          1.8828575789       -1.7024626056        0.7471662203
 C          2.5766868593       -0.6076849585       -0.0544146542
 C          1.9680795271        0.7644140064        0.3303130782
 C          2.9325789443        1.7357524197       -0.3702372219
 C          4.3170889154        1.0768737037       -0.2098656680
 C          4.0746745395       -0.3880082444        0.2379087395
 O          4.8776651312       -1.3228281154       -0.4475607210
 C          2.0672128649        1.0626626356        1.8365556838
 C          2.4735756719       -0.9390985199       -1.5508853020
 H         -1.3480636517       -1.7192495887       -1.6761895120
 H         -2.8856087511       -0.8967701767       -1.7938261561
 H         -1.3970858364       -0.0222178538       -2.1385070175
 H         -2.4978778482       -2.3849477879        0.3124460790
 H         -2.1321130096       -1.5206316473        1.7999734787
 H         -4.1834702339       -0.4530535774        1.8833863288
 H         -4.6512244671       -1.9704035862        1.1037915520
 H         -4.4158205687        1.8288617250        0.1381638884
 H         -3.8350872224        1.2925414252       -1.4245909344
 H         -2.4636587149        1.1658330431        1.2900999716
 H         -2.0838708876        3.0982050940       -0.1532166440
 H         -1.5616669325        2.0619913847       -1.4756224713
 H          0.3957213429        2.9589372702       -0.2671964729
 H         -0.2343079249        2.3067618200        1.2494696114
 H          0.4909902391        0.6822291787       -1.2130887347
 H         -0.3968282717       -0.0856069382        1.5868119538
 H          0.2521972589       -2.1240172640       -0.5640019480
 H         -0.1080854156       -2.3944876951        1.1271698997
 H          2.3041282029       -2.6760160843        0.4894155156
 H          2.0484448128       -1.5495438328        1.8138272185
 H          2.6712903716        1.8463555601       -1.4220228602
 H          2.9125500030        2.7267312078        0.0814829466
 H          4.9242308111        1.6103930206        0.5220757370
 H          4.8627930982        1.0734678376       -1.1540519977
 H          4.2648042060       -0.4982306237        1.3156635416
 H          5.8005237387       -1.1282907349       -0.2565739409
 H          3.0857437680        0.9547067264        2.1935357847
 H          1.4305401264        0.4194701698        2.4336064943
 H          1.7713023233        2.0930015416        2.0184103602
 H          2.9849542470       -0.1987646307       -2.1561188292
 H          1.4488527534       -1.0178463622       -1.8922433244
 H          2.9662252403       -1.8937264369       -1.7164394197
  54
        -67.34783296
 C         -1.8827096844       -0.8189477068       -1.4075582137
 C         -1.7694416471       -0.3788903143        0.0540671006
 C         -2.5830914408       -1.3416329608        0.9371759476
 C         -4.0679870102       -1.3967401208        0.5647708449
 C         -4.6135187077       -0.2230461644       -0.2119667599
 O         -5.6451257843       -0.3200232450       -0.8348309205
 C         -3.8563120912        1.0809886977       -0.1679451638
 C         -2.3929716586        1.0143628469        0.2831888000
 C         -1.5926353093        2.1294632253       -0.3871729745
 C         -0.1673376387        2.1407199024        0.1470351789
 C          0.5041339482        0.7941095304       -0.1242968187
 C         -0.2954531459       -0.3390729939        0.5569064287
 C          0.3967862734       -1.7096918760        0.4422155100
 C          1.8961029550       -1.6999473516        0.7644290625
 C          2.5931143973       -0.6179910997       -0.0528194724
 C          1.9793499095        0.7580284457        0.3128581315
 C          2.9339161297        1.7150133663       -0.4186602267
 C          4.3230067410        1.0784589107       -0.2215952032
 C          4.0963267948       -0.3797132044        0.2334264570
 O          4.9803835936       -1.2204599290       -0.4711176473
 C          2.0979193639        1.0843744443        1.8120132315
 C          2.4919548853       -0.9714471120       -1.5459569778
 H         -1.2264904905       -0.2432566451       -2.0532607017
 H         -1.6290941916       -1.8710513822       -1.5109157864
 H         -2.8993314151       -0.6931677751       -1.7696333606
 H         -2.1795416272       -2.3510080613        0.8630214279
 H         -2.4760845551       -1.0243298230        1.9771419307
 H         -4.6767425714       -1.4734878583        1.4702855185
 H         -4.2898994954       -2.2893034268       -0.0246479478
 H         -4.4173277669        1.7429394071        0.4983828093
 H         -3.9316613636        1.5253954437       -1.1640741701
 H         -2.3566857114        1.1951835163        1.3642006133
 H         -2.0725459026        3.0896887018       -0.1832105298
 H         -1.5856309882        1.9869527606       -1.4689757828
 H          0.4043994786        2.9378960022       -0.3307462349
 H         -0.2012032395        2.3413507593        1.2185305323
 H          0.4798837850        0.6501256557       -1.2058218092
 H         -0.3544871550       -0.0924377058        1.6228357683
 H          0.2689205487       -2.1009466263       -0.5651307387
 H         -0.0855305276       -2.4085464031        1.1278249762
 H          2.3067862740       -2.6865698973        0.5302080440
 H          2.0531241068       -1.5296084956        1.8300920667
 H          2.6776318041        1.7796407277       -1.4755049699
 H          2.9000481335        2.7220745624       -0.0058465369
 H          4.9084506645        1.6242239649        0.5162609610
 H          4.8972200997        1.0583835921       -1.1464979398
 H          4.2959934416       -0.4934654626        1.3094481469
 H          4.8152066866       -2.1314478066       -0.2076794226
 H          1.4672649533        0.4548741852        2.4302667356
 H          1.8048555900        2.1183363944        1.9759825844
 H          3.1204015962        0.9833305758        2.1584150237
 H          1.4775789835       -0.9257673253       -1.9229250221
 H          2.8540621277       -1.9873583528       -1.6943720330
 H          3.1159296500       -0.3158543811       -2.1435306938
