  54

 C         -1.1984262700        2.5778902100       -0.4771475600
 C         -1.5731262200        1.2864304400        0.2591153300
 C         -3.0390090700        0.9372286300       -0.0895833100
 C         -4.0784596300        1.5602123900        0.8593133100
 C         -3.5989487300        2.8606251000        1.4464655800
 O         -4.1902870100        3.9061155000        1.3378424800
 C         -2.3135377600        2.7136207400        2.2222994700
 C         -1.4882683400        1.4974362800        1.7883227300
 C         -0.0519070700        1.6460051200        2.2892765900
 C          0.7867933200        0.4423488900        1.8828841700
 C          0.7851370500        0.2896358100        0.3609426800
 C         -0.6650638200        0.0821593900       -0.1264891000
 C         -0.7713736000       -0.2653595400       -1.6237705800
 C          0.2372521800       -1.3114931700       -2.1128652700
 C          1.6439853500       -0.9190059400       -1.6771261800
 C          1.6929066400       -0.8522845700       -0.1295833600
 C          3.2003804900       -0.6829370400        0.1206158600
 C          3.8612534500       -1.5875667400       -0.9372725000
 C          2.7725035600       -1.9342624600       -1.9873948000
 O          3.2442906300       -1.9414145200       -3.3075321600
 C          1.2863185800       -2.1782292600        0.5363827600
 C          2.0272540400        0.4017665700       -2.3671914000
 H         -1.9273538600        3.3550675400       -0.2639538700
 H         -0.2184481200        2.9426255100       -0.1837286400
 H         -1.1976064500        2.4285932600       -1.5533472300
 H         -3.2472432500        1.2741963500       -1.1052379800
 H         -3.1784034000       -0.1451825100       -0.0687116900
 H         -4.2570705500        0.8859456400        1.7003923800
 H         -5.0237882100        1.7143666400        0.3382939200
 H         -2.5849013100        2.6174576200        3.2777351600
 H         -1.7367866000        3.6360012200        2.1331076800
 H         -1.9065079900        0.5992224200        2.2572846800
 H         -0.0628952800        1.7393923000        3.3779555300
 H          0.3939502400        2.5583711400        1.8900184300
 H          1.8105053200        0.5659111200        2.2404053000
 H          0.3670172400       -0.4470139100        2.3538406500
 H          1.1734835600        1.2239099100       -0.0486263400
 H         -1.0613967500       -0.7735128300        0.4319837900
 H         -0.6418128100        0.6329997000       -2.2237154700
 H         -1.7761039500       -0.6393095700       -1.8272175800
 H          0.1838901100       -1.3759790400       -3.2018228000
 H         -0.0140960400       -2.2963692200       -1.7204927600
 H          3.4978960400        0.3578785100       -0.0090070000
 H          3.4831708100       -0.9825183200        1.1285006800
 H          4.2608852700       -2.4948010100       -0.4869480400
 H          4.6937681300       -1.0824783500       -1.4301282600
 H          2.4055952000       -2.9545883000       -1.8519533000
 H          3.6181192500       -1.0761103900       -3.5090305600
 H          1.5057840000       -2.1259508700        1.5998773200
 H          1.8507273900       -3.0116678500        0.1337350900
 H          0.2308604800       -2.3976152200        0.4211466600
 H          1.3986968200        1.2281034700       -2.0585010300
 H          1.9021978700        0.2830604600       -3.4428881400
 H          3.0595661000        0.6768767400       -2.1659623200
