  54
        -67.35400532
 C         -1.7122212297       -0.8499956341       -1.7306840731
 C         -1.7452005133       -0.4557759808       -0.2498602894
 C         -2.5896750131       -1.4844968315        0.5240164187
 C         -4.0649849717       -1.4848327859        0.1139575701
 C         -4.6804158477       -0.1113236189        0.2055017032
 O         -5.7276324139        0.1046711294        0.7627645016
 C         -3.8696797484        0.9667718273       -0.4675870771
 C         -2.4035314015        0.9224070591       -0.0211423005
 C         -1.6020028237        2.0498667123       -0.6664594974
 C         -0.2090287328        2.0973302471       -0.0510842297
 C          0.5115815709        0.7627114889       -0.2505774781
 C         -0.3145261106       -0.3893128513        0.3662540690
 C          0.4092114298       -1.7476900545        0.3077265981
 C          1.8828044731       -1.7094698628        0.7320715416
 C          2.6156551808       -0.6001160375       -0.0126696835
 C          1.9435450332        0.7579893161        0.3142685487
 C          2.9329066358        1.7494288845       -0.3200921109
 C          4.3166985504        1.1358803988       -0.0307327986
 C          4.0832323656       -0.3339679993        0.4075333080
 O          5.0375698248       -1.2298109275       -0.0951976729
 C          1.9269575957        1.0679888721        1.8210425466
 C          2.6357457586       -0.9436567564       -1.5124133248
 H         -2.6783691472       -0.6934954741       -2.2009785811
 H         -0.9807034243       -0.2728129875       -2.2870933149
 H         -1.4651382752       -1.9036405981       -1.8360582519
 H         -2.1969447237       -2.4895861899        0.3665194661
 H         -2.5263792496       -1.2661429200        1.5929153638
 H         -4.6298163145       -2.1719581498        0.7468463132
 H         -4.1612365562       -1.8252972760       -0.9194228811
 H         -4.3019512633        1.9395803882       -0.2241901970
 H         -3.9426027979        0.8337590466       -1.5490921133
 H         -2.3987262553        1.0997439225        1.0618309112
 H         -2.1101993473        3.0015802713       -0.4956501056
 H         -1.5381203383        1.9002121912       -1.7451571766
 H          0.3744076789        2.8985272274       -0.5081297800
 H         -0.3133535437        2.3181151824        1.0116526996
 H          0.5889846129        0.6148571120       -1.3291806450
 H         -0.4610815224       -0.1450851804        1.4236270834
 H          0.3518107098       -2.1508031585       -0.7018516403
 H         -0.1072528153       -2.4483388212        0.9656599225
 H          2.3412383225       -2.6763518242        0.5133818642
 H          1.9626209292       -1.5529411853        1.8073552901
 H          2.7573980169        1.8387705136       -1.3923792066
 H          2.8438107615        2.7450672552        0.1115744267
 H          4.8399814395        1.6893156332        0.7472523094
 H          4.9530232368        1.1532554890       -0.9174065070
 H          4.1871105013       -0.4443752194        1.4895885984
 H          5.0475783438       -1.1660846420       -1.0569716864
 H          1.5693482922        2.0833235724        1.9728840447
 H          2.9232908147        1.0132382887        2.2450460662
 H          1.2844368871        0.3982571014        2.3811338385
 H          3.0940315781       -1.9240734978       -1.6379616532
 H          3.2057647872       -0.2175986950       -2.0862559274
 H          1.6414096274       -0.9986870121       -1.9385487357
