54
DHT
C  -1.19842627  2.57789021 -0.47714756
C  -1.57312622  1.28643044  0.25911533
C  -3.03900907  0.93722863 -0.08958331
C  -4.07845963  1.56021239  0.85931331
C  -3.59894873  2.86062510  1.44646558
O  -4.19028701  3.90611550  1.33784248
C  -2.31353776  2.71362074  2.22229947
C  -1.48826834  1.49743628  1.78832273
C  -0.05190707  1.64600512  2.28927659
C   0.78679332  0.44234889  1.88288417
C   0.78513705  0.28963581  0.36094268
C  -0.66506382  0.08215939 -0.12648910
C  -0.77137360 -0.26535954 -1.62377058
C   0.23725218 -1.31149317 -2.11286527
C   1.64398535 -0.91900594 -1.67712618
C   1.69290664 -0.85228457 -0.12958336
C   3.20038049 -0.68293704  0.12061586
C   3.86125345 -1.58756674 -0.93727250
C   2.77250356 -1.93426246 -1.98739480
O   3.24429063 -1.94141452 -3.30753216
C   1.28631858 -2.17822926  0.53638276
C   2.02725404  0.40176657 -2.36719140
H  -1.92735386  3.35506754 -0.26395387
H  -0.21844812  2.94262551 -0.18372864
H  -1.19760645  2.42859326 -1.55334723
H  -3.24724325  1.27419635 -1.10523798
H  -3.17840340 -0.14518251 -0.06871169
H  -4.25707055  0.88594564  1.70039238
H  -5.02378821  1.71436664  0.33829392
H  -2.58490131  2.61745762  3.27773516
H  -1.73678660  3.63600122  2.13310768
H  -1.90650799  0.59922242  2.25728468
H  -0.06289528  1.73939230  3.37795553
H   0.39395024  2.55837114  1.89001843
H   1.81050532  0.56591112  2.24040530
H   0.36701724 -0.44701391  2.35384065
H   1.17348356  1.22390991 -0.04862634
H  -1.06139675 -0.77351283  0.43198379
H  -0.64181281  0.63299970 -2.22371547
H  -1.77610395 -0.63930957 -1.82721758
H   0.18389011 -1.37597904 -3.20182280
H  -0.01409604 -2.29636922 -1.72049276
H   3.49789604  0.35787851 -0.00900700
H   3.48317081 -0.98251832  1.12850068
H   4.26088527 -2.49480101 -0.48694804
H   4.69376813 -1.08247835 -1.43012826
H   2.40559520 -2.95458830 -1.85195330
H   3.61811925 -1.07611039 -3.50903056
H   1.50578400 -2.12595087  1.59987732
H   1.85072739 -3.01166785  0.13373509
H   0.23086048 -2.39761522  0.42114666
H   1.39869682  1.22810347 -2.05850103
H   1.90219787  0.28306046 -3.44288814
H   3.05956610  0.67687674 -2.16596232