  59
        -83.97735371
 C          3.0908415085       -0.7416111756        2.7067900898
 C          3.5570475401       -1.2437418334        1.3396794746
 C          2.7608350062       -2.4893759696        0.9453986475
 C          5.0488225820       -1.5775776113        1.3957522866
 C          3.3211752149       -0.1055819395        0.3023259627
 C          3.9893444101       -0.4320274963       -1.0246919266
 O          3.5112519231       -1.1386268900       -1.8748466164
 O          5.1732834515        0.1689545592       -1.1379669951
 C          5.8960989578       -0.0785442061       -2.3371072678
 N          1.9199018089        0.1223932516        0.0673407947
 C          1.2900360344        1.2720454943        0.4064346958
 O          1.8238319347        2.1823471159        1.0150318455
 C         -0.1209122724        1.2911689526       -0.0109233223
 N         -0.6739435040        0.2873395568       -0.6711075300
 N         -1.9456425314        0.5966228680       -0.9083253791
 C         -2.2639277036        1.8156739156       -0.3926961052
 C         -3.4502839379        2.5465448942       -0.3898809580
 C         -3.4229280593        3.7769568576        0.2234825909
 C         -2.2583070447        4.2815934050        0.8214186576
 C         -1.0830975663        3.5703907957        0.8223781955
 C         -1.0836089443        2.3180592834        0.2067768980
 C         -2.8205396433       -0.3412936698       -1.5507314164
 C         -3.6689255311       -1.1216640455       -0.5343774731
 C         -4.7008627991       -1.9876503043       -1.2564393337
 C         -5.5495655051       -2.7614894317       -0.2513329418
 C         -4.6665709528       -3.6287669707        0.6402926179
 C         -3.6330024178       -2.7688921507        1.3610432355
 C         -2.7856327056       -1.9976945204        0.3538926427
 H          2.0571712242       -0.4085480989        2.6589647608
 H          3.7011153009        0.0956400311        3.0360619788
 H          3.1644017949       -1.5372163864        3.4447542188
 H          3.0381669504       -3.3228250127        1.5869858042
 H          1.6936040917       -2.3145970528        1.0565959837
 H          2.9623732676       -2.7664858493       -0.0865066987
 H          5.6418578059       -0.6750113846        1.5233450483
 H          5.2483078020       -2.2429504316        2.2329162627
 H          5.3705366607       -2.0761359384        0.4839104312
 H          3.7430747187        0.8265693234        0.6930750414
 H          6.7931433475        0.5323363075       -2.2838289379
 H          6.1569107833       -1.1364335385       -2.4106016651
 H          5.2936904466        0.1957671691       -3.2051465309
 H          1.4251574245       -0.5362451455       -0.5163277029
 H         -4.3497013331        2.1652846841       -0.8492170076
 H         -4.3217894448        4.3755880965        0.2483894442
 H         -2.2968902299        5.2545857987        1.2882605657
 H         -0.1792604599        3.9448165193        1.2749089759
 H         -2.1928445315       -1.0316329275       -2.1189210356
 H         -3.4710598829        0.2023069535       -2.2428492051
 H         -4.1961033836       -0.3988818830        0.0992729465
 H         -5.3439788525       -1.3607642654       -1.8786883940
 H         -4.1834549664       -2.6912627017       -1.9126251074
 H         -6.1083785055       -2.0567332753        0.3688600573
 H         -6.2717600960       -3.3851735070       -0.7818562119
 H         -5.2823503873       -4.1606175512        1.3681160742
 H         -4.1538921119       -4.3734541153        0.0273061758
 H         -2.9897557846       -3.3982294390        1.9788848672
 H         -4.1440739796       -2.0640262835        2.0211423905
 H         -2.2345913860       -2.7024402896       -0.2731381580
 H         -2.0551955250       -1.3792417419        0.8790906165
