  59

 C         -4.2810623900       -2.5123142300        2.5259644300
 C         -3.3455580200       -1.5218972400        1.8329341900
 C         -2.2914981500       -1.0356225200        2.8306392700
 C         -4.1458399200       -0.3294332200        1.3036105500
 C         -2.6183994200       -2.2445829400        0.6576523200
 C         -3.5888450200       -2.5331143800       -0.4778826200
 O         -4.4910265500       -3.3274981300       -0.4309380300
 O         -3.3331820300       -1.7789788800       -1.5533434600
 C         -4.1874708600       -1.9759869900       -2.6705748100
 N         -1.4725488000       -1.5136134800        0.1916935600
 C         -0.2105696500       -1.9910571100        0.3009353500
 O          0.0655110400       -3.0529518400        0.8302381700
 C          0.7963179700       -1.0838571700       -0.2714801100
 N          0.4759837600        0.0815205300       -0.8083279000
 N          1.5945261500        0.6612569600       -1.2398914600
 C          2.6845088200       -0.1145946000       -0.9864119900
 C          4.0423848900        0.0583258200       -1.2519399900
 C          4.8905135200       -0.9499237300       -0.8594358700
 C          4.4214412900       -2.1079992100       -0.2213896200
 C          3.0860126300       -2.2927603500        0.0403529000
 C          2.2037921700       -1.2833481500       -0.3472384900
 C          1.5466469600        1.9763018800       -1.8145059800
 C          1.2930599800        3.0487755100       -0.7401070100
 C          2.4558100700        3.1516733200        0.2661941800
 C          3.3122279100        4.4017305000        0.0514222700
 C          3.5541089400        4.6386002200       -1.4341949100
 C          2.2346142200        4.9390951700       -2.1600306900
 C          1.0217084900        4.4050254400       -1.3911367300
 H         -4.9677847200       -2.9589857800        1.8125893500
 H         -4.8594216300       -2.0045324100        3.2945673900
 H         -3.7087760600       -3.3089045900        2.9950801700
 H         -1.6848623700       -0.2408507500        2.4033045600
 H         -2.7779722200       -0.6543816900        3.7254093700
 H         -1.6322459400       -1.8517945600        3.1154789600
 H         -3.5135579300        0.3395518000        0.7235777800
 H         -4.9671329900       -0.6657904700        0.6743286200
 H         -4.5656697800        0.2338897200        2.1342244200
 H         -2.2377845900       -3.2048417600        1.0291973500
 H         -5.2099044800       -1.6831008800       -2.4224387500
 H         -3.7943837400       -1.3512617300       -3.4683590500
 H         -4.1868460800       -3.0262945600       -2.9678704700
 H         -1.6042191700       -0.6486675700       -0.3083668200
 H          4.4181847600        0.9429642700       -1.7442861400
 H          5.9497956800       -0.8512393600       -1.0466400300
 H          5.1351101600       -2.8662165600        0.0643528700
 H          2.7069391200       -3.1770160300        0.5262308900
 H          0.7272167500        1.9989813800       -2.5396418200
 H          2.4869476800        2.1529033400       -2.3352108800
 H          0.3887167200        2.7344677000       -0.2080519400
 H          2.0624313200        3.1638607800        1.2840770000
 H          3.0885299700        2.2664475500        0.1816899000
 H          2.8186065000        5.2761396400        0.4784543900
 H          4.2644777300        4.2781740200        0.5702969500
 H          4.2502112300        5.4676806000       -1.5708379700
 H          4.0283376800        3.7502654100       -1.8565115700
 H          2.2590147700        4.5064540000       -3.1615365700
 H          2.1163865100        6.0173559700       -2.2807625000
 H          0.1673005700        4.3272962300       -2.0663136400
 H          0.7489575800        5.1098150800       -0.6043773700
