59
MDMBCHMINACA
C  -4.28106239 -2.51231423  2.52596443
C  -3.34555802 -1.52189724  1.83293419
C  -2.29149815 -1.03562252  2.83063927
C  -4.14583992 -0.32943322  1.30361055
C  -2.61839942 -2.24458294  0.65765232
C  -3.58884502 -2.53311438 -0.47788262
O  -4.49102655 -3.32749813 -0.43093803
O  -3.33318203 -1.77897888 -1.55334346
C  -4.18747086 -1.97598699 -2.67057481
N  -1.47254880 -1.51361348  0.19169356
C  -0.21056965 -1.99105711  0.30093535
O   0.06551104 -3.05295184  0.83023817
C   0.79631797 -1.08385717 -0.27148011
N   0.47598376  0.08152053 -0.80832790
N   1.59452615  0.66125696 -1.23989146
C   2.68450882 -0.11459460 -0.98641199
C   4.04238489  0.05832582 -1.25193999
C   4.89051352 -0.94992373 -0.85943587
C   4.42144129 -2.10799921 -0.22138962
C   3.08601263 -2.29276035  0.04035290
C   2.20379217 -1.28334815 -0.34723849
C   1.54664696  1.97630188 -1.81450598
C   1.29305998  3.04877551 -0.74010701
C   2.45581007  3.15167332  0.26619418
C   3.31222791  4.40173050  0.05142227
C   3.55410894  4.63860022 -1.43419491
C   2.23461422  4.93909517 -2.16003069
C   1.02170849  4.40502544 -1.39113673
H  -4.96778472 -2.95898578  1.81258935
H  -4.85942163 -2.00453241  3.29456739
H  -3.70877606 -3.30890459  2.99508017
H  -1.68486237 -0.24085075  2.40330456
H  -2.77797222 -0.65438169  3.72540937
H  -1.63224594 -1.85179456  3.11547896
H  -3.51355793  0.33955180  0.72357778
H  -4.96713299 -0.66579047  0.67432862
H  -4.56566978  0.23388972  2.13422442
H  -2.23778459 -3.20484176  1.02919735
H  -5.20990448 -1.68310088 -2.42243875
H  -3.79438374 -1.35126173 -3.46835905
H  -4.18684608 -3.02629456 -2.96787047
H  -1.60421917 -0.64866757 -0.30836682
H   4.41818476  0.94296427 -1.74428614
H   5.94979568 -0.85123936 -1.04664003
H   5.13511016 -2.86621656  0.06435287
H   2.70693912 -3.17701603  0.52623089
H   0.72721675  1.99898138 -2.53964182
H   2.48694768  2.15290334 -2.33521088
H   0.38871672  2.73446770 -0.20805194
H   2.06243132  3.16386078  1.28407700
H   3.08852997  2.26644755  0.18168990
H   2.81860650  5.27613964  0.47845439
H   4.26447773  4.27817402  0.57029695
H   4.25021123  5.46768060 -1.57083797
H   4.02833768  3.75026541 -1.85651157
H   2.25901477  4.50645400 -3.16153657
H   2.11638651  6.01735597 -2.28076250
H   0.16730057  4.32729623 -2.06631364
H   0.74895758  5.10981508 -0.60437737