53
CBD
C  -4.37146703 -1.46076654  0.31089650
C  -3.28340559 -1.85951914  1.30023266
C  -3.65584205 -1.47815860  2.73122721
C  -2.57986806 -1.83646950  3.75919228
C  -1.47294711 -0.78163936  3.89911774
C  -0.60498967 -0.64298875  2.68164999
C  -0.64447398  0.49996785  1.89950501
C   0.16285122  0.62667119  0.77497913
O   0.10537384  1.75368833  0.00884358
C   1.04248523 -0.39196426  0.40495879
C   1.93791007 -0.27695481 -0.79741619
C   2.80862093  0.94223991 -0.75697497
C   3.56023935  1.22026718 -1.81352704
C   4.47379130  2.39837660 -1.92276460
C   3.46341168  0.27836904 -2.97781004
C   1.99086537  0.03473760 -3.33643045
C   1.10661163 -0.27611402 -2.11040561
C   0.37229560 -1.59037682 -2.23906962
C  -1.11442529 -1.51621159 -2.07307402
C   0.99808285 -2.73416208 -2.46579443
C   1.07513476 -1.53968904  1.19964470
O   1.93683226 -2.53908564  0.85483811
C   0.26576142 -1.66013386  2.32081247
H  -4.09215879 -1.74702390 -0.70019328
H  -5.31279896 -1.94706693  0.55914504
H  -4.52881362 -0.38422883  0.33050424
H  -3.12458153 -2.93919987  1.24718316
H  -2.34634368 -1.37566507  1.02475494
H  -3.85880925 -0.40587501  2.77919120
H  -4.58188160 -1.99632676  2.99445446
H  -3.05207276 -1.94730288  4.73853505
H  -2.13692477 -2.79856119  3.49571709
H  -1.93149504  0.18133759  4.13268333
H  -0.84165250 -1.06402785  4.74645170
H  -1.31443360  1.30918397  2.16204757
H  -0.51696596  2.37636638  0.40295812
H   2.57683807 -1.16583931 -0.81555135
H   2.79893245  1.55781814  0.12839980
H   5.49525992  2.06964926 -2.11595370
H   4.46135375  2.98499317 -1.00760134
H   4.16858140  3.03715158 -2.75199800
H   3.92423576 -0.67627808 -2.70527724
H   3.99354135  0.67040805 -3.84728611
H   1.60956802  0.93176142 -3.82807603
H   1.92869448 -0.78451459 -4.05460266
H   0.37073970  0.52381670 -2.00812149
H  -1.54759570 -0.88742917 -2.85125433
H  -1.35776104 -1.06894220 -1.11001689
H  -1.56818422 -2.50292100 -2.12629190
H   0.46579786 -3.66744462 -2.54304056
H   2.06691587 -2.79070880 -2.57961607
H   1.84057596 -3.26886999  1.47779806
H   0.32036572 -2.55815193  2.92244400