  53
        -68.40840718
 C         -5.0788316908       -2.3883017259       -1.0891825304
 C         -5.0490025725       -0.8897534092       -1.3633833593
 C         -4.2957689180       -0.1310457297       -0.2739026867
 C         -4.2283828423        1.3667181808       -0.5590453810
 C         -3.4536497458        2.1298918925        0.5238668554
 C         -2.0321676549        1.6530668862        0.5997343994
 C         -1.1234826617        2.0120210447       -0.3800788776
 C          0.1723261428        1.5091531477       -0.3690283628
 O          0.9968017471        1.8955351240       -1.3781592213
 C          0.5872097245        0.6323654074        0.6351640030
 C          1.9433207731       -0.0330177259        0.6091375913
 C          3.0603796545        0.9406033904        0.3566512344
 C          4.1000905371        0.7128423243       -0.4390128258
 C          5.1863065268        1.7223889950       -0.6517549630
 C          4.2474272433       -0.5759731780       -1.1999680487
 C          3.3715140056       -1.6787677423       -0.6122824431
 C          1.9415271158       -1.1653600193       -0.4458913484
 C          0.9462559279       -2.2318447708       -0.0622931299
 C          1.3597373321       -3.2238907124        0.9807436366
 C         -0.2612431283       -2.2534525018       -0.6055321654
 C         -0.3284436300        0.2972452422        1.6325471325
 O          0.0785237018       -0.5472245811        2.6282684917
 C         -1.6190568945        0.8040483494        1.6155479477
 H         -5.6170377717       -2.9129370702       -1.8753435109
 H         -4.0667965028       -2.7844547334       -1.0421556803
 H         -5.5709584019       -2.5935380361       -0.1406712493
 H         -4.5659003426       -0.7081433525       -2.3260951724
 H         -6.0719018484       -0.5110330951       -1.4300446678
 H         -4.7900835813       -0.2955009805        0.6870261252
 H         -3.2803631421       -0.5261409210       -0.1981884402
 H         -3.7404114825        1.5253091291       -1.5226985578
 H         -5.2414129784        1.7709940278       -0.6252875867
 H         -3.4714397252        3.1954036844        0.2849044168
 H         -3.9465349485        1.9876568532        1.4875957820
 H         -1.4040558815        2.6789740679       -1.1797939111
 H          1.8941814801        1.5718053226       -1.1936643600
 H          2.1002964172       -0.4751636635        1.5992305152
 H          2.9933138788        1.8695490110        0.9101831578
 H          5.3028779817        1.9322741042       -1.7149447149
 H          6.1377857274        1.3364012069       -0.2860900988
 H          4.9667994739        2.6519244555       -0.1327049261
 H          5.2959139896       -0.8848109873       -1.1891058752
 H          3.9762956843       -0.4043491626       -2.2478845883
 H          3.3826086949       -2.5505158771       -1.2699285885
 H          3.7721959558       -1.9739765223        0.3587567966
 H          1.6193298550       -0.7382756193       -1.4024027837
 H          1.6860091209       -2.7109486651        1.8835570218
 H          2.1841678186       -3.8390013174        0.6226620489
 H          0.5283482989       -3.8758095844        1.2356323619
 H         -0.9982390652       -2.9871593622       -0.3238477042
 H         -0.5678476531       -1.5356807581       -1.3480037839
 H         -0.6628229113       -0.7065233018        3.2235942770
 H         -2.3125953922        0.5178464706        2.3957360641
