  53

 C         -4.3714670300       -1.4607665400        0.3108965000
 C         -3.2834055900       -1.8595191400        1.3002326600
 C         -3.6558420500       -1.4781586000        2.7312272100
 C         -2.5798680600       -1.8364695000        3.7591922800
 C         -1.4729471100       -0.7816393600        3.8991177400
 C         -0.6049896700       -0.6429887500        2.6816499900
 C         -0.6444739800        0.4999678500        1.8995050100
 C          0.1628512200        0.6266711900        0.7749791300
 O          0.1053738400        1.7536883300        0.0088435800
 C          1.0424852300       -0.3919642600        0.4049587900
 C          1.9379100700       -0.2769548100       -0.7974161900
 C          2.8086209300        0.9422399100       -0.7569749700
 C          3.5602393500        1.2202671800       -1.8135270400
 C          4.4737913000        2.3983766000       -1.9227646000
 C          3.4634116800        0.2783690400       -2.9778100400
 C          1.9908653700        0.0347376000       -3.3364304500
 C          1.1066116300       -0.2761140200       -2.1104056100
 C          0.3722956000       -1.5903768200       -2.2390696200
 C         -1.1144252900       -1.5162115900       -2.0730740200
 C          0.9980828500       -2.7341620800       -2.4657944300
 C          1.0751347600       -1.5396890400        1.1996447000
 O          1.9368322600       -2.5390856400        0.8548381100
 C          0.2657614200       -1.6601338600        2.3208124700
 H         -4.0921587900       -1.7470239000       -0.7001932800
 H         -5.3127989600       -1.9470669300        0.5591450400
 H         -4.5288136200       -0.3842288300        0.3305042400
 H         -3.1245815300       -2.9391998700        1.2471831600
 H         -2.3463436800       -1.3756650700        1.0247549400
 H         -3.8588092500       -0.4058750100        2.7791912000
 H         -4.5818816000       -1.9963267600        2.9944544600
 H         -3.0520727600       -1.9473028800        4.7385350500
 H         -2.1369247700       -2.7985611900        3.4957170900
 H         -1.9314950400        0.1813375900        4.1326833300
 H         -0.8416525000       -1.0640278500        4.7464517000
 H         -1.3144336000        1.3091839700        2.1620475700
 H         -0.5169659600        2.3763663800        0.4029581200
 H          2.5768380700       -1.1658393100       -0.8155513500
 H          2.7989324500        1.5578181400        0.1283998000
 H          5.4952599200        2.0696492600       -2.1159537000
 H          4.4613537500        2.9849931700       -1.0076013400
 H          4.1685814000        3.0371515800       -2.7519980000
 H          3.9242357600       -0.6762780800       -2.7052772400
 H          3.9935413500        0.6704080500       -3.8472861100
 H          1.6095680200        0.9317614200       -3.8280760300
 H          1.9286944800       -0.7845145900       -4.0546026600
 H          0.3707397000        0.5238167000       -2.0081214900
 H         -1.5475957000       -0.8874291700       -2.8512543300
 H         -1.3577610400       -1.0689422000       -1.1100168900
 H         -1.5681842200       -2.5029210000       -2.1262919000
 H          0.4657978600       -3.6674446200       -2.5430405600
 H          2.0669158700       -2.7907088000       -2.5796160700
 H          1.8405759600       -3.2688699900        1.4777980600
 H          0.3203657200       -2.5581519300        2.9224440000
