53
DTHC
C  -5.07165146 -1.66471909  2.28885553
C  -4.16426243 -0.79516176  3.15024878
C  -2.81829890 -1.47056557  3.40246959
C  -1.87852402 -0.64452075  4.27991155
C  -1.32674342  0.60651834  3.58065943
C  -0.50971511  0.24667723  2.37327336
C   0.78587415 -0.23060181  2.52623264
C   1.54509780 -0.58743285  1.42316024
O   2.81193403 -1.07701923  1.57178902
C   1.03029020 -0.46747707  0.12999570
C  -0.29214544 -0.05074162 -0.01242041
C  -1.04399451  0.32018547  1.10097375
O  -0.92979682  0.01799121 -1.21151489
C  -0.33728606 -0.68272558 -2.31103263
C  -0.59003667 -2.18319402 -2.13105455
C  -1.07266419 -0.16806062 -3.54916679
C   1.15446171 -0.31444396 -2.35652991
C   1.91193423 -0.79323633 -3.59961705
C   3.40242164 -1.06891989 -3.30932442
C   3.93878200 -0.21109201 -2.19691612
C   5.26827614  0.44324872 -2.39501888
C   3.20784497 -0.10619398 -1.09512308
C   1.86742852 -0.78618364 -1.07726432
H  -6.02743911 -1.17383819  2.11924534
H  -4.60717202 -1.85564415  1.32377506
H  -5.25840230 -2.62111921  2.77310867
H  -4.01012378  0.16084478  2.64820488
H  -4.65293644 -0.59358691  4.10689811
H  -2.32938422 -1.67181884  2.44699084
H  -2.99792664 -2.43128486  3.89218016
H  -1.03662485 -1.27353353  4.57848580
H  -2.40532137 -0.33969146  5.18747879
H  -2.15061887  1.25735720  3.28845612
H  -0.70294504  1.15234107  4.29282110
H   1.21261029 -0.32314712  3.51702682
H   3.02919672 -1.10908472  2.51091242
H  -2.05461819  0.65966782  0.93909132
H  -0.10601189 -2.75630240 -2.91623599
H  -0.21913933 -2.51940335 -1.16604610
H  -1.66018818 -2.37419353 -2.16872055
H  -0.85717452  0.88643465 -3.69995117
H  -2.14381281 -0.28120563 -3.40376112
H  -0.77221203 -0.72444594 -4.43131667
H   1.18547204  0.78278224 -2.33574945
H   1.83352794 -0.03181669 -4.37670682
H   1.46299332 -1.70661260 -3.99228675
H   3.51116345 -2.11647598 -3.00964217
H   3.98533671 -0.92907326 -4.22050919
H   5.22856494  1.13190966 -3.23935235
H   6.03057221 -0.30488601 -2.61262894
H   5.56355608  0.99560830 -1.50681396
H   3.51114814  0.48597244 -0.24865084
H   2.03045941 -1.87189499 -1.12887290
49
Testosterone
C   1.77597192 -1.18236568  2.38283163
C   0.48985376 -1.94378380  2.05302845
C   0.71726846 -2.91165031  0.89418024
C   0.95688014 -2.13877667 -0.40620566
C  -0.18649198 -1.16787300 -0.73532459
C  -0.44603166 -0.20435405  0.43712457
C  -0.69861049 -1.04353808  1.68552711
C  -1.03117072 -0.33668070  3.00003868
C  -0.78172158 -1.42096370  4.06466326
C  -0.05036172 -2.58070046  3.35634057
O   0.92598663 -3.10887740  4.21892753
C  -1.64686049  0.68086388  0.12000126
C  -1.38968415  1.47660922 -1.15616379
C  -1.07372108  0.57309186 -2.30594825
C  -1.72404826  0.70748078 -3.46796670
C  -1.40897643 -0.02381472 -4.69198571
O  -2.06825272  0.07486396 -5.70544225
C  -0.15654560 -0.86466032 -4.60779227
C  -0.01003965 -1.48351699 -3.22393223
C   0.03093022 -0.43804892 -2.09300354
C   1.36925943  0.32014945 -2.13547763
H   1.65537061 -0.59794762  3.28879543
H   2.07368320 -0.51772453  1.57862307
H   2.58517143 -1.88987676  2.55307905
H   1.57656855 -3.55934552  1.08758129
H  -0.16244052 -3.55075139  0.77693017
H   1.89413707 -1.59073384 -0.32325336
H   1.06543113 -2.86272529 -1.21433594
H  -1.10086269 -1.76461875 -0.85171360
H   0.42263811  0.43800737  0.60079049
H  -1.53987825 -1.71167236  1.45885747
H  -0.37710548  0.52233101  3.14849700
H  -2.06101979  0.01581233  3.02463558
H  -0.14817091 -1.06287937  4.87445034
H  -1.71309962 -1.77208655  4.50476229
H  -0.77199637 -3.37118420  3.09075968
H   1.38920823 -3.81942035  3.76375187
H  -2.53563640  0.05968169 -0.01251163
H  -1.83549716  1.36773663  0.94600537
H  -2.25364767  2.09812496 -1.39657055
H  -0.53732922  2.14224664 -0.99108561
H  -2.52521677  1.42912790 -3.56109140
H  -0.18795539 -1.63788039 -5.37729699
H   0.69291837 -0.21337511 -4.82926362
H  -0.85902260 -2.15116801 -3.05614541
H   0.89899099 -2.08592933 -3.20407995
H   2.20014123 -0.37273643 -2.23784069
H   1.51717688  0.90824772 -1.23459230
H   1.38696500  1.00040222 -2.98414373
53
LTHC
C  -1.53449569 -4.74757171 -0.10254351
C  -0.79782969 -4.33527648  1.16582224
C  -1.74131090 -4.26471613  2.36609223
C  -1.07786881 -3.70075655  3.62707075
C  -1.23074249 -2.17836340  3.77010130
C  -0.61607999 -1.43025488  2.62388578
C   0.76352652 -1.28505771  2.54366614
C   1.34579958 -0.63892353  1.46475143
C   0.56066473 -0.11002109  0.43725720
C   1.17973385  0.63147068 -0.71455295
C   2.11836750  1.73271681 -0.30837804
C   2.58222791  2.53051239 -1.26109743
C   2.19710180  2.21816501 -2.68071069
C   0.69161573  1.91271049 -2.83081049
C   0.08803144  1.31633828 -1.55494832
C  -1.10365772  0.36889326 -1.76751529
O  -1.67276271  0.08754173 -0.48379039
C  -0.81851010 -0.30321969  0.49923150
C  -1.39811982 -0.93496828  1.59769562
C  -2.22188448  1.05342171 -2.55446867
C  -0.72037857 -0.95580229 -2.43554671
C   3.48310073  3.69915551 -1.02077315
O   2.70320925 -0.51837202  1.36785164
H  -0.84380703 -4.82516333 -0.93927399
H  -2.02234594 -5.71118667  0.03091326
H  -2.29371818 -4.00992779 -0.35296893
H  -0.00394548 -5.05641876  1.37692966
H  -0.33198117 -3.36268883  1.00744486
H  -2.11069238 -5.27262511  2.57214179
H  -2.60397498 -3.64838751  2.10732950
H  -1.52739119 -4.16184044  4.50972274
H  -0.01756208 -3.96115493  3.62353214
H  -2.29270832 -1.93549030  3.83567744
H  -0.75451051 -1.87010980  4.70445874
H   1.39409382 -1.68694744  3.32654685
H   1.73327644 -0.07909626 -1.34464600
H   2.34164477  1.87909575  0.73468002
H   2.47273175  3.03835807 -3.34474171
H   2.76463162  1.33699567 -2.99760968
H   0.56029395  1.22893999 -3.67063552
H   0.16209411  2.83441157 -3.07521778
H  -0.29956193  2.13909108 -0.94004339
H  -2.47086058 -1.04401457  1.61132943
H  -2.46394067  2.01182730 -2.10274413
H  -1.92310039  1.20918896 -3.58616711
H  -3.11151516  0.42947315 -2.53126261
H  -0.22688029 -0.78274394 -3.38728479
H  -0.05968535 -1.53113374 -1.79199584
H  -1.61887029 -1.54359440 -2.60955757
H   3.71761806  3.79560916  0.03604517
H   4.41313832  3.58172137 -1.57716463
H   3.00733567  4.61952898 -1.36021554
H   3.11222936 -0.93315033  2.13650444
53
CBD
C  -4.37146703 -1.46076654  0.31089650
C  -3.28340559 -1.85951914  1.30023266
C  -3.65584205 -1.47815860  2.73122721
C  -2.57986806 -1.83646950  3.75919228
C  -1.47294711 -0.78163936  3.89911774
C  -0.60498967 -0.64298875  2.68164999
C  -0.64447398  0.49996785  1.89950501
C   0.16285122  0.62667119  0.77497913
O   0.10537384  1.75368833  0.00884358
C   1.04248523 -0.39196426  0.40495879
C   1.93791007 -0.27695481 -0.79741619
C   2.80862093  0.94223991 -0.75697497
C   3.56023935  1.22026718 -1.81352704
C   4.47379130  2.39837660 -1.92276460
C   3.46341168  0.27836904 -2.97781004
C   1.99086537  0.03473760 -3.33643045
C   1.10661163 -0.27611402 -2.11040561
C   0.37229560 -1.59037682 -2.23906962
C  -1.11442529 -1.51621159 -2.07307402
C   0.99808285 -2.73416208 -2.46579443
C   1.07513476 -1.53968904  1.19964470
O   1.93683226 -2.53908564  0.85483811
C   0.26576142 -1.66013386  2.32081247
H  -4.09215879 -1.74702390 -0.70019328
H  -5.31279896 -1.94706693  0.55914504
H  -4.52881362 -0.38422883  0.33050424
H  -3.12458153 -2.93919987  1.24718316
H  -2.34634368 -1.37566507  1.02475494
H  -3.85880925 -0.40587501  2.77919120
H  -4.58188160 -1.99632676  2.99445446
H  -3.05207276 -1.94730288  4.73853505
H  -2.13692477 -2.79856119  3.49571709
H  -1.93149504  0.18133759  4.13268333
H  -0.84165250 -1.06402785  4.74645170
H  -1.31443360  1.30918397  2.16204757
H  -0.51696596  2.37636638  0.40295812
H   2.57683807 -1.16583931 -0.81555135
H   2.79893245  1.55781814  0.12839980
H   5.49525992  2.06964926 -2.11595370
H   4.46135375  2.98499317 -1.00760134
H   4.16858140  3.03715158 -2.75199800
H   3.92423576 -0.67627808 -2.70527724
H   3.99354135  0.67040805 -3.84728611
H   1.60956802  0.93176142 -3.82807603
H   1.92869448 -0.78451459 -4.05460266
H   0.37073970  0.52381670 -2.00812149
H  -1.54759570 -0.88742917 -2.85125433
H  -1.35776104 -1.06894220 -1.11001689
H  -1.56818422 -2.50292100 -2.12629190
H   0.46579786 -3.66744462 -2.54304056
H   2.06691587 -2.79070880 -2.57961607
H   1.84057596 -3.26886999  1.47779806
H   0.32036572 -2.55815193  2.92244400
54
DHT
C  -1.19842627  2.57789021 -0.47714756
C  -1.57312622  1.28643044  0.25911533
C  -3.03900907  0.93722863 -0.08958331
C  -4.07845963  1.56021239  0.85931331
C  -3.59894873  2.86062510  1.44646558
O  -4.19028701  3.90611550  1.33784248
C  -2.31353776  2.71362074  2.22229947
C  -1.48826834  1.49743628  1.78832273
C  -0.05190707  1.64600512  2.28927659
C   0.78679332  0.44234889  1.88288417
C   0.78513705  0.28963581  0.36094268
C  -0.66506382  0.08215939 -0.12648910
C  -0.77137360 -0.26535954 -1.62377058
C   0.23725218 -1.31149317 -2.11286527
C   1.64398535 -0.91900594 -1.67712618
C   1.69290664 -0.85228457 -0.12958336
C   3.20038049 -0.68293704  0.12061586
C   3.86125345 -1.58756674 -0.93727250
C   2.77250356 -1.93426246 -1.98739480
O   3.24429063 -1.94141452 -3.30753216
C   1.28631858 -2.17822926  0.53638276
C   2.02725404  0.40176657 -2.36719140
H  -1.92735386  3.35506754 -0.26395387
H  -0.21844812  2.94262551 -0.18372864
H  -1.19760645  2.42859326 -1.55334723
H  -3.24724325  1.27419635 -1.10523798
H  -3.17840340 -0.14518251 -0.06871169
H  -4.25707055  0.88594564  1.70039238
H  -5.02378821  1.71436664  0.33829392
H  -2.58490131  2.61745762  3.27773516
H  -1.73678660  3.63600122  2.13310768
H  -1.90650799  0.59922242  2.25728468
H  -0.06289528  1.73939230  3.37795553
H   0.39395024  2.55837114  1.89001843
H   1.81050532  0.56591112  2.24040530
H   0.36701724 -0.44701391  2.35384065
H   1.17348356  1.22390991 -0.04862634
H  -1.06139675 -0.77351283  0.43198379
H  -0.64181281  0.63299970 -2.22371547
H  -1.77610395 -0.63930957 -1.82721758
H   0.18389011 -1.37597904 -3.20182280
H  -0.01409604 -2.29636922 -1.72049276
H   3.49789604  0.35787851 -0.00900700
H   3.48317081 -0.98251832  1.12850068
H   4.26088527 -2.49480101 -0.48694804
H   4.69376813 -1.08247835 -1.43012826
H   2.40559520 -2.95458830 -1.85195330
H   3.61811925 -1.07611039 -3.50903056
H   1.50578400 -2.12595087  1.59987732
H   1.85072739 -3.01166785  0.13373509
H   0.23086048 -2.39761522  0.42114666
H   1.39869682  1.22810347 -2.05850103
H   1.90219787  0.28306046 -3.44288814
H   3.05956610  0.67687674 -2.16596232
49
CBN
C  -3.80350360  4.52884795  1.30895529
C  -2.83042807  3.98777004  2.34943475
C  -2.69098666  2.47017871  2.26059984
C  -1.72005631  1.92278133  3.30277374
C  -1.57704661  0.39710309  3.22129787
C  -0.97060489 -0.03015452  1.91653623
C   0.38342616  0.14051935  1.68455460
C   0.94067066 -0.21746407  0.46458725
C   0.17123936 -0.81095204 -0.54961711
C  -1.20510142 -0.94157728 -0.31553181
O  -2.02117670 -1.44200307 -1.28820098
C  -1.75501412 -0.54834055  0.89729964
C   0.88372542 -1.29886521 -1.73142226
C   0.35611893 -2.25804992 -2.59205751
C   1.07241666 -2.72965211 -3.67995004
C   0.47058969 -3.73899095 -4.61087749
C   2.35034490 -2.23579113 -3.90419650
C   2.90139231 -1.30320265 -3.04475277
C   2.18656522 -0.83356898 -1.95573161
C   2.74989387  0.20934801 -1.01742611
C   4.27237882  0.15320236 -0.88479503
C   2.30713251  1.60278336 -1.49708986
O   2.26946140  0.00108764  0.31616753
H  -3.46426861  4.28072819  0.30549495
H  -3.88586610  5.61054947  1.38581487
H  -4.79281138  4.09889266  1.45132954
H  -3.17818358  4.26138217  3.34851903
H  -1.85054132  4.44780832  2.20311114
H  -2.33759180  2.19861719  1.26340284
H  -3.67241399  2.01069159  2.40370277
H  -2.07153660  2.19313069  4.30141573
H  -0.73999235  2.38115605  3.15703185
H  -2.56008982 -0.06218723  3.34296828
H  -0.93927690  0.06052212  4.04152690
H   1.02923406  0.55822207  2.44055369
H  -2.93424960 -1.41250311 -0.97655213
H  -2.82152577 -0.66186110  1.04789890
H  -0.63159576 -2.64517117 -2.40897181
H   0.05318035 -3.23699530 -5.48440921
H   1.22411416 -4.44312844 -4.95786557
H  -0.33001207 -4.28862165 -4.12215631
H   2.92143585 -2.58589248 -4.75231143
H   3.89930539 -0.93986678 -3.23463678
H   4.75601952  0.53825954 -1.77677937
H   4.59671238 -0.86855768 -0.70559683
H   4.56680641  0.76381074 -0.03498322
H   1.22051733  1.66317396 -1.50886347
H   2.67760102  1.78366664 -2.50249124
H   2.69402762  2.36680319 -0.82636881
45
R1881
C   2.08518518  3.79638205  0.17847138
C   2.91116800  2.51090529  0.06669634
C   3.13233642  2.09260078 -1.41082851
C   2.24249656  0.86774302 -1.69928479
C   1.27425106  0.87584457 -0.52242369
C   2.16464160  1.27878331  0.66635796
C   1.30832588  1.46857239  1.87721850
C   0.09710551  0.91136481  1.98016170
C  -0.53902112  0.19236503  0.88882436
C  -1.88609829  0.08025216  0.76925966
C  -2.82253469  0.42679341  1.90474951
C  -4.28361614  0.55760790  1.48644851
C  -4.71533689 -0.56477541  0.56299938
O  -5.77313658 -1.14722714  0.67961871
C  -3.77438732 -0.77877709 -0.52542849
C  -2.47738967 -0.41278066 -0.45312760
C  -1.58617327 -0.44998871 -1.65802778
C  -0.24952670 -1.08091356 -1.29842436
C   0.42811683 -0.34189731 -0.14540724
C   3.22160790  0.22531378  1.04889902
O   4.18393373  2.73173638  0.63960461
H   1.89184933  4.03500739  1.22348320
H   2.64385204  4.61753394 -0.26664202
H   1.13197140  3.70723466 -0.33295977
H   4.18897252  1.86691503 -1.54420617
H   2.88342198  2.92176758 -2.07116870
H   2.82430247 -0.05317080 -1.72190913
H   1.72986846  0.96726138 -2.65502784
H   0.57443450  1.70199026 -0.69413308
H   1.73021438  2.00751126  2.71500404
H  -0.46621067  1.04558630  2.89161182
H  -2.74123059 -0.36718257  2.65550760
H  -2.51533961  1.36089386  2.37709250
H  -4.42732759  1.48916890  0.93024425
H  -4.93216320  0.58398498  2.36305804
H  -4.17126483 -1.22247957 -1.42741152
H  -1.42524109  0.57914868 -1.99400052
H  -2.06478210 -0.99803373 -2.47033418
H  -0.43024416 -2.11542718 -0.99622128
H   0.41112245 -1.09839751 -2.16547177
H   1.07746950 -1.06554649  0.35687058
H   3.82174928  0.60516082  1.87238528
H   2.75945143 -0.70174753  1.37704149
H   3.89043538  0.02094511  0.22012032
H   4.06612872  3.09780219  1.52295165
43
RBICALUTAMIDE
C   0.99569331 -3.24258836 -1.24399336
C   1.38268833 -1.81125060 -1.62047886
C   2.70031955 -1.39930937 -0.92837109
S   2.59014630 -0.96302719  0.83749291
O   1.69643878 -1.90183019  1.48945653
O   3.92749150 -0.88587150  1.34455002
C   1.82681899  0.66747203  0.99813916
C   1.19986242  0.91949534  2.20684210
C   0.59182060  2.14117187  2.43049360
C   0.62184736  3.08652316  1.41776008
C   1.25664925  2.85065468  0.20900506
C   1.87566763  1.62867200  0.00558386
F   0.02074725  4.26593194  1.61502176
C   0.28761737 -0.78074372 -1.26693616
O   0.04025159  0.10548013 -2.06079485
N  -0.32333877 -0.97098875 -0.07621825
C  -1.24640198 -0.14131458  0.55040736
C  -1.75922887  1.01117411 -0.04324740
C  -2.64823638  1.80437842  0.65854785
C  -3.05759775  1.45539576  1.95038720
C  -2.54677456  0.29271042  2.53142875
C  -1.64992912 -0.49118891  1.84119858
C  -3.98062070  2.24443056  2.67807243
N  -4.72860341  2.85180158  3.29652163
C  -3.20064051  3.05759310  0.02975828
F  -3.04773467  4.13285390  0.81389978
F  -4.51555232  2.95062776 -0.22699224
F  -2.60906803  3.35133897 -1.13541189
O   1.58452126 -1.74114435 -3.00878700
H   1.11399682 -3.41689559 -0.17910864
H   1.65106654 -3.91913442 -1.78715970
H  -0.02854509 -3.44839680 -1.54533259
H   3.41025673 -2.22460567 -0.96265689
H   3.14773096 -0.54670715 -1.43353387
H   1.19820736  0.14824760  2.96040615
H   0.10067247  2.36750032  3.36319041
H   1.26062813  3.61453238 -0.55163142
H   2.38164251  1.44347768 -0.92748937
H   0.08190899 -1.68355050  0.53182000
H  -1.45831666  1.28532798 -1.04109318
H  -2.86305159  0.01972739  3.52641403
H  -1.24612127 -1.38313070  2.29592982
H   1.15273569 -0.92879869 -3.32823755
58
5FAKB48
C  -4.40642001 -1.19023334  0.99229397
C  -3.42923984 -2.32568880  0.69001332
C  -3.10458068 -3.07944503  1.97852889
C  -2.47351102 -2.11677000  2.98300165
C  -3.44963716 -0.98102837  3.28793329
C  -3.77166768 -0.22987847  1.99680914
C  -2.48504144  0.34961970  1.40777934
C  -1.50662713 -0.78464041  1.10347888
C  -2.14393876 -1.75084000  0.09863197
C  -1.18589727 -1.54162879  2.39719894
N  -0.29235358 -0.20620842  0.54336593
C   0.80031852 -0.89464323  0.15337806
O   0.92379193 -2.10644344  0.21194802
C   1.86365733 -0.01721300 -0.37635898
N   1.73027028  1.29519976 -0.45087631
N   2.84957728  1.79850985 -0.97393977
C   3.74464934  0.81563106 -1.26513133
C   5.02569240  0.85231081 -1.81171116
C   5.67213478 -0.35169050 -1.96523774
C   5.07737750 -1.56583531 -1.59069309
C   3.81656727 -1.61253696 -1.04754570
C   3.13782438 -0.40466408 -0.88138905
C   2.95565518  3.20356828 -1.24467963
C   2.70386508  3.52647020 -2.72399372
C   1.39480874  2.94252816 -3.26175869
C   0.14235962  3.34473411 -2.48473726
C  -0.10023976  4.84713981 -2.48897994
F  -1.30891439  5.12706606 -1.89462143
H  -5.33340487 -1.59618253  1.40328055
H  -4.65424172 -0.65622594  0.07190136
H  -3.88169121 -3.01405860 -0.03252406
H  -2.41200509 -3.89559227  1.76435805
H  -4.01649715 -3.51094783  2.39789062
H  -2.23919560 -2.65494554  3.90825121
H  -4.36796670 -1.38496597  3.72001020
H  -3.00965076 -0.29690718  4.01716343
H  -4.46846897  0.58819947  2.21251117
H  -2.03193206  1.04590936  2.11816739
H  -2.71058753  0.89842570  0.48985198
H  -1.43560650 -2.54960024 -0.12259673
H  -2.35874312 -1.21825966 -0.83128629
H  -0.71526669 -0.85976280  3.11012084
H  -0.47869049 -2.34065972  2.17359510
H  -0.24677274  0.79611137  0.44065602
H   5.49154914  1.78282853 -2.09929832
H   6.66695531 -0.36743406 -2.38594011
H   5.63339315 -2.48008621 -1.73564973
H   3.34566902 -2.53581948 -0.75174809
H   3.95527384  3.54607028 -0.95997408
H   2.22128899  3.70540764 -0.61240245
H   2.71399228  4.61040407 -2.84499862
H   3.52391870  3.11850068 -3.31887022
H   1.46248036  1.85286936 -3.24740780
H   1.28719966  3.24935281 -4.30462478
H  -0.72315872  2.86240835 -2.94417515
H   0.20901176  2.98620531 -1.45686431
H   0.65477265  5.39539933 -1.91686471
H  -0.15427182  5.24263115 -3.50919911
59
MDMBCHMINACA
C  -4.28106239 -2.51231423  2.52596443
C  -3.34555802 -1.52189724  1.83293419
C  -2.29149815 -1.03562252  2.83063927
C  -4.14583992 -0.32943322  1.30361055
C  -2.61839942 -2.24458294  0.65765232
C  -3.58884502 -2.53311438 -0.47788262
O  -4.49102655 -3.32749813 -0.43093803
O  -3.33318203 -1.77897888 -1.55334346
C  -4.18747086 -1.97598699 -2.67057481
N  -1.47254880 -1.51361348  0.19169356
C  -0.21056965 -1.99105711  0.30093535
O   0.06551104 -3.05295184  0.83023817
C   0.79631797 -1.08385717 -0.27148011
N   0.47598376  0.08152053 -0.80832790
N   1.59452615  0.66125696 -1.23989146
C   2.68450882 -0.11459460 -0.98641199
C   4.04238489  0.05832582 -1.25193999
C   4.89051352 -0.94992373 -0.85943587
C   4.42144129 -2.10799921 -0.22138962
C   3.08601263 -2.29276035  0.04035290
C   2.20379217 -1.28334815 -0.34723849
C   1.54664696  1.97630188 -1.81450598
C   1.29305998  3.04877551 -0.74010701
C   2.45581007  3.15167332  0.26619418
C   3.31222791  4.40173050  0.05142227
C   3.55410894  4.63860022 -1.43419491
C   2.23461422  4.93909517 -2.16003069
C   1.02170849  4.40502544 -1.39113673
H  -4.96778472 -2.95898578  1.81258935
H  -4.85942163 -2.00453241  3.29456739
H  -3.70877606 -3.30890459  2.99508017
H  -1.68486237 -0.24085075  2.40330456
H  -2.77797222 -0.65438169  3.72540937
H  -1.63224594 -1.85179456  3.11547896
H  -3.51355793  0.33955180  0.72357778
H  -4.96713299 -0.66579047  0.67432862
H  -4.56566978  0.23388972  2.13422442
H  -2.23778459 -3.20484176  1.02919735
H  -5.20990448 -1.68310088 -2.42243875
H  -3.79438374 -1.35126173 -3.46835905
H  -4.18684608 -3.02629456 -2.96787047
H  -1.60421917 -0.64866757 -0.30836682
H   4.41818476  0.94296427 -1.74428614
H   5.94979568 -0.85123936 -1.04664003
H   5.13511016 -2.86621656  0.06435287
H   2.70693912 -3.17701603  0.52623089
H   0.72721675  1.99898138 -2.53964182
H   2.48694768  2.15290334 -2.33521088
H   0.38871672  2.73446770 -0.20805194
H   2.06243132  3.16386078  1.28407700
H   3.08852997  2.26644755  0.18168990
H   2.81860650  5.27613964  0.47845439
H   4.26447773  4.27817402  0.57029695
H   4.25021123  5.46768060 -1.57083797
H   4.02833768  3.75026541 -1.85651157
H   2.25901477  4.50645400 -3.16153657
H   2.11638651  6.01735597 -2.28076250
H   0.16730057  4.32729623 -2.06631364
H   0.74895758  5.10981508 -0.60437737
68
HU210
C   0.41137473 -5.44251548  5.54119624
C  -0.84098567 -4.68523449  5.96734886
C  -0.62135153 -3.17624387  6.09167800
C  -0.30073586 -2.46075372  4.77781240
C  -1.47682540 -2.44514417  3.80169760
C  -1.18526891 -1.64804468  2.52207772
C  -0.76199003 -2.46451492  1.27871333
C   0.41863461 -3.39918172  1.57220323
C  -1.93820014 -3.32386250  0.80697389
C  -0.33677186 -1.45988484  0.21547847
C  -0.99474510 -1.31110795 -0.99100145
C  -0.58683608 -0.35842934 -1.92070834
C   0.46459179  0.51963472 -1.65034879
C   0.77214177  1.63556103 -2.62178355
C   0.72698238  3.02118655 -1.96473618
C   0.86396147  4.11010348 -2.99009486
C   1.23827955  5.45881519 -2.43514529
O   2.46469843  5.34714469 -1.73494880
C   0.69873541  3.90319908 -4.28829828
C   0.28101425  2.58671399 -4.86899827
C  -0.24729302  1.67230608 -3.76807108
C  -0.64179760  0.25732158 -4.21400081
C  -1.70756275  0.28474210 -5.31079434
C   0.54908870 -0.59317071 -4.66850116
O  -1.27604794 -0.37172811 -3.09854131
C   1.19310230  0.30757923 -0.47612015
C   2.44748614  1.06892019 -0.15144263
C   0.78079227 -0.65957215  0.42789234
H   0.22589424 -6.51450017  5.55088350
H   0.71834612 -5.16328418  4.53670177
H   1.23343159 -5.23092567  6.22189366
H  -1.64721423 -4.88595100  5.25982155
H  -1.16399174 -5.06284685  6.94093092
H  -1.51994412 -2.72763873  6.52365679
H   0.20024743 -3.00421751  6.79203659
H   0.56786687 -2.92409038  4.31264217
H  -0.03185960 -1.42706880  5.01262820
H  -2.33134063 -1.99323290  4.31166512
H  -1.75913931 -3.46634467  3.55156665
H  -2.07897028 -1.08747308  2.23720249
H  -0.41020595 -0.91251795  2.74243682
H   1.25357305 -2.86255167  2.01265348
H   0.11780313 -4.19256623  2.25165935
H   0.76075014 -3.85715621  0.64589925
H  -2.20702141 -4.04854471  1.57183029
H  -2.81297709 -2.71139559  0.60341179
H  -1.67207288 -3.87473623 -0.09206847
H  -1.83333593 -1.92407633 -1.27310904
H   1.77571296  1.49523819 -3.04293803
H  -0.21676218  3.13982920 -1.42151513
H   1.53462229  3.15054809 -1.24800496
H   0.44589724  5.79904311 -1.74835785
H   1.32501374  6.18866460 -3.25161436
H   2.71336068  6.21482284 -1.40235330
H   0.84812739  4.70773058 -4.99599181
H  -0.48816242  2.76030966 -5.62495940
H   1.13751212  2.12889281 -5.37365729
H  -1.16796923  2.12258131 -3.37463262
H  -1.27708529  0.59846868 -6.25659572
H  -2.51344288  0.96105954 -5.03776424
H  -2.12297095 -0.71309662 -5.42513901
H   0.19293325 -1.57672427 -4.96676628
H   1.26277397 -0.72134485 -3.85883091
H   1.04849846 -0.13171180 -5.51525700
H   3.12035634  0.43503136  0.42373055
H   2.96629909  1.39249321 -1.04955111
H   2.22557492  1.94579754  0.45634412
H   1.36413120 -0.78161458  1.32848969
