49
CBN
C  -3.80350360  4.52884795  1.30895529
C  -2.83042807  3.98777004  2.34943475
C  -2.69098666  2.47017871  2.26059984
C  -1.72005631  1.92278133  3.30277374
C  -1.57704661  0.39710309  3.22129787
C  -0.97060489 -0.03015452  1.91653623
C   0.38342616  0.14051935  1.68455460
C   0.94067066 -0.21746407  0.46458725
C   0.17123936 -0.81095204 -0.54961711
C  -1.20510142 -0.94157728 -0.31553181
O  -2.02117670 -1.44200307 -1.28820098
C  -1.75501412 -0.54834055  0.89729964
C   0.88372542 -1.29886521 -1.73142226
C   0.35611893 -2.25804992 -2.59205751
C   1.07241666 -2.72965211 -3.67995004
C   0.47058969 -3.73899095 -4.61087749
C   2.35034490 -2.23579113 -3.90419650
C   2.90139231 -1.30320265 -3.04475277
C   2.18656522 -0.83356898 -1.95573161
C   2.74989387  0.20934801 -1.01742611
C   4.27237882  0.15320236 -0.88479503
C   2.30713251  1.60278336 -1.49708986
O   2.26946140  0.00108764  0.31616753
H  -3.46426861  4.28072819  0.30549495
H  -3.88586610  5.61054947  1.38581487
H  -4.79281138  4.09889266  1.45132954
H  -3.17818358  4.26138217  3.34851903
H  -1.85054132  4.44780832  2.20311114
H  -2.33759180  2.19861719  1.26340284
H  -3.67241399  2.01069159  2.40370277
H  -2.07153660  2.19313069  4.30141573
H  -0.73999235  2.38115605  3.15703185
H  -2.56008982 -0.06218723  3.34296828
H  -0.93927690  0.06052212  4.04152690
H   1.02923406  0.55822207  2.44055369
H  -2.93424960 -1.41250311 -0.97655213
H  -2.82152577 -0.66186110  1.04789890
H  -0.63159576 -2.64517117 -2.40897181
H   0.05318035 -3.23699530 -5.48440921
H   1.22411416 -4.44312844 -4.95786557
H  -0.33001207 -4.28862165 -4.12215631
H   2.92143585 -2.58589248 -4.75231143
H   3.89930539 -0.93986678 -3.23463678
H   4.75601952  0.53825954 -1.77677937
H   4.59671238 -0.86855768 -0.70559683
H   4.56680641  0.76381074 -0.03498322
H   1.22051733  1.66317396 -1.50886347
H   2.67760102  1.78366664 -2.50249124
H   2.69402762  2.36680319 -0.82636881