  49

 C         -3.8035036000        4.5288479500        1.3089552900
 C         -2.8304280700        3.9877700400        2.3494347500
 C         -2.6909866600        2.4701787100        2.2605998400
 C         -1.7200563100        1.9227813300        3.3027737400
 C         -1.5770466100        0.3971030900        3.2212978700
 C         -0.9706048900       -0.0301545200        1.9165362300
 C          0.3834261600        0.1405193500        1.6845546000
 C          0.9406706600       -0.2174640700        0.4645872500
 C          0.1712393600       -0.8109520400       -0.5496171100
 C         -1.2051014200       -0.9415772800       -0.3155318100
 O         -2.0211767000       -1.4420030700       -1.2882009800
 C         -1.7550141200       -0.5483405500        0.8972996400
 C          0.8837254200       -1.2988652100       -1.7314222600
 C          0.3561189300       -2.2580499200       -2.5920575100
 C          1.0724166600       -2.7296521100       -3.6799500400
 C          0.4705896900       -3.7389909500       -4.6108774900
 C          2.3503449000       -2.2357911300       -3.9041965000
 C          2.9013923100       -1.3032026500       -3.0447527700
 C          2.1865652200       -0.8335689800       -1.9557316100
 C          2.7498938700        0.2093480100       -1.0174261100
 C          4.2723788200        0.1532023600       -0.8847950300
 C          2.3071325100        1.6027833600       -1.4970898600
 O          2.2694614000        0.0010876400        0.3161675300
 H         -3.4642686100        4.2807281900        0.3054949500
 H         -3.8858661000        5.6105494700        1.3858148700
 H         -4.7928113800        4.0988926600        1.4513295400
 H         -3.1781835800        4.2613821700        3.3485190300
 H         -1.8505413200        4.4478083200        2.2031111400
 H         -2.3375918000        2.1986171900        1.2634028400
 H         -3.6724139900        2.0106915900        2.4037027700
 H         -2.0715366000        2.1931306900        4.3014157300
 H         -0.7399923500        2.3811560500        3.1570318500
 H         -2.5600898200       -0.0621872300        3.3429682800
 H         -0.9392769000        0.0605221200        4.0415269000
 H          1.0292340600        0.5582220700        2.4405536900
 H         -2.9342496000       -1.4125031100       -0.9765521300
 H         -2.8215257700       -0.6618611000        1.0478989000
 H         -0.6315957600       -2.6451711700       -2.4089718100
 H          0.0531803500       -3.2369953000       -5.4844092100
 H          1.2241141600       -4.4431284400       -4.9578655700
 H         -0.3300120700       -4.2886216500       -4.1221563100
 H          2.9214358500       -2.5858924800       -4.7523114300
 H          3.8993053900       -0.9398667800       -3.2346367800
 H          4.7560195200        0.5382595400       -1.7767793700
 H          4.5967123800       -0.8685576800       -0.7055968300
 H          4.5668064100        0.7638107400       -0.0349832200
 H          1.2205173300        1.6631739600       -1.5088634700
 H          2.6776010200        1.7836666400       -2.5024912400
 H          2.6940276200        2.3668031900       -0.8263688100
