  49
        -66.41032063
 C          5.5598160097        2.2216788596        1.9209760365
 C          5.4473338816        0.7371547290        1.5964882906
 C          4.5985296560        0.4915293871        0.3517388961
 C          4.4803385897       -0.9940342994        0.0239173174
 C          3.6340586850       -1.2476967589       -1.2305541521
 C          2.2113140942       -0.8172586230       -1.0242653767
 C          1.3430153158       -1.5996009355       -0.2824828200
 C          0.0347182617       -1.1894782292       -0.0653396898
 C         -0.4364591240        0.0466014656       -0.5373553996
 C          0.4408555968        0.8091755560       -1.3212876858
 O          0.0212480356        1.9847701503       -1.8733507126
 C          1.7370585035        0.3711803592       -1.5583991609
 C         -1.7800376155        0.4534420012       -0.1231928809
 C         -2.2123051929        1.7765217153       -0.1463618999
 C         -3.4803300833        2.1338309618        0.2833577533
 C         -3.9156069075        3.5681632564        0.2551988584
 C         -4.3287662342        1.1437270919        0.7585987310
 C         -3.9067112401       -0.1722356142        0.8154198817
 C         -2.6393829771       -0.5293060543        0.3872415501
 C         -2.1634664954       -1.9641754505        0.4031926312
 C         -2.7828937233       -2.8004519535        1.5237788915
 C         -2.4592327662       -2.6024117327       -0.9651171875
 O         -0.7537970410       -2.0258499799        0.6519579210
 H          6.1648854136        2.3755186780        2.8114951868
 H          4.5744911580        2.6477408113        2.0972332655
 H          6.0220796619        2.7590704529        1.0954674253
 H          5.0003261521        0.2136581392        2.4445444107
 H          6.4464566905        0.3227030467        1.4411775818
 H          5.0462042566        1.0150988107       -0.4970399392
 H          3.5997617561        0.9042634612        0.5097478033
 H          4.0272263831       -1.5142504599        0.8700819533
 H          5.4784618460       -1.4107657555       -0.1313062631
 H          3.6594145511       -2.3150304889       -1.4607699461
 H          4.0694011977       -0.7065334192       -2.0730429832
 H          1.6591006804       -2.5453988769        0.1282632368
 H          0.7310337085        2.3444896192       -2.4198974860
 H          2.3907347686        0.9821538700       -2.1687216283
 H         -1.5481548613        2.5430530581       -0.5074213377
 H         -4.9887797967        3.6444595924        0.0943566618
 H         -3.6831887682        4.0466671693        1.2074137878
 H         -3.3993054030        4.1135168965       -0.5311503856
 H         -5.3248972810        1.4010858634        1.0894222772
 H         -4.5821056283       -0.9239165234        1.1932754448
 H         -3.8206610451       -3.0337140193        1.3083322961
 H         -2.7168816956       -2.2695643031        2.4699064290
 H         -2.2250325287       -3.7296347929        1.6085186335
 H         -3.5274302051       -2.5764544155       -1.1628947580
 H         -2.1144938597       -3.6340118028       -0.9760704855
 H         -1.9446439983       -2.0521261538       -1.7505605051
