  45
    -0.825828 !GC
 C          0.0000000000        0.0000000000        0.0000000000
 C          1.5347446860        0.0000000000        0.0000000000
 C          2.0873157517        1.4460831309        0.0000000000
 C          2.5151253883        1.7813222513       -1.4413641317
 C          2.0332558459        0.5912725456       -2.2699741283
 C          2.1354716764       -0.5980413336       -1.3037010263
 C          1.4443567447       -1.7503865032       -1.9494616933
 C          1.5115981832       -1.9105875960       -3.2772807742
 C          2.2031665309       -1.0083055547       -4.1723648653
 C          2.3953626263       -1.2786463954       -5.4939223135
 C          1.9123755273       -2.5363242068       -6.1728408354
 C          2.9413592690       -3.0810841760       -7.1582316514
 C          3.3202000682       -2.0376470182       -8.1877255466
 O          3.5732656897       -2.3179228619       -9.3431637787
 C          3.4083596260       -0.6910189175       -7.6552196938
 C          3.0631714913       -0.3472560694       -6.3917460196
 C          3.3706733846        1.0443530024       -5.9138251976
 C          2.5746669952        1.4135107840       -4.6732914580
 C          2.7337293678        0.2904918457       -3.5966173667
 C          3.5833061996       -1.0254671871       -1.0149893199
 O          2.0976829202       -0.6636619467        1.1202244133
 H         -0.4043670442       -1.0140094787       -0.0272373694
 H         -0.3520043259        0.4660579044        0.9187976783
 H         -0.4049176749        0.5583108010       -0.8399812781
 H          2.9352184872        1.4635592274        0.6810689019
 H          1.3353149609        2.1441635109        0.3671146765
 H          3.5976914518        1.8798247147       -1.5129545770
 H          2.0702224551        2.7160498615       -1.7807638322
 H          0.9711099010        0.7359670767       -2.5006621041
 H          0.9467879183       -2.4878192311       -1.3362592396
 H          1.0203731434       -2.7667757081       -3.7135630067
 H          1.6786559880       -3.3170672539       -5.4516552014
 H          0.9926022978       -2.2988476047       -6.7194983128
 H          2.5658229073       -3.9720589304       -7.6637695922
 H          3.8554305582       -3.3570076393       -6.6231179894
 H          3.8249008749        0.0519892452       -8.3215322593
 H          3.1875440779        1.7556748075       -6.7214830214
 H          4.4397198199        1.0914995368       -5.6784412210
 H          2.9083868860        2.3767505420       -4.2859602667
 H          1.5130661866        1.4924333093       -4.9196854858
 H          3.8105077831        0.1890752579       -3.4162014490
 H          3.5966231838       -1.7514611601       -0.2052434320
 H          4.0235169566       -1.4760124554       -1.8972287406
 H          4.1800027860       -0.1687721197       -0.7295675203
 H          3.0517851929       -0.6970554569        0.9909942751
  45
    -0.801030 !GC
 C          0.0000000000        0.0000000000        0.0000000000
 C          1.5346156185        0.0000000000        0.0000000000
 C          2.0976816427        1.4339578952        0.0000000000
 C          2.5617000506        1.7569303076       -1.4317940926
 C          2.0500554555        0.5839193779       -2.2653275167
 C          2.1288039944       -0.6120487597       -1.3050536050
 C          1.4213258316       -1.7498430502       -1.9606010351
 C          1.4583336052       -1.8905408858       -3.2918019254
 C          2.1394076886       -0.9824922589       -4.1890505964
 C          2.2675437734       -1.2191639889       -5.5241116207
 C          1.7028236872       -2.4303436500       -6.2235996630
 C          2.6551572048       -2.9595713277       -7.2915004937
 C          3.0106227540       -1.8778032757       -8.2889070349
 O          3.1796815145       -2.1050317440       -9.4707793869
 C          3.1873421747       -0.5647884589       -7.6954851530
 C          2.9229395892       -0.2731269899       -6.4002908008
 C          3.3146154470        1.0754415030       -5.8657436452
 C          2.5573586134        1.4246215204       -4.5951795781
 C          2.7269971393        0.2827032335       -3.5948691386
 C          3.5683980196       -1.0624186733       -1.0097845962
 O          2.1018799998       -0.5656471095        1.1685340500
 H         -0.3903921186       -1.0140000528       -0.0882831433
 H         -0.3504338264        0.4089956535        0.9463102998
 H         -0.4187383420        0.6061689712       -0.8011653924
 H          2.9188150536        1.4393786230        0.7109678584
 H          1.3413221916        2.1357938213        0.3463138058
 H          3.6479182484        1.8184110189       -1.4873098728
 H          2.1532498028        2.7062132889       -1.7759171660
 H          0.9888113156        0.7541791120       -2.4836923393
 H          0.9252352147       -2.5002499903       -1.3586697691
 H          0.9490974031       -2.7358200058       -3.7291336340
 H          1.4874802374       -3.2356054932       -5.5239654092
 H          0.7606700183       -2.1411970702       -6.7030329276
 H          2.2203075049       -3.8117847155       -7.8158443355
 H          3.5880510289       -3.2906534057       -6.8243628410
 H          3.6005990753        0.1936665952       -8.3462452791
 H          3.1574671801        1.8337155957       -6.6351382967
 H          4.3880090996        1.0534908435       -5.6467772459
 H          2.9387840664        2.3552363360       -4.1739141871
 H          1.4961665868        1.5591477922       -4.8181377050
 H          3.8007023854        0.1355264482       -3.4286970975
 H          3.5635079472       -1.8383261915       -0.2475927348
 H          4.0253013723       -1.4572295945       -1.9098772953
 H          4.1731747877       -0.2361066457       -0.6548946904
 H          2.0905387051        0.1043219273        1.8611635384
  45
    -0.789658 !GC
 C          0.0000000000        0.0000000000        0.0000000000
 C          1.5346225576        0.0000000000        0.0000000000
 C          2.0974021092        1.4337804410        0.0000000000
 C          2.5433777508        1.7646567749       -1.4360797711
 C          2.0389432406        0.5872645989       -2.2683806356
 C          2.1310166921       -0.6085026789       -1.3091106891
 C          1.4332829079       -1.7532337672       -1.9629509506
 C          1.4709284085       -1.8943235502       -3.2939755786
 C          2.1410411783       -0.9784891055       -4.1917341228
 C          2.2694280351       -1.2122845873       -5.5269995957
 C          1.7243535929       -2.4308198305       -6.2287981073
 C          2.6751151853       -2.9231687426       -7.3153840458
 C          2.9966931095       -1.8195758680       -8.3008652694
 O          3.1562468014       -2.0272733346       -9.4876933117
 C          3.1569013329       -0.5114520076       -7.6923886101
 C          2.8987059853       -0.2399596433       -6.3915519413
 C          3.2698516056        1.1085459018       -5.8426961951
 C          2.5041409942        1.4306067853       -4.5698454073
 C          2.7150673685        0.2933324601       -3.5981317734
 C          3.5760374502       -1.0438708224       -1.0173209534
 O          2.1011470180       -0.5671668915        1.1681236939
 H         -0.3902591512       -1.0130345331       -0.1013029017
 H         -0.3512482597        0.3959687476        0.9514408020
 H         -0.4184102484        0.6168215235       -0.7932888079
 H          2.9289021677        1.4334873598        0.6988548410
 H          1.3467365103        2.1337672796        0.3618893015
 H          3.6281271716        1.8396132111       -1.5015944156
 H          2.1205734316        2.7094753491       -1.7750366981
 H          0.9759521775        0.7480134664       -2.4844642478
 H          0.9496973592       -2.5101415125       -1.3590117607
 H          0.9731551744       -2.7465183679       -3.7309458460
 H          1.5431120268       -3.2482547890       -5.5335929676
 H          0.7672453894       -2.1642414578       -6.6911893833
 H          2.2522255922       -3.7765482779       -7.8475019224
 H          3.6202669341       -3.2415891405       -6.8643820931
 H          3.5539085392        0.2609012620       -8.3368677116
 H          3.1015915560        1.8727317236       -6.6037613899
 H          4.3428967050        1.1011607001       -5.6215927759
 H          2.8694491643        2.3625123147       -4.1375181596
 H          1.4414937853        1.5504565288       -4.7939932932
 H          3.7907983985        0.1587114560       -3.4339224367
 H          3.5806029436       -1.8181450051       -0.2535868433
 H          4.0346072596       -1.4357531483       -1.9179119544
 H          4.1737573657       -0.2110650665       -0.6652811385
 H          2.1133022728        0.1103402612        1.8535277868
  45
    -0.775932 !GC
 C          0.0000000000        0.0000000000        0.0000000000
 C          1.5347936382        0.0000000000        0.0000000000
 C          2.0981172646        1.4338602413        0.0000000000
 C          2.5529165055        1.7597918484       -1.4343147493
 C          2.0420829136        0.5855863237       -2.2666292032
 C          2.1299115447       -0.6105918078       -1.3077358916
 C          1.4289465000       -1.7534798840       -1.9615323340
 C          1.4551227382       -1.8894158164       -3.2934196472
 C          2.1188755055       -0.9706369404       -4.1931482790
 C          2.2221070055       -1.1917814275       -5.5326063063
 C          1.6414046804       -2.3909251838       -6.2388100386
 C          2.5646037512       -2.8873269293       -7.3473391309
 C          2.8922134820       -1.7761070817       -8.3222201703
 O          3.0311868817       -1.9703411171       -9.5139959087
 C          3.0849790896       -0.4794098187       -7.6984633275
 C          2.8505753249       -0.2226217649       -6.3903105167
 C          3.2533802583        1.1098977433       -5.8253326129
 C          2.5033523519        1.4276215329       -4.5418318968
 C          2.7123517380        0.2898126319       -3.5947679324
 C          3.5728070581       -1.0513549847       -1.0144880412
 O          2.1018354198       -0.5662166693        1.1682202804
 H         -0.4090429154       -1.0052867582       -0.1193040009
 H         -0.3556193660        0.4108341456        0.9444005822
 H         -0.3963882335        0.6124159812       -0.8043080713
 H          2.9252995696        1.4358354321        0.7040002504
 H          1.3451750193        2.1353641640        0.3544634961
 H          3.6384322961        1.8262042913       -1.4958112918
 H          2.1385037530        2.7073613897       -1.7757027147
 H          0.9791969860        0.7521460271       -2.4795467004
 H          0.9509508807       -2.5130581658       -1.3565194637
 H          0.9539532419       -2.7398100967       -3.7301682859
 H          1.4549046463       -3.2129467455       -5.5506739837
 H          0.6827323631       -2.0990531866       -6.6819258285
 H          2.1164611459       -3.7249217156       -7.8839878633
 H          3.5105244848       -3.2301019578       -6.9161342648
 H          3.4866858487        0.2948232078       -8.3377202344
 H          3.0955415982        1.8883206955       -6.5741153522
 H          4.3274810171        1.0770530399       -5.6121098011
 H          2.8865292307        2.3477279685       -4.0996842944
 H          1.4411480509        1.5672756170       -4.7562725898
 H          3.7863600137        0.1394898636       -3.4336820610
 H          3.5513201119       -1.8395176413       -0.2691659112
 H          4.0377569402       -1.4723239831       -1.9003543345
 H          4.1682623888       -0.2281871233       -0.6339087042
 H          2.1136255512        0.1116329599        1.8534903085
  45
    -0.468384 !GC
 C          0.0000000000        0.0000000000        0.0000000000
 C          1.5345164522        0.0000000000        0.0000000000
 C          2.1052135354        1.4319009437        0.0000000000
 C          2.5905754081        1.7484416898       -1.4271052714
 C          2.0435944406        0.5913610850       -2.2584055404
 C          2.1242290185       -0.6104415830       -1.3071323689
 C          1.4260669962       -1.7568027487       -1.9571901674
 C          1.3437781707       -1.8511683487       -3.2904899647
 C          1.8621596686       -0.8681949504       -4.2203903029
 C          1.6505836339       -0.9459498715       -5.5632028446
 C          0.8464795344       -2.0473050945       -6.2103414195
 C          0.0735571733       -1.5601357662       -7.4319524367
 C          0.9911723661       -0.8846304881       -8.4282182555
 O          0.8567226174       -0.9978863273       -9.6302282410
 C          1.9911840754       -0.0343492219       -7.8072052279
 C          2.2420089895       -0.0088323038       -6.4786387171
 C          3.2032331762        0.9963474104       -5.9185735493
 C          2.7002378571        1.4766589641       -4.5643831732
 C          2.6659346072        0.2657023300       -3.6150921605
 C          3.5615801244       -1.0673782984       -1.0057330378
 O          2.0999949233       -0.5691000823        1.1673668939
 H         -0.3756410811        0.3750793892        0.9535326904
 H         -0.4011621532        0.6126880933       -0.8027744067
 H         -0.3822553501       -1.0121214849       -0.1295569448
 H          2.9163111809        1.4370275711        0.7222522631
 H          1.3468060335        2.1384179829        0.3319342191
 H          3.6781460344        1.7775357626       -1.4757935776
 H          2.2123080882        2.7095035833       -1.7725965661
 H          0.9807481238        0.7867927217       -2.4463441553
 H          1.0538000501       -2.5682898712       -1.3439403647
 H          0.8745012038       -2.7292295041       -3.7076215908
 H          1.5369402943       -2.8382990835       -6.5246534536
 H          0.1365043894       -2.4827827753       -5.5086153531
 H         -0.6720970343       -0.8199319431       -7.1253062209
 H         -0.4491852273       -2.3863134215       -7.9158044466
 H          2.5263772883        0.6302400912       -8.4714104549
 H          3.3222994143        1.8287712748       -6.6134034392
 H          4.1831309867        0.5248279611       -5.7903962109
 H          3.3586697654        2.2484083785       -4.1639681742
 H          1.7003713944        1.9031168148       -4.6746851841
 H          3.6948162795       -0.0827384276       -3.4655248340
 H          4.1269082827       -0.2093565692       -0.6458652089
 H          3.5565093492       -1.8032753137       -0.2074623380
 H          4.0662965840       -1.4662409769       -1.8742891086
 H          2.1038326239        0.1043257344        1.8567632459
  45
    -0.466403 !GC
 C          0.0000000000        0.0000000000        0.0000000000
 C          1.5344619486        0.0000000000        0.0000000000
 C          2.1050572533        1.4320178310        0.0000000000
 C          2.5926366110        1.7471421489       -1.4266186450
 C          2.0445690644        0.5908772334       -2.2582681839
 C          2.1232829531       -0.6112410174       -1.3071746892
 C          1.4237329490       -1.7566083609       -1.9573769208
 C          1.3417793547       -1.8508223554       -3.2907169570
 C          1.8625939289       -0.8689597660       -4.2204615784
 C          1.6524033987       -0.9467966245       -5.5635304337
 C          0.8475723668       -2.0474069829       -6.2112436343
 C          0.0786134992       -1.5617352315       -7.4359483408
 C          0.9990352404       -0.8872988380       -8.4303096205
 O          0.8681361839       -1.0022726014       -9.6325071007
 C          1.9982448710       -0.0373301235       -7.8076176996
 C          2.2460149537       -0.0106081370       -6.4784855994
 C          3.2066835031        0.9946768746       -5.9177530698
 C          2.7026904899        1.4751519276       -4.5640547033
 C          2.6668395999        0.2643362879       -3.6147519784
 C          3.5597906724       -1.0709528390       -1.0060028823
 O          2.1000212970       -0.5690865789        1.1673391951
 H         -0.4202849919        0.6225714102       -0.7875023440
 H         -0.3869040396       -1.0131284487       -0.1127313042
 H         -0.3517402101        0.3876980948        0.9547749834
 H          2.9148405509        1.4377316000        0.7237128644
 H          1.3459817935        2.1388179000        0.3298562539
 H          3.6803345685        1.7741742272       -1.4741624868
 H          2.2166306561        2.7089304705       -1.7725749296
 H          0.9820601992        0.7879677088       -2.4464060426
 H          1.0490834622       -2.5671118151       -1.3443529899
 H          0.8694871169       -2.7272059141       -3.7078160757
 H          1.5371319910       -2.8405456422       -6.5220597717
 H          0.1348561553       -2.4803822958       -5.5107649157
 H         -0.6677746179       -0.8209611186       -7.1324102459
 H         -0.4429375415       -2.3884700555       -7.9202581174
 H          2.5363340185        0.6253069059       -8.4713892075
 H          3.3260344799        1.8270384767       -6.6126189962
 H          4.1865794424        0.5233242317       -5.7889987900
 H          3.3613313236        2.2463947596       -4.1631312882
 H          1.7032145399        1.9022895887       -4.6752022890
 H          3.6952759111       -0.0850903560       -3.4646483298
 H          4.1277610448       -0.2142122707       -0.6476432379
 H          3.5538118837       -1.8060098577       -0.2070934946
 H          4.0631013199       -1.4718281370       -1.8743438812
 H          2.1048918833        0.1045832809        1.8564333811
  45
    -0.445505 !GC
 C          0.0000000000        0.0000000000        0.0000000000
 C          1.5344563974        0.0000000000        0.0000000000
 C          2.1048091009        1.4321690657        0.0000000000
 C          2.5927885583        1.7459769927       -1.4266885169
 C          2.0448662780        0.5896190918       -2.2583024056
 C          2.1232554380       -0.6122334779       -1.3066306683
 C          1.4238618017       -1.7577444995       -1.9568704104
 C          1.3487734575       -1.8548217614       -3.2904065488
 C          1.8756721755       -0.8749460724       -4.2186353655
 C          1.6798989123       -0.9590226693       -5.5633969866
 C          0.8945588043       -2.0709468642       -6.2155190786
 C          0.1361019174       -1.5977112406       -7.4517462217
 C          1.0618445068       -0.9176128676       -8.4373781892
 O          0.9474756013       -1.0394242982       -9.6406617028
 C          2.0435317223       -0.0535421489       -7.8062212760
 C          2.2757234253       -0.0199680738       -6.4743901760
 C          3.2174033304        0.9989372442       -5.9057285295
 C          2.6990303303        1.4689622417       -4.5536262228
 C          2.6692892509        0.2645034723       -3.6107427954
 C          3.5597898033       -1.0715462758       -1.0051699328
 O          2.0998620377       -0.5687215890        1.1676136988
 H         -0.4356323243        0.4040303664        0.9104327132
 H         -0.3372155101        0.6237977451       -0.8311125683
 H         -0.3853698044       -1.0044681959       -0.1613253133
 H          2.9143314877        1.4384315896        0.7240374443
 H          1.3455801531        2.1393140094        0.3289369949
 H          3.6805751912        1.7724419448       -1.4738126760
 H          2.2173428643        2.7078051965       -1.7732721014
 H          0.9824923900        0.7866990290       -2.4473254721
 H          1.0433789804       -2.5653248916       -1.3437005937
 H          0.8778651249       -2.7312544991       -3.7090832596
 H          1.5968777921       -2.8575259946       -6.5143748267
 H          0.1778204568       -2.5086563225       -5.5222129114
 H         -0.6216338100       -0.8633849949       -7.1606297065
 H         -0.3708132249       -2.4316168863       -7.9393586129
 H          2.5821035436        0.6125982754       -8.4661052820
 H          3.3274061703        1.8345697176       -6.5982856346
 H          4.2038186294        0.5426557143       -5.7727522513
 H          3.3469231594        2.2453783439       -4.1453282484
 H          1.6959406873        1.8862653510       -4.6696619169
 H          3.7004194478       -0.0764862368       -3.4594893952
 H          4.1267908373       -0.2147656617       -0.6452235274
 H          3.5538726641       -1.8076609103       -0.2072245103
 H          4.0638708721       -1.4711080638       -1.8737337877
 H          2.1052705729        0.1052896561        1.8563908798
  45
    -0.441247 !GC
 C          0.0000000000        0.0000000000        0.0000000000
 C          1.5345423162        0.0000000000        0.0000000000
 C          2.1049668804        1.4319000676        0.0000000000
 C          2.5818361466        1.7513297670       -1.4294153737
 C          2.0393189098        0.5911976667       -2.2597146877
 C          2.1250861606       -0.6095359476       -1.3073210299
 C          1.4310540251       -1.7591036061       -1.9562117794
 C          1.3569823983       -1.8579610941       -3.2896685456
 C          1.8792732141       -0.8760591169       -4.2183680646
 C          1.6868533299       -0.9628010454       -5.5632932972
 C          0.9111683267       -2.0799282009       -6.2176681930
 C          0.1598953749       -1.6114407682       -7.4599418262
 C          1.0914410125       -0.9305536941       -8.4396442686
 O          0.9881216251       -1.0573812868       -9.6435126964
 C          2.0622739891       -0.0577900018       -7.8035416821
 C          2.2848916622       -0.0200937767       -6.4703161353
 C          3.2147488959        1.0068963781       -5.8965392179
 C          2.6880140500        1.4688437884       -4.5449026906
 C          2.6650802694        0.2692876102       -3.6112129319
 C          3.5645266984       -1.0604990840       -1.0069792118
 O          2.0999817305       -0.5692770880        1.1672283148
 H         -0.3417882404        0.6295158648       -0.8247197276
 H         -0.3860253834       -1.0026489557       -0.1702963211
 H         -0.4304363376        0.3936711138        0.9178071469
 H          2.9207419542        1.4350946782        0.7170864386
 H          1.3487561077        2.1376181258        0.3386201685
 H          3.6690130225        1.7875391576       -1.4827325561
 H          2.1960611781        2.7099303923       -1.7734546826
 H          0.9758237495        0.7817268547       -2.4487082146
 H          1.0540931340       -2.5676494502       -1.3419816659
 H          0.8914617665       -2.7375203581       -3.7079190486
 H          1.6185715781       -2.8637729315       -6.5109368975
 H          0.1916513666       -2.5194571233       -5.5284314811
 H         -0.6025377976       -0.8793027469       -7.1759727280
 H         -0.3404660179       -2.4478355701       -7.9499107358
 H          2.5997546892        0.6118286269       -8.4609329176
 H          3.3188786910        1.8450587249       -6.5869732877
 H          4.2051221602        0.5599591298       -5.7616403016
 H          3.3283277607        2.2491090766       -4.1318620344
 H          1.6821398893        1.8785937333       -4.6634860600
 H          3.6988297405       -0.0637868169       -3.4603488662
 H          4.1257899147       -0.2001375201       -0.6464375336
 H          3.5629210778       -1.7969369194       -0.2092263965
 H          4.0709027929       -1.4563400628       -1.8759991184
 H          2.1046249864        0.1042185610        1.8565560759
  45
    -0.436237 !GC
 C          0.0000000000        0.0000000000        0.0000000000
 C          1.5345163261        0.0000000000        0.0000000000
 C          2.1045349462        1.4320527541        0.0000000000
 C          2.5831037301        1.7492950345       -1.4293719190
 C          2.0399007850        0.5894030614       -2.2594303350
 C          2.1253663051       -0.6109017172       -1.3065854092
 C          1.4303587176       -1.7600974707       -1.9550582589
 C          1.3548411499       -1.8589773967       -3.2884189500
 C          1.8756984447       -0.8771415278       -4.2180396475
 C          1.6781721132       -0.9630816579       -5.5624215619
 C          0.8974680616       -2.0796935801       -6.2120123357
 C          0.1283103581       -1.6089830537       -7.4425303816
 C          1.0441798784       -0.9232964919       -8.4334666982
 O          0.9212387307       -1.0422558146       -9.6361911435
 C          2.0255879147       -0.0553161018       -7.8072458303
 C          2.2648865882       -0.0217419784       -6.4767698760
 C          3.2051681709        1.0007825367       -5.9121754367
 C          2.6876800600        1.4722375938       -4.5602151515
 C          2.6650585781        0.2662570409       -3.6118812750
 C          3.5647904304       -1.0619933152       -1.0060477792
 O          2.0996974487       -0.5682454472        1.1678750615
 H         -0.3759560744        0.3722986913        0.9545294049
 H         -0.4008211903        0.6150126769       -0.8012222291
 H         -0.3820790088       -1.0116974233       -0.1328352868
 H          2.9193833142        1.4360812276        0.7180898913
 H          1.3477179217        2.1379906323        0.3368442443
 H          3.6703406759        1.7843999434       -1.4819921203
 H          2.1985524011        2.7080636320       -1.7742258371
 H          0.9764114309        0.7805673378       -2.4480234765
 H          1.0558017159       -2.5695318804       -1.3406357914
 H          0.8905622888       -2.7394799590       -3.7059976605
 H          1.6040131932       -2.8599105778       -6.5176132481
 H          0.1882913622       -2.5244936199       -5.5153693698
 H         -0.6313531917       -0.8792116200       -7.1454878253
 H         -0.3773672878       -2.4448156171       -7.9279389235
 H          2.5558390082        0.6154483012       -8.4692541819
 H          3.3123906783        1.8351398014       -6.6067183136
 H          4.1927793222        0.5469302653       -5.7795651359
 H          3.3329920592        2.2526539809       -4.1553282441
 H          1.6825140002        1.8847653053       -4.6753808765
 H          3.6978538446       -0.0700339313       -3.4611646043
 H          3.9732210543       -1.4613376065       -1.9317361703
 H          4.2039372094       -0.2370144422       -0.7110510211
 H          3.5903820683       -1.8649016724       -0.2794979008
 H          2.1036566723        0.1057984012        1.8567642620
  45
    -0.434438 !GC
 C          0.0000000000        0.0000000000        0.0000000000
 C          1.5345275548        0.0000000000        0.0000000000
 C          2.1048850088        1.4322415934        0.0000000000
 C          2.5953437902        1.7446646615       -1.4260773184
 C          2.0454457038        0.5892877079       -2.2577421589
 C          2.1234921107       -0.6126168498       -1.3062389733
 C          1.4238863322       -1.7580721492       -1.9562554504
 C          1.3472262279       -1.8547368259       -3.2897437868
 C          1.8730450392       -0.8744781565       -4.2180907937
 C          1.6755644392       -0.9589733022       -5.5627037659
 C          0.8859640295       -2.0709023180       -6.2099863290
 C          0.1435633545       -1.6076921710       -7.4596715514
 C          1.0820012966       -0.9401741081       -8.4418338604
 O          0.9822169377       -1.0759549636       -9.6449306461
 C          2.0548088177       -0.0679210934       -7.8084539125
 C          2.2748855298       -0.0238555697       -6.4747967395
 C          3.2100239996        1.0015133378       -5.9064686855
 C          2.6915770557        1.4692580341       -4.5537512695
 C          2.6673903610        0.2649723118       -3.6114683066
 C          3.5600709066       -1.0719330833       -1.0045048230
 O          2.1002074484       -0.5683322228        1.1676288184
 H         -0.4214441742        0.5805625000       -0.8217843371
 H         -0.3064637668       -1.0385464675       -0.1395373000
 H         -0.4296851394        0.3561466748        0.9302976520
 H          2.9130219252        1.4393717389        0.7256087472
 H          1.3448397889        2.1395667315        0.3265910007
 H          3.6832338269        1.7681812618       -1.4720848571
 H          2.2227800866        2.7073740148       -1.7732573326
 H          0.9829650189        0.7873447021       -2.4451677315
 H          1.0451678999       -2.5663943367       -1.3429752405
 H          0.8782156994       -2.7321483419       -3.7084427994
 H          1.5832043094       -2.8686470773       -6.4907542815
 H          0.1577595604       -2.4917285230       -5.5178697940
 H         -0.6151665427       -0.8681117415       -7.1848681471
 H         -0.3604751934       -2.4450573289       -7.9442828622
 H          2.5971486764        0.5953123204       -8.4681572368
 H          3.3135239898        1.8376581916       -6.5994898566
 H          4.1997606744        0.5518632983       -5.7752913213
 H          3.3370102112        2.2480482632       -4.1460040691
 H          1.6867491339        1.8827821459       -4.6684585855
 H          3.6995135290       -0.0743825446       -3.4632459090
 H          4.1240224966       -0.2170485888       -0.6352939121
 H          3.5534761547       -1.8149677747       -0.2129329463
 H          4.0677982867       -1.4626499366       -1.8750180159
 H          2.1048137882        0.1057351841        1.8564386044
  45
    -0.429537 !GC
 C          0.0000000000        0.0000000000        0.0000000000
 C          1.5346771873        0.0000000000        0.0000000000
 C          2.1050334375        1.4322882453        0.0000000000
 C          2.6003468358        1.7426642184       -1.4247812823
 C          2.0489255464        0.5888448852       -2.2572921631
 C          2.1234169305       -0.6134404962       -1.3059200191
 C          1.4217712692       -1.7569531300       -1.9572847878
 C          1.3458400807       -1.8527401645       -3.2909273141
 C          1.8754697853       -0.8737044129       -4.2184067508
 C          1.6794487684       -0.9572226209       -5.5632881730
 C          0.8871987523       -2.0661649111       -6.2123098696
 C          0.1450957377       -1.5980248721       -7.4603423750
 C          1.0867113623       -0.9344589056       -8.4422101676
 O          0.9878201681       -1.0707359236       -9.6452573366
 C          2.0621754652       -0.0655258480       -7.8081286222
 C          2.2820510193       -0.0232592813       -6.4744399184
 C          3.2208799776        0.9979479589       -5.9048164026
 C          2.7024632351        1.4674331087       -4.5525538316
 C          2.6720672218        0.2633857767       -3.6103318213
 C          3.5584689979       -1.0761155980       -1.0030207928
 O          2.1007105194       -0.5678477627        1.1677483344
 H         -0.4215968448        0.5780883609       -0.8234505180
 H         -0.3066243835       -1.0387931409       -0.1369974490
 H         -0.4299572487        0.3585306577        0.9293086549
 H          2.9106830111        1.4406778634        0.7282860697
 H          1.3437758006        2.1401032015        0.3228493897
 H          3.6884049856        1.7626784672       -1.4681052495
 H          2.2315794855        2.7064227171       -1.7730441849
 H          0.9870008895        0.7894077461       -2.4455405553
 H          1.0403110643       -2.5644183844       -1.3446581944
 H          0.8741735377       -2.7282788192       -3.7104869105
 H          1.5826455201       -2.8645418158       -6.4955966983
 H          0.1586410554       -2.4871248624       -5.5207081467
 H         -0.6092975381       -0.8546869090       -7.1835873074
 H         -0.3638184215       -2.4321408895       -7.9454350581
 H          2.6076944864        0.5956192659       -8.4673211547
 H          3.3292164477        1.8334379138       -6.5979041134
 H          4.2083180647        0.5438404491       -5.7719933787
 H          3.3501249198        2.2437197596       -4.1435842390
 H          1.6993507408        1.8845298528       -4.6684947969
 H          3.7028576060       -0.0792459003       -3.4608379402
 H          4.0338658944       -1.4395617396       -1.9090938984
 H          4.1307306770       -0.2154542209       -0.6677078305
 H          3.5997768562       -1.8359819813       -0.2326872315
 H          2.1042915096        0.1060968981        1.8569763810
  45
    -0.428143 !GC
 C          0.0000000000        0.0000000000        0.0000000000
 C          1.5344661121        0.0000000000        0.0000000000
 C          2.1044784715        1.4322715619        0.0000000000
 C          2.5873048698        1.7481987758       -1.4280599874
 C          2.0412033081        0.5902118582       -2.2588497728
 C          2.1238508331       -0.6111508777       -1.3069404292
 C          1.4274592133       -1.7592142228       -1.9559285499
 C          1.3526888441       -1.8577136436       -3.2893673681
 C          1.8763345693       -0.8767461401       -4.2182369089
 C          1.6816968604       -0.9630709246       -5.5629211644
 C          0.9036921821       -2.0803225349       -6.2146295978
 C          0.1451739845       -1.6124787394       -7.4529142097
 C          1.0691992617       -0.9278523917       -8.4370783681
 O          0.9582492527       -1.0513577525       -9.6404704544
 C          2.0443136189       -0.0573146677       -7.8045517295
 C          2.2738518481       -0.0218788227       -6.4723471283
 C          3.2080711914        1.0033267681       -5.9024599890
 C          2.6869427189        1.4676658138       -4.5494602348
 C          2.6646747197        0.2670927331       -3.6116107377
 C          3.5620596700       -1.0660475427       -1.0065918266
 O          2.0997874333       -0.5688780774        1.1675078835
 H         -0.4353713543        0.4016662506        0.9116648589
 H         -0.3373162844        0.6262066260       -0.8293064795
 H         -0.3856583762       -1.0039234720       -0.1640100614
 H          2.9167319839        1.4372932315        0.7209851649
 H          1.3464288599        2.1386968472        0.3330737226
 H          3.6748191618        1.7786228404       -1.4783471006
 H          2.2075988087        2.7087860936       -1.7733158554
 H          0.9780736802        0.7842449016       -2.4466387425
 H          1.0487368848       -2.5669347946       -1.3418045322
 H          0.8835902291       -2.7354711072       -3.7074151370
 H          1.6109233910       -2.8632420944       -6.5115357007
 H          0.1880284855       -2.5212905790       -5.5223054648
 H         -0.6174747358       -0.8824941848       -7.1639877239
 H         -0.3558029839       -2.4497923895       -7.9409249283
 H          2.5798362272        0.6120878603       -8.4636676912
 H          3.3115073013        1.8408759877       -6.5938139240
 H          4.1979777345        0.5542738903       -5.7708522955
 H          3.3304402169        2.2469519461       -4.1396807364
 H          1.6815194025        1.8794896844       -4.6649062109
 H          3.6979358868       -0.0681998621       -3.4621399060
 H          3.9709546334       -1.4639669212       -1.9325335942
 H          4.2030241713       -0.2438094049       -0.7082634664
 H          3.5849769573       -1.8712788544       -0.2826755135
 H          2.1085744152        0.1060930364        1.8552110432
  45
    -0.428090 !GC
 C          0.0000000000        0.0000000000        0.0000000000
 C          1.5345019432        0.0000000000        0.0000000000
 C          2.1044427720        1.4322652658        0.0000000000
 C          2.5923386132        1.7463121732       -1.4266835971
 C          2.0456336065        0.5893250819       -2.2582772037
 C          2.1241676388       -0.6122687751       -1.3061823466
 C          1.4259417651       -1.7585598773       -1.9564560186
 C          1.3526900029       -1.8562839494       -3.2900452885
 C          1.8818742968       -0.8765323898       -4.2170375492
 C          1.6921233348       -0.9620547702       -5.5624175784
 C          0.9113020856       -2.0756868591       -6.2168300823
 C          0.1716985502       -1.6076595589       -7.4664842528
 C          1.1124270341       -0.9352947003       -8.4433694000
 O          1.0161722586       -1.0674365324       -9.6470857892
 C          2.0827221616       -0.0631288968       -7.8057652729
 C          2.2994657376       -0.0218899876       -6.4716154723
 C          3.2303384456        1.0039091236       -5.8970098979
 C          2.7040746915        1.4664122833       -4.5452936607
 C          2.6712280511        0.2652479559       -3.6080470928
 C          3.5608927140       -1.0700912213       -1.0033555520
 O          2.1003098653       -0.5679871650        1.1677008617
 H         -0.3723917533        0.4175727940        0.9391711315
 H         -0.3408655931        0.6539657295       -0.8038863852
 H         -0.4446585079       -0.9809489485       -0.1213327029
 H          2.9141565552        1.4384734946        0.7238373021
 H          1.3451224725        2.1391590805        0.3292190314
 H          3.6799982718        1.7736294771       -1.4736744596
 H          2.2162793467        2.7077403451       -1.7734260157
 H          0.9831855119        0.7852845302       -2.4479124115
 H          1.0436269545       -2.5651545587       -1.3430917590
 H          0.8821937521       -2.7324506376       -3.7098126024
 H          1.6139350100       -2.8675600290       -6.5005375445
 H          0.1830006887       -2.5046235617       -5.5301159359
 H         -0.5883985617       -0.8698447306       -7.1903453627
 H         -0.3307204329       -2.4429631168       -7.9563434466
 H          2.6254949293        0.6019976526       -8.4629042494
 H          3.3351210798        1.8421371931       -6.5873022755
 H          4.2204344247        0.5560873034       -5.7624299177
 H          3.3463418012        2.2446373769       -4.1315037960
 H          1.6992703897        1.8788534958       -4.6638312049
 H          3.7036602565       -0.0715373240       -3.4564112271
 H          4.1378583737       -0.2109159478       -0.6714205678
 H          3.6013427603       -1.8306437710       -0.2341021087
 H          4.0329971625       -1.4346096745       -1.9108760933
 H          2.1044659043        0.1058626390        1.8567474777
  45
    -0.426954 !GC
 C          0.0000000000        0.0000000000        0.0000000000
 C          1.5346501879        0.0000000000        0.0000000000
 C          2.1038716064        1.4325702020        0.0000000000
 C          2.5903707373        1.7472117565       -1.4271013936
 C          2.0441229546        0.5899057979       -2.2584637494
 C          2.1237564203       -0.6117380225       -1.3067180012
 C          1.4263160811       -1.7584558755       -1.9570645955
 C          1.3517338233       -1.8556987348       -3.2906477297
 C          1.8794718741       -0.8756581281       -4.2181039878
 C          1.6876946809       -0.9616418266       -5.5633105480
 C          0.9020753005       -2.0739063753       -6.2143616439
 C          0.1724285032       -1.6100186841       -7.4714030310
 C          1.1233731294       -0.9495039849       -8.4462815167
 O          1.0390994181       -1.0944856290       -9.6493020149
 C          2.0887387828       -0.0729505451       -7.8073894335
 C          2.2974682759       -0.0249173750       -6.4722598812
 C          3.2258958874        1.0036192656       -5.8985357350
 C          2.7005931908        1.4656575906       -4.5463780048
 C          2.6689042163        0.2666060170       -3.6102530986
 C          3.5610802237       -1.0680947305       -1.0050836414
 O          2.1008589289       -0.5682936778        1.1674689907
 H         -0.4210550678        0.5838513830       -0.8197255128
 H         -0.3069221235       -1.0377477326       -0.1443327361
 H         -0.4301479190        0.3522360668        0.9316194020
 H          2.9146035055        1.4384527491        0.7227359101
 H          1.3447735616        2.1392086207        0.3306151865
 H          3.6780011633        1.7754196038       -1.4755731953
 H          2.2129527739        2.7082898633       -1.7734586869
 H          0.9813933876        0.7851466194       -2.4471365042
 H          1.0476153303       -2.5667485371       -1.3438308011
 H          0.8826427432       -2.7327106097       -3.7101411721
 H          1.6001166487       -2.8738115047       -6.4872002678
 H          0.1664526474       -2.4912477616       -5.5279142097
 H         -0.5845958255       -0.8657989167       -7.2048135220
 H         -0.3319493768       -2.4454560880       -7.9587221543
 H          2.6376355290        0.5871396524       -8.4648024267
 H          3.3281230536        1.8414860817       -6.5897503445
 H          4.2172047124        0.5582897663       -5.7648270500
 H          3.3420974443        2.2448693289       -4.1332637682
 H          1.6951866710        1.8766595714       -4.6640303785
 H          3.7017118968       -0.0694968012       -3.4601668950
 H          4.1683091939       -0.2451767259       -0.6471049649
 H          3.5463252271       -1.8428250011       -0.2419242617
 H          4.0233985682       -1.4689048385       -1.8999725836
 H          2.1044851554        0.1055089359        1.8568526060
  45
    -0.417980 !GC
 C          0.0000000000        0.0000000000        0.0000000000
 C          1.5345372696        0.0000000000        0.0000000000
 C          2.1045543631        1.4323440906        0.0000000000
 C          2.5898626864        1.7468859996       -1.4274595930
 C          2.0417781790        0.5898684894       -2.2582858531
 C          2.1240854672       -0.6115389847       -1.3065345238
 C          1.4274779618       -1.7595521248       -1.9552863663
 C          1.3511292248       -1.8576548818       -3.2886766443
 C          1.8736915255       -0.8763163171       -4.2176746338
 C          1.6773432510       -0.9630759281       -5.5622094430
 C          0.8950716208       -2.0803574371       -6.2090721581
 C          0.1526877605       -1.6224889540       -7.4607783186
 C          1.0894607131       -0.9503660099       -8.4414452560
 O          0.9931756440       -1.0877760671       -9.6446033514
 C          2.0556301406       -0.0716702913       -7.8067427589
 C          2.2729949818       -0.0257851157       -6.4727403719
 C          3.2006198733        1.0058711823       -5.9032335795
 C          2.6794555431        1.4679725361       -4.5496287335
 C          2.6627636122        0.2675283246       -3.6123288351
 C          3.5623396890       -1.0664376909       -1.0059141363
 O          2.1001328396       -0.5684887279        1.1675230722
 H         -0.4211795961        0.5828520177       -0.8203671059
 H         -0.3065642644       -1.0381466070       -0.1425468567
 H         -0.4299677388        0.3535991997        0.9311394955
 H          2.9154282313        1.4382307336        0.7225633157
 H          1.3456791236        2.1389531157        0.3307313342
 H          3.6774942112        1.7743601611       -1.4766348670
 H          2.2130341383        2.7083630770       -1.7733240309
 H          0.9785404334        0.7848781939       -2.4444751683
 H          1.0505236635       -2.5680042260       -1.3410416067
 H          0.8839274036       -2.7363907327       -3.7067351220
 H          1.5972647305       -2.8744490584       -6.4878794262
 H          0.1678551400       -2.5045083865       -5.5179737027
 H         -0.6109633082       -0.8872771010       -7.1881806361
 H         -0.3453861381       -2.4632588340       -7.9457637697
 H          2.5949206860        0.5948438536       -8.4656908961
 H          3.2975204515        1.8438600553       -6.5950819225
 H          4.1938065381        0.5634983318       -5.7734213181
 H          3.3204777059        2.2496454395       -4.1404407043
 H          1.6723063646        1.8759855603       -4.6637459353
 H          3.6970029949       -0.0661262819       -3.4658925958
 H          3.9743689817       -1.4552842740       -1.9343505654
 H          4.2011940144       -0.2457988555       -0.6986012752
 H          3.5848271760       -1.8782233665       -0.2892793166
 H          2.1081172528        0.1065418794        1.8552594784
  45
    -0.416647 !GC
 C          0.0000000000        0.0000000000        0.0000000000
 C          1.5345589701        0.0000000000        0.0000000000
 C          2.1048864990        1.4320894617        0.0000000000
 C          2.5864594235        1.7487144407       -1.4283533000
 C          2.0408549099        0.5903390530       -2.2590038854
 C          2.1243700920       -0.6107385899       -1.3069167237
 C          1.4287197613       -1.7592827926       -1.9556782344
 C          1.3533847331       -1.8576379459       -3.2891218950
 C          1.8770174671       -0.8765051823       -4.2178192798
 C          1.6842498482       -0.9638245406       -5.5628279794
 C          0.9035374905       -2.0802931230       -6.2128728146
 C          0.1724880237       -1.6234603533       -7.4714335027
 C          1.1194481996       -0.9561877703       -8.4456125818
 O          1.0343022205       -1.0987519460       -9.6491122157
 C          2.0805139264       -0.0754696992       -7.8059533173
 C          2.2879397357       -0.0259691870       -6.4705732586
 C          3.2106516066        1.0076693215       -5.8968083089
 C          2.6829970444        1.4677547193       -4.5451057213
 C          2.6640504791        0.2682796012       -3.6115980611
 C          3.5630258030       -1.0644784924       -1.0065327588
 O          2.1003534788       -0.5688742452        1.1672159028
 H         -0.3724423569        0.4126211326        0.9411617259
 H         -0.3411919545        0.6575948456       -0.8005872098
 H         -0.4444420986       -0.9803176485       -0.1258761443
 H          2.9179819848        1.4367311773        0.7201406109
 H          1.3471610575        2.1382830223        0.3342076375
 H          3.6739108206        1.7799087801       -1.4794268397
 H          2.2058125292        2.7089504341       -1.7734935373
 H          0.9775767036        0.7835035173       -2.4465920166
 H          1.0511540357       -2.5675534335       -1.3415375055
 H          0.8867366636       -2.7365148495       -3.7073355255
 H          1.6047899680       -2.8773890955       -6.4845118985
 H          0.1698046491       -2.5004673181       -5.5262654554
 H         -0.5914803176       -0.8855870241       -7.2069960486
 H         -0.3237812493       -2.4639203790       -7.9586778429
 H          2.6246331250        0.5892744946       -8.4627625340
 H          3.3084543038        1.8460778157       -6.5879593006
 H          4.2043072006        0.5676317938       -5.7631171578
 H          3.3210649667        2.2499858769       -4.1323534127
 H          1.6757643290        1.8743369509       -4.6631899446
 H          3.6983518503       -0.0641454716       -3.4632335838
 H          4.1239122378       -0.2072776819       -0.6382703563
 H          3.5598570010       -1.8069800958       -0.2144834562
 H          4.0716030502       -1.4535137300       -1.8772862005
 H          2.1052274546        0.1049209534        1.8562738020
  45
    -0.415286 !GC
 C          0.0000000000        0.0000000000        0.0000000000
 C          1.5347086026        0.0000000000        0.0000000000
 C          2.1050349302        1.4321361129        0.0000000000
 C          2.5914704506        1.7467105667       -1.4270936159
 C          2.0443181804        0.5898640862       -2.2585486140
 C          2.1242848280       -0.6115807811       -1.3065550419
 C          1.4265712344       -1.7582062517       -1.9566217815
 C          1.3519428218       -1.8557241849       -3.2902158225
 C          1.8793839484       -0.8758359055       -4.2180802936
 C          1.6880515905       -0.9622253797       -5.5633478223
 C          0.9046649724       -2.0757463155       -6.2150849668
 C          0.1738628378       -1.6140385674       -7.4720178446
 C          1.1240013858       -0.9507862168       -8.4459169244
 O          1.0397118903       -1.0939206053       -9.6493419201
 C          2.0877698469       -0.0733477652       -7.8055950681
 C          2.2950365525       -0.0255714105       -6.4701872990
 C          3.2214876479        1.0039522885       -5.8951619462
 C          2.6938536243        1.4658369249       -4.5439283462
 C          2.6686976913        0.2666200293       -3.6104541151
 C          3.5614289754       -1.0686841233       -1.0050073725
 O          2.1008565199       -0.5683898781        1.1673356176
 H         -0.3725982039        0.4153867511        0.9398843746
 H         -0.3413492783        0.6555837436       -0.8021110024
 H         -0.4447128620       -0.9805689708       -0.1233275424
 H          2.9156613911        1.4380302034        0.7228390982
 H          1.3460697323        2.1388304286        0.3304762697
 H          3.6791267696        1.7743964628       -1.4754979075
 H          2.2146085737        2.7080151845       -1.7733528262
 H          0.9815836163        0.7855366638       -2.4469540624
 H          1.0462656666       -2.5656045436       -1.3431071914
 H          0.8826230124       -2.7327451893       -3.7092594478
 H          1.6041291526       -2.8735133859       -6.4892279181
 H          0.1705936312       -2.4960050062       -5.5289533444
 H         -0.5857829401       -0.8723570731       -7.2056244863
 H         -0.3273128297       -2.4512866172       -7.9597438150
 H          2.6350746628        0.5892811935       -8.4619092419
 H          3.3241427406        1.8417253213       -6.5863957446
 H          4.2128784814        0.5594255243       -5.7598246577
 H          3.3341696336        2.2455862212       -4.1299791226
 H          1.6883205843        1.8760132818       -4.6632471246
 H          3.7016878246       -0.0690907591       -3.4608168794
 H          4.0370445971       -1.4306100599       -1.9114741804
 H          4.1306196449       -0.2055318467       -0.6709759651
 H          3.6067466948       -1.8281698345       -0.2345428512
 H          2.1047051916        0.1052826477        1.8568119012
  45
    -0.408143 !GC
 C          0.0000000000        0.0000000000        0.0000000000
 C          1.5345937918        0.0000000000        0.0000000000
 C          2.1042798417        1.4320617972        0.0000000000
 C          2.5753611761        1.7537471722       -1.4308630670
 C          2.0363373129        0.5913072614       -2.2605319722
 C          2.1257505417       -0.6087748132       -1.3077074208
 C          1.4340881845       -1.7601690158       -1.9556050997
 C          1.3635192217       -1.8614216811       -3.2891397734
 C          1.8875014818       -0.8808082970       -4.2181593888
 C          1.7049998732       -0.9742794039       -5.5642226545
 C          0.9425225606       -2.1009492703       -6.2181543099
 C          0.2070122539       -1.6513556877       -7.4767001923
 C          1.1467514153       -0.9711854132       -8.4488558053
 O          1.0633125156       -1.1111752722       -9.6527773780
 C          2.0990954884       -0.0827318183       -7.8067225246
 C          2.3038315158       -0.0320592510       -6.4710076558
 C          3.2159899805        1.0097707821       -5.8951688856
 C          2.6783544268        1.4689077471       -4.5470241470
 C          2.6641658599        0.2709608145       -3.6113599804
 C          3.5669118739       -1.0562859469       -1.0097713942
 O          2.1000668319       -0.5694363748        1.1671367733
 H         -0.3418426278        0.6315932277       -0.8230945987
 H         -0.3863026117       -1.0020341721       -0.1727384326
 H         -0.4303713775        0.3914504671        0.9187158107
 H          2.9228719210        1.4341951745        0.7137927117
 H          1.3493679469        2.1369781126        0.3429689871
 H          3.6622489852        1.7954137984       -1.4872815355
 H          2.1840621974        2.7106492259       -1.7735150651
 H          0.9723473428        0.7781806228       -2.4501990829
 H          1.0553384953       -2.5674348517       -1.3409338783
 H          0.8991821322       -2.7418399842       -3.7067227964
 H          1.6570566336       -2.8856055106       -6.4913463959
 H          0.2148250714       -2.5355608584       -5.5343498090
 H         -0.5663263318       -0.9234848279       -7.2119207280
 H         -0.2782221394       -2.4971144557       -7.9658310861
 H          2.6377950736        0.5875909337       -8.4622205944
 H          3.3108986623        1.8473280216       -6.5876812143
 H          4.2122730305        0.5775235784       -5.7555723348
 H          3.3085499734        2.2567624808       -4.1328029386
 H          1.6686874630        1.8676980103       -4.6706271619
 H          3.7002866677       -0.0542189622       -3.4594777396
 H          4.0366142384       -1.4331947799       -1.9129490161
 H          4.1363924907       -0.1859145970       -0.6960869536
 H          3.6207200675       -1.8017719291       -0.2264762016
 H          2.1052545932        0.1042544363        1.8563041458
  45
    -0.406089 !GC
 C          0.0000000000        0.0000000000        0.0000000000
 C          1.5344851631        0.0000000000        0.0000000000
 C          2.1048151925        1.4321617991        0.0000000000
 C          2.5943059687        1.7449291671       -1.4263431328
 C          2.0462482042        0.5889387031       -2.2583627410
 C          2.1233774049       -0.6127403275       -1.3063002065
 C          1.4225283909       -1.7571447080       -1.9568548949
 C          1.3512292170       -1.8556515770       -3.2905863977
 C          1.8848196217       -0.8790180367       -4.2181493293
 C          1.7023472373       -0.9706938355       -5.5645313061
 C          0.9247522391       -2.0895262291       -6.2146498456
 C          0.2004246709       -1.6392814666       -7.4794979578
 C          1.1529334580       -0.9782412963       -8.4524095956
 O          1.0754650220       -1.1278234056       -9.6554633323
 C          2.1098307111       -0.0942981136       -7.8110632022
 C          2.3092065038       -0.0385506636       -6.4745632165
 C          3.2300554128        0.9971919161       -5.9013909065
 C          2.6968324890        1.4656355418       -4.5547283465
 C          2.6726532747        0.2640004184       -3.6097695662
 C          3.5596451261       -1.0729683142       -1.0046699945
 O          2.1003481102       -0.5683570526        1.1676232356
 H         -0.4356374436        0.4051725012        0.9099852567
 H         -0.3373099899        0.6226829698       -0.8319154350
 H         -0.3853014550       -1.0047121982       -0.1601366228
 H          2.9134322372        1.4390561040        0.7250521229
 H          1.3449845227        2.1393392618        0.3274257840
 H          3.6821411511        1.7701810384       -1.4724888762
 H          2.2202027983        2.7070237187       -1.7735395203
 H          0.9841152713        0.7862901382       -2.4484332361
 H          1.0377358958       -2.5627679973       -1.3438646072
 H          0.8809709850       -2.7321949392       -3.7096559940
 H          1.6278787236       -2.8881498575       -6.4777156281
 H          0.1868836673       -2.5061140935       -5.5302625830
 H         -0.5639904373       -0.8990548723       -7.2228500143
 H         -0.2941153738       -2.4822057828       -7.9642640716
 H          2.6581165507        0.5673966902       -8.4673966875
 H          3.3325059628        1.8315177337       -6.5967674508
 H          4.2225323161        0.5566024396       -5.7603200656
 H          3.3341644131        2.2493599540       -4.1437406906
 H          1.6905085779        1.8726467977       -4.6789447862
 H          3.7053865265       -0.0716459459       -3.4573194104
 H          4.0315682865       -1.4454277420       -1.9089508295
 H          4.1338249763       -0.2096287544       -0.6797592728
 H          3.6034099686       -1.8255819642       -0.2273468824
 H          2.1059322262        0.1057767283        1.8563034497
  45
    -0.405463 !GC
 C          0.0000000000        0.0000000000        0.0000000000
 C          1.5345551851        0.0000000000        0.0000000000
 C          2.1042599823        1.4321089237        0.0000000000
 C          2.5770874547        1.7524152857       -1.4304273302
 C          2.0382703755        0.5901096410       -2.2604812483
 C          2.1259436944       -0.6098132848       -1.3070803178
 C          1.4335549335       -1.7604991920       -1.9557301015
 C          1.3711517692       -1.8644453410       -3.2894851746
 C          1.9032476824       -0.8862812891       -4.2163413010
 C          1.7356574993       -0.9857055542       -5.5638644048
 C          0.9921733330       -2.1236813947       -6.2199895636
 C          0.2589981353       -1.6855355956       -7.4841682573
 C          1.1954009212       -0.9967460696       -8.4534534562
 O          1.1183712093       -1.1386432133       -9.6575772051
 C          2.1349658023       -0.0970906522       -7.8082661253
 C          2.3317557069       -0.0415555297       -6.4715401532
 C          3.2292758897        1.0116431518       -5.8929153451
 C          2.6812395405        1.4668298929       -4.5474642532
 C          2.6698282277        0.2706778126       -3.6067914853
 C          3.5666752271       -1.0582913999       -1.0084780142
 O          2.0998637756       -0.5690403998        1.1674833127
 H         -0.3415743522        0.6288876867       -0.8253678911
 H         -0.3864939544       -1.0026158636       -0.1691504992
 H         -0.4303198837        0.3946074166        0.9174506339
 H          2.9218983771        1.4351918123        0.7148458270
 H          1.3489150945        2.1374544714        0.3410690508
 H          3.6640739783        1.7933846100       -1.4852368810
 H          2.1869303629        2.7095294807       -1.7737581809
 H          0.9745797164        0.7770511893       -2.4519802438
 H          1.0478304145       -2.5647265940       -1.3415466122
 H          0.9061370703       -2.7436278205       -3.7091962326
 H          1.7198215928       -2.8989047459       -6.4867684258
 H          0.2655578628       -2.5666010690       -5.5403482943
 H         -0.5243388120       -0.9662533007       -7.2255301581
 H         -0.2134991638       -2.5381804184       -7.9737148176
 H          2.6694733427        0.5780517771       -8.4620676929
 H          3.3172430596        1.8493191551       -6.5861874316
 H          4.2299984844        0.5912608038       -5.7487386906
 H          3.3026139871        2.2604089787       -4.1308049174
 H          1.6686014700        1.8566215381       -4.6756379764
 H          3.7077587078       -0.0475844994       -3.4520600120
 H          4.1756206362       -0.2288920072       -0.6695311278
 H          3.5593927106       -1.8195989321       -0.2320939849
 H          4.0227893913       -1.4734679786       -1.8998305607
 H          2.1053934598        0.1051848027        1.8562065368
  45
    -0.401835 !GC
 C          0.0000000000        0.0000000000        0.0000000000
 C          1.5344581637        0.0000000000        0.0000000000
 C          2.1036534543        1.4324437370        0.0000000000
 C          2.5843184784        1.7494763276       -1.4286215971
 C          2.0414646321        0.5900466251       -2.2595479725
 C          2.1237275265       -0.6110191816       -1.3071617664
 C          1.4271046408       -1.7586027143       -1.9567558164
 C          1.3571856178       -1.8584945925       -3.2904272196
 C          1.8888969184       -0.8807989135       -4.2179100825
 C          1.7107250491       -0.9748327658       -5.5645742003
 C          0.9398337371       -2.0969170291       -6.2167267758
 C          0.2281857921       -1.6508439055       -7.4903278311
 C          1.1899620239       -0.9926540790       -8.4559965421
 O          1.1272182392       -1.1507534205       -9.6586972284
 C          2.1365962124       -0.1011620726       -7.8100209865
 C          2.3247283629       -0.0397824833       -6.4722921881
 C          3.2350372536        1.0032104683       -5.8951914883
 C          2.6950408927        1.4641761875       -4.5486599121
 C          2.6695208418        0.2673356244       -3.6097413791
 C          3.5622535364       -1.0649279026       -1.0067967225
 O          2.1004965315       -0.5688029075        1.1673437171
 H         -0.4351020319        0.3990804720        0.9129936584
 H         -0.3376063161        0.6285140137       -0.8274436824
 H         -0.3854964378       -1.0035338270       -0.1668832603
 H          2.9173313093        1.4368419669        0.7194751120
 H          1.3460168918        2.1384321559        0.3351784724
 H          3.6716735886        1.7829284717       -1.4798988548
 H          2.2015801746        2.7088582335       -1.7738666673
 H          0.9785443935        0.7820747824       -2.4500476857
 H          1.0450615385       -2.5650935661       -1.3432002613
 H          0.8895212762       -2.7364933393       -3.7094763362
 H          1.6453955184       -2.8969244529       -6.4693300250
 H          0.1949344779       -2.5100304032       -5.5377187482
 H         -0.5387070419       -0.9098737304       -7.2438778740
 H         -0.2617554047       -2.4950479779       -7.9772992009
 H          2.6882413101        0.5595483394       -8.4644981431
 H          3.3312980788        1.8398103705       -6.5887884041
 H          4.2312773558        0.5714849675       -5.7532435281
 H          3.3261538256        2.2508120106       -4.1336338892
 H          1.6864789929        1.8650340766       -4.6745640317
 H          3.7042282134       -0.0617646422       -3.4567049793
 H          4.1713989857       -0.2389312403       -0.6591784406
 H          3.5507906775       -1.8324091471       -0.2363251198
 H          4.0206963815       -1.4741573029       -1.8998989378
 H          2.1061259440        0.1051890580        1.8561792995
  45
    -0.392159 !GC
 C          0.0000000000        0.0000000000        0.0000000000
 C          1.5344792333        0.0000000000        0.0000000000
 C          2.1042919722        1.4321978265        0.0000000000
 C          2.5879883874        1.7472573048       -1.4279229770
 C          2.0437722242        0.5893202913       -2.2599511362
 C          2.1234430189       -0.6115582952       -1.3069429414
 C          1.4241950271       -1.7571720492       -1.9572908563
 C          1.3613571338       -1.8593511347       -3.2911360907
 C          1.9013714292       -0.8846576327       -4.2169950238
 C          1.7363856572       -0.9836406978       -5.5650253964
 C          0.9828487007       -2.1158631124       -6.2201920498
 C          0.2714274072       -1.6801625179       -7.4974699043
 C          1.2294236593       -1.0106923044       -8.4591564046
 O          1.1700256377       -1.1644979212       -9.6626561106
 C          2.1645739206       -0.1106504520       -7.8082538937
 C          2.3448787299       -0.0477219250       -6.4694258677
 C          3.2428351308        1.0035156840       -5.8877041194
 C          2.6915426065        1.4614283540       -4.5446763378
 C          2.6745064835        0.2670100881       -3.6062239061
 C          3.5609457153       -1.0685441233       -1.0062549564
 O          2.1003725469       -0.5685935896        1.1675559585
 H         -0.4206056052        0.6189688696       -0.7903273654
 H         -0.3867257761       -1.0136821262       -0.1083297639
 H         -0.3517786285        0.3914940099        0.9532965191
 H          2.9160109131        1.4374537740        0.7216103556
 H          1.3459220948        2.1386076441        0.3323403869
 H          3.6755140783        1.7781683366       -1.4771610912
 H          2.2082471491        2.7074709114       -1.7740071912
 H          0.9813109021        0.7829935824       -2.4517254608
 H          1.0346065877       -2.5603913380       -1.3442342130
 H          0.8922693678       -2.7358557710       -3.7116272733
 H          1.7004547777       -2.9056990595       -6.4703521338
 H          0.2407247528       -2.5397066252       -5.5449635633
 H         -0.5064961369       -0.9493120827       -7.2552138665
 H         -0.2045136004       -2.5315035645       -7.9860718577
 H          2.7119878430        0.5567893677       -8.4594844897
 H          3.3360959193        1.8402559316       -6.5815491085
 H          4.2418203314        0.5803109066       -5.7395455700
 H          3.3150848679        2.2522539361       -4.1261759156
 H          1.6811478414        1.8556658598       -4.6767171735
 H          3.7104514815       -0.0572565818       -3.4508264461
 H          4.1717986012       -0.2440526652       -0.6580022964
 H          3.5472370356       -1.8361628082       -0.2360287659
 H          4.0188864737       -1.4786392098       -1.8992862816
 H          2.1058373644        0.1055223008        1.8562860670
  45
    -0.371483 !GC
 C          0.0000000000        0.0000000000        0.0000000000
 C          1.5344931116        0.0000000000        0.0000000000
 C          2.1033633301        1.4323361159        0.0000000000
 C          2.5789523508        1.7507777153       -1.4300109939
 C          2.0412447194        0.5886260235       -2.2607346824
 C          2.1262057223       -0.6107668067       -1.3064753920
 C          1.4311826987       -1.7592982845       -1.9557975454
 C          1.3733638392       -1.8651007859       -3.2897137179
 C          1.9148237816       -0.8928957587       -4.2171451884
 C          1.7637915984       -1.0035106020       -5.5664055743
 C          1.0248698199       -2.1478592987       -6.2177736949
 C          0.3319126566       -1.7394076179       -7.5138467435
 C          1.3000280540       -1.0766721257       -8.4698099285
 O          1.2657290607       -1.2526987495       -9.6713142966
 C          2.2124291139       -0.1555750710       -7.8162584763
 C          2.3703107225       -0.0710806965       -6.4756580799
 C          3.2466836060        1.0006171907       -5.8980581357
 C          2.6803183068        1.4650807822       -4.5639173470
 C          2.6766768481        0.2674805727       -3.6083656085
 C          3.5660769566       -1.0615200943       -1.0069537525
 O          2.1000868040       -0.5676081046        1.1680966423
 H         -0.4204616439        0.6236253204       -0.7866118379
 H         -0.3865409339       -1.0131650553       -0.1139404241
 H         -0.3516719682        0.3859080743        0.9555113503
 H          2.9194409508        1.4363955921        0.7166866815
 H          1.3466898070        2.1374222170        0.3389052169
 H          3.6660665288        1.7905939497       -1.4836474594
 H          2.1900006539        2.7079509225       -1.7744611404
 H          0.9781084605        0.7760571867       -2.4547014863
 H          1.0413394077       -2.5619441248       -1.3421971128
 H          0.9086568270       -2.7447627824       -3.7081030005
 H          1.7495408479       -2.9391311105       -6.4418423515
 H          0.2735010524       -2.5637722745       -5.5476912859
 H         -0.4562701278       -1.0117104668       -7.2969187587
 H         -0.1283535370       -2.6028424917       -7.9962416795
 H          2.7617411072        0.5101195578       -8.4677445152
 H          3.3321391339        1.8309312784       -6.6006649192
 H          4.2511962322        0.5944876723       -5.7390554433
 H          3.2895713033        2.2695770938       -4.1504617267
 H          1.6649753387        1.8426471671       -4.7061229818
 H          3.7152195757       -0.0472958721       -3.4502392745
 H          4.1431409673       -0.1968636119       -0.6901628349
 H          3.6133278564       -1.8113237509       -0.2276546237
 H          4.0331871402       -1.4375810353       -1.9123130911
 H          2.1031715653        0.1064063150        1.8570233428
  45
    -0.361313 !GC
 C          0.0000000000        0.0000000000        0.0000000000
 C          1.5344974012        0.0000000000        0.0000000000
 C          2.1034631048        1.4324381523        0.0000000000
 C          2.5810912955        1.7509825226       -1.4291815785
 C          2.0415731916        0.5899135987       -2.2602891902
 C          2.1256371964       -0.6102134935       -1.3067825890
 C          1.4306239969       -1.7586050991       -1.9564723654
 C          1.3732225365       -1.8641760227       -3.2904238989
 C          1.9150320936       -0.8917298799       -4.2172665780
 C          1.7655214072       -1.0026231994       -5.5665362565
 C          1.0301023189       -2.1482865224       -6.2193284685
 C          0.3441445094       -1.7412499922       -7.5196517720
 C          1.3173633039       -1.0782986422       -8.4704014024
 O          1.2915883637       -1.2570259024       -9.6717215640
 C          2.2239501956       -0.1543322025       -7.8127330138
 C          2.3750758607       -0.0692004870       -6.4713526681
 C          3.2456629419        1.0050820841       -5.8896123430
 C          2.6769802323        1.4625091573       -4.5539880510
 C          2.6753873334        0.2696538549       -3.6084754113
 C          3.5651285972       -1.0619899385       -1.0072210195
 O          2.1001504091       -0.5682543529        1.1677574885
 H         -0.4352390523        0.4030637518        0.9111110730
 H         -0.3372983169        0.6248860513       -0.8302950142
 H         -0.3857666801       -1.0041569617       -0.1626450031
 H          2.9182575670        1.4369039715        0.7181187027
 H          1.3462279239        2.1377271420        0.3372113733
 H          3.6683588156        1.7881801367       -1.4816252422
 H          2.1947234074        2.7092521316       -1.7735673732
 H          0.9784558738        0.7785556491       -2.4532568529
 H          1.0390008852       -2.5605106032       -1.3429620634
 H          0.9067244735       -2.7427547133       -3.7093293045
 H          1.7559917428       -2.9399083710       -6.4381265770
 H          0.2751327475       -2.5629798380       -5.5526411874
 H         -0.4459580310       -1.0140858797       -7.3078501201
 H         -0.1125075903       -2.6056111143       -8.0039837302
 H          2.7754594693        0.5119895064       -8.4617405625
 H          3.3267177990        1.8383152485       -6.5893538641
 H          4.2523437277        0.6038098333       -5.7321429451
 H          3.2841043057        2.2665073721       -4.1364718261
 H          1.6609802939        1.8385411100       -4.6956183566
 H          3.7147950515       -0.0431285505       -3.4521311834
 H          4.1417726603       -0.1986039093       -0.6862312063
 H          3.6118283186       -1.8151178166       -0.2311043385
 H          4.0332673884       -1.4339385724       -1.9137291357
 H          2.1070287979        0.1064519987        1.8558036340
  45
    -0.349787 !GC
 C          0.0000000000        0.0000000000        0.0000000000
 C          1.5344606870        0.0000000000        0.0000000000
 C          2.1026319811        1.4326170340        0.0000000000
 C          2.5765791027        1.7533032419       -1.4300613017
 C          2.0404685336        0.5904671893       -2.2609394817
 C          2.1253975232       -0.6095638971       -1.3073884980
 C          1.4316265088       -1.7585543035       -1.9574195236
 C          1.3753085207       -1.8640385946       -3.2914048385
 C          1.9184895629       -0.8915992014       -4.2174580185
 C          1.7721495948       -1.0025772435       -5.5670368554
 C          1.0360791069       -2.1462210863       -6.2223911157
 C          0.3628937537       -1.7380339269       -7.5290755940
 C          1.3469668445       -1.0824062305       -8.4736201500
 O          1.3324025454       -1.2679944832       -9.6740046462
 C          2.2499457320       -0.1572534180       -7.8128617442
 C          2.3925495955       -0.0682657558       -6.4709141281
 C          3.2601648299        1.0070395919       -5.8866194382
 C          2.6875573807        1.4627434530       -4.5520881245
 C          2.6768941758        0.2705026267       -3.6075880381
 C          3.5654616985       -1.0594408654       -1.0079771437
 O          2.1003734561       -0.5685437793        1.1675837961
 H         -0.4349646259        0.3993349210        0.9128853651
 H         -0.3374938720        0.6283066853       -0.8276270001
 H         -0.3856730791       -1.0035208511       -0.1667060448
 H          2.9197417662        1.4358374687        0.7155744504
 H          1.3464378887        2.1374282181        0.3408168830
 H          3.6635953093        1.7947451066       -1.4844593869
 H          2.1858526191        2.7100698814       -1.7737931567
 H          0.9773414025        0.7768334394       -2.4555753433
 H          1.0409883431       -2.5612105390       -1.3443261803
 H          0.9096082587       -2.7427355024       -3.7109579205
 H          1.7591875634       -2.9428189227       -6.4326956821
 H          0.2731566189       -2.5542053899       -5.5604511509
 H         -0.4245610611       -1.0057791851       -7.3252846621
 H         -0.0951801442       -2.6003803725       -8.0153174115
 H          2.8079309286        0.5048584201       -8.4605574554
 H          3.3416083387        1.8406597469       -6.5858244053
 H          4.2671282211        0.6073533046       -5.7269182572
 H          3.2929051541        2.2668087478       -4.1321070770
 H          1.6716622773        1.8381380668       -4.6959757622
 H          3.7161462417       -0.0414347503       -3.4488628223
 H          4.0267092195       -1.5070673346       -1.8826693807
 H          4.1713130461       -0.2358062570       -0.6457814392
 H          3.5357823051       -1.8304532935       -0.2452359736
 H          2.1039198853        0.1050531031        1.8568566383
  45
    -0.340501 !GC
 C          0.0000000000        0.0000000000        0.0000000000
 C          1.5344817567        0.0000000000        0.0000000000
 C          2.1032705740        1.4323715649        0.0000000000
 C          2.5802546857        1.7510883635       -1.4293799811
 C          2.0427629045        0.5897237857       -2.2613353318
 C          2.1251029086       -0.6101113287       -1.3071453364
 C          1.4286922619       -1.7571448009       -1.9579072953
 C          1.3794258306       -1.8649928042       -3.2919773475
 C          1.9308698762       -0.8956089984       -4.2163638607
 C          1.7977135196       -1.0116225966       -5.5669255291
 C          1.0791547633       -2.1652522609       -6.2244675851
 C          0.4065639058       -1.7675377513       -7.5346487255
 C          1.3865975111       -1.1007370077       -8.4755884278
 O          1.3753780270       -1.2820391961       -9.6767363853
 C          2.2777691350       -0.1672063945       -7.8105239823
 C          2.4124627846       -0.0767015720       -6.4677673388
 C          3.2674405090        1.0066627305       -5.8795007192
 C          2.6837759765        1.4593598227       -4.5487045283
 C          2.6817877052        0.2700454989       -3.6042907310
 C          3.5641526915       -1.0630722555       -1.0074165517
 O          2.1002494556       -0.5683343802        1.1677959801
 H         -0.4204680495        0.6187499588       -0.7904996780
 H         -0.3866146759       -1.0137366630       -0.1080632781
 H         -0.3519567263        0.3916421437        0.9531967368
 H          2.9184304960        1.4364428863        0.7177218326
 H          1.3463271647        2.1376089753        0.3379848342
 H          3.6674656294        1.7899877275       -1.4817487694
 H          2.1925154507        2.7087049275       -1.7739687576
 H          0.9800896786        0.7777366853       -2.4572382695
 H          1.0305325528       -2.5564838405       -1.3453645739
 H          0.9123069928       -2.7422136960       -3.7129475711
 H          1.8140583992       -2.9515379598       -6.4320611073
 H          0.3191991848       -2.5839266747       -5.5659989104
 H         -0.3915568769       -1.0456161195       -7.3352957900
 H         -0.0373784090       -2.6368076141       -8.0218433530
 H          2.8313037895        0.5014982235       -8.4552961244
 H          3.3458439667        1.8401195754       -6.5792551343
 H          4.2768047936        0.6156718929       -5.7135701023
 H          3.2814284487        2.2675650311       -4.1256519626
 H          1.6662904096        1.8280093358       -4.6987307289
 H          3.7221996883       -0.0370062664       -3.4432366403
 H          4.0249623309       -1.5112794238       -1.8820652322
 H          4.1712543870       -0.2405866638       -0.6448558909
 H          3.5327558939       -1.8341761721       -0.2447562310
 H          2.1036311905        0.1053863600        1.8569630556
  45
    -0.277256 !GC
 C          0.0000000000        0.0000000000        0.0000000000
 C          1.5320431000        0.0000000000        0.0000000000
 C          2.0938809873        1.4429522522        0.0000000000
 C          2.5854301565        1.7577843390       -1.4244830015
 C          2.0572045188        0.5955780746       -2.2620563008
 C          2.1242357486       -0.6063349665       -1.3086401525
 C          1.3955851599       -1.7308030722       -1.9650850550
 C          1.4253553594       -1.8653977696       -3.2967856344
 C          2.1182704446       -0.9642971042       -4.1925931917
 C          2.2434268486       -1.1984092308       -5.5283196656
 C          1.6683427808       -2.4032405474       -6.2299808106
 C          2.6176625256       -2.9399088085       -7.2967967238
 C          2.9889914481       -1.8606491982       -8.2912382932
 O          3.1649970312       -2.0892221190       -9.4719714086
 C          3.1720129009       -0.5488173426       -7.6972094160
 C          2.9057116896       -0.2559134234       -6.4026935678
 C          3.3032055230        1.0911764001       -5.8676548500
 C          2.5530434109        1.4400188432       -4.5927668818
 C          2.7216702607        0.2938285869       -3.5975826396
 C          3.5589411428       -1.0876622077       -1.0329397697
 O          1.9953802268       -0.6392269359        1.1723136146
 H         -0.3881416406       -1.0168369009       -0.0344175908
 H         -0.3528905145        0.4695988880        0.9162284565
 H         -0.3975309089        0.5486887106       -0.8480013867
 H          2.9037803941        1.4881211041        0.7264026412
 H          1.3238401445        2.1435121718        0.3184156017
 H          3.6740833034        1.7946473376       -1.4664918668
 H          2.2048185497        2.7166450810       -1.7734161766
 H          0.9972980529        0.7811027675       -2.4722159090
 H          0.8916407419       -2.4666880386       -1.3548098126
 H          0.8991153057       -2.6984596150       -3.7369286248
 H          1.4449494266       -3.2070846497       -5.5313693219
 H          0.7297264409       -2.1051330843       -6.7105299297
 H          2.1748677538       -3.7859072663       -7.8245070054
 H          3.5453695335       -3.2829251009       -6.8280698735
 H          3.5929456986        0.2067605738       -8.3462907636
 H          3.1431309015        1.8509565096       -6.6349510224
 H          4.3778677317        1.0673565542       -5.6547810701
 H          2.9412883063        2.3676437485       -4.1707397180
 H          1.4916581094        1.5804929897       -4.8105488090
 H          3.7962239913        0.1385975218       -3.4424572494
 H          3.9696265224       -1.4710878692       -1.9673352512
 H          4.1982533048       -0.2825205945       -0.6850039094
 H          3.5687705453       -1.9199099708       -0.3395006076
 H          1.5725521387       -1.5021597494        1.2412223426
  45
    -0.276675 !GC
 C          0.0000000000        0.0000000000        0.0000000000
 C          1.5320533194        0.0000000000        0.0000000000
 C          2.0933746713        1.4431539444        0.0000000000
 C          2.5861588351        1.7576155759       -1.4241198154
 C          2.0574822688        0.5960072025       -2.2621960130
 C          2.1242278608       -0.6059587825       -1.3087369549
 C          1.3958635345       -1.7305354581       -1.9654187623
 C          1.4281404744       -1.8660919699       -3.2969950910
 C          2.1222088859       -0.9651490573       -4.1920822435
 C          2.2514882939       -1.2009993901       -5.5270690086
 C          1.6839530794       -2.4098738943       -6.2279297644
 C          2.6400867032       -2.9446932016       -7.2897585152
 C          3.0087633133       -1.8660921855       -8.2859216943
 O          3.1894107928       -2.0966312330       -9.4655878938
 C          3.1828327134       -0.5516309110       -7.6948090742
 C          2.9117289323       -0.2571356278       -6.4016317814
 C          3.3000619602        1.0935685951       -5.8688854764
 C          2.5483860097        1.4400307184       -4.5941830860
 C          2.7217589167        0.2952379115       -3.5980257048
 C          3.5589353169       -1.0873714542       -1.0331479149
 O          1.9955087429       -0.6392459716        1.1723285749
 H         -0.3880710335       -1.0167956677       -0.0351625185
 H         -0.3527724898        0.4690009751        0.9165240654
 H         -0.3975041170        0.5492179199       -0.8476525577
 H          2.9023615732        1.4891897436        0.7273179362
 H          1.3225680311        2.1434769255        0.3170698647
 H          3.6748879063        1.7932555303       -1.4654433261
 H          2.2068785980        2.7169021832       -1.7732663373
 H          0.9976031422        0.7819530448       -2.4719801134
 H          0.8899272626       -2.4653171229       -1.3554081731
 H          0.9017261829       -2.6986875590       -3.7377586311
 H          1.4613940802       -3.2130230450       -5.5282091534
 H          0.7459294026       -2.1170869204       -6.7128627656
 H          2.2038933894       -3.7946106955       -7.8165368088
 H          3.5680253793       -3.2811338516       -6.8168551342
 H          3.6006528575        0.2047532875       -8.3449804619
 H          3.1345914210        1.8509245308       -6.6374958059
 H          4.3749338815        1.0772512676       -5.6565939061
 H          2.9325630746        2.3697645449       -4.1729071268
 H          1.4862967354        1.5754101577       -4.8119007291
 H          3.7969596560        0.1436412638       -3.4437737953
 H          4.1295700795       -0.2484205225       -0.6379739534
 H          3.5613549210       -1.8515897131       -0.2583738377
 H          4.0602433148       -1.4331340864       -1.9278851301
 H          1.5732352870       -1.5025199396        1.2405229596
  45
    -0.276305 !GC
 C          0.0000000000        0.0000000000        0.0000000000
 C          1.5320351516        0.0000000000        0.0000000000
 C          2.0927123413        1.4433018685        0.0000000000
 C          2.5805429634        1.7598348351       -1.4254129814
 C          2.0543568781        0.5960713018       -2.2623506434
 C          2.1242474132       -0.6056429047       -1.3087264207
 C          1.3970120443       -1.7314913624       -1.9645054549
 C          1.4318947602       -1.8687790468       -3.2957801966
 C          2.1263735255       -0.9677270760       -4.1903973375
 C          2.2610324100       -1.2068148807       -5.5242945213
 C          1.7042035275       -2.4228586021       -6.2214263671
 C          2.6632386933       -2.9507928744       -7.2839883443
 C          3.0183157849       -1.8705044432       -8.2833253921
 O          3.1929761618       -2.1004248350       -9.4640228789
 C          3.1862962024       -0.5545244615       -7.6937071908
 C          2.9154199844       -0.2605111355       -6.4004446570
 C          3.2973135697        1.0926865767       -5.8693087706
 C          2.5424653258        1.4379373703       -4.5961952864
 C          2.7202097490        0.2959038652       -3.5975119738
 C          3.5602068053       -1.0834292377       -1.0333836798
 O          1.9957801087       -0.6395111544        1.1720542062
 H         -0.3782742293        0.4938159569        0.8980215951
 H         -0.3176364460        0.5808872110       -0.8630240331
 H         -0.4408161074       -0.9871903472       -0.0540918714
 H          2.9045462871        1.4879331216        0.7241981541
 H          1.3231746675        2.1431013840        0.3213197899
 H          3.6690403130        1.8001143003       -1.4695203598
 H          2.1964540170        2.7176505386       -1.7735811558
 H          0.9940979641        0.7791199487       -2.4728053837
 H          0.8915593647       -2.4662966051       -1.3543030009
 H          0.9103164299       -2.7043308186       -3.7366981673
 H          1.4918116160       -3.2263780809       -5.5188465094
 H          0.7621824125       -2.1410047163       -6.7051898134
 H          2.2348013477       -3.8067781581       -7.8075024417
 H          3.5955874230       -3.2758419718       -6.8117555269
 H          3.5993386585        0.2034834948       -8.3450344154
 H          3.1296715657        1.8479823329       -6.6393862391
 H          4.3719633321        1.0814190817       -5.6554025263
 H          2.9217717922        2.3701713992       -4.1762218362
 H          1.4801080758        1.5681762615       -4.8155194425
 H          3.7960303379        0.1491476920       -3.4425265925
 H          3.5418810978       -1.8805330134       -0.2936453116
 H          4.0152497042       -1.4751076713       -1.9388500156
 H          4.1700840700       -0.2777417456       -0.6384580417
 H          1.5734455530       -1.5028876989        1.2402062091
  45
    -0.274564 !GC
 C          0.0000000000        0.0000000000        0.0000000000
 C          1.5319810265        0.0000000000        0.0000000000
 C          2.0925294094        1.4432022052        0.0000000000
 C          2.5743096621        1.7614617332       -1.4271617263
 C          2.0503249203        0.5957724820       -2.2628733197
 C          2.1250448560       -0.6049034278       -1.3086412068
 C          1.4003509324       -1.7332976461       -1.9625785586
 C          1.4284358524       -1.8689006164       -3.2941917661
 C          2.1139281299       -0.9645515127       -4.1924115972
 C          2.2342990356       -1.1989287672       -5.5286632813
 C          1.6620004324       -2.4087652615       -6.2243309106
 C          2.5980476368       -2.9331845018       -7.3085486725
 C          2.9437589427       -1.8472734564       -8.3049293485
 O          3.1003162568       -2.0694376641       -9.4894958952
 C          3.1316147874       -0.5376999497       -7.7075934164
 C          2.8828368408       -0.2515552380       -6.4081526050
 C          3.2850760565        1.0936810270       -5.8723768871
 C          2.5397087182        1.4414161806       -4.5944778412
 C          2.7141937628        0.2958672224       -3.5991482140
 C          3.5626774999       -1.0783465869       -1.0340691590
 O          1.9951106636       -0.6396318142        1.1722102023
 H         -0.4223560292        0.5249118815       -0.8561562978
 H         -0.3076246154       -1.0452460283       -0.0603185301
 H         -0.4071880132        0.4341882519        0.9034831416
 H          2.9077804548        1.4862222359        0.7203774890
 H          1.3248846057        2.1426531741        0.3264146999
 H          3.6624752085        1.8067890962       -1.4748286474
 H          2.1846792682        2.7173485442       -1.7742177792
 H          0.9893188288        0.7760428214       -2.4719456086
 H          0.9034238077       -2.4722518379       -1.3505210019
 H          0.9106911159       -2.7082866864       -3.7322130950
 H          1.4600002728       -3.2165748403       -5.5235959190
 H          0.7119843012       -2.1205997146       -6.6883470808
 H          2.1540170181       -3.7814365217       -7.8318190013
 H          3.5361054064       -3.2694025702       -6.8557713290
 H          3.5431856768        0.2214382372       -8.3585648683
 H          3.1241934011        1.8551281551       -6.6377599698
 H          4.3602480290        1.0670673126       -5.6626805956
 H          2.9278624118        2.3698179266       -4.1742578656
 H          1.4772642965        1.5798800616       -4.8079658131
 H          3.7895520767        0.1443941851       -3.4456581071
 H          3.5472326455       -1.8714554471       -0.2901308641
 H          4.0169868916       -1.4741511303       -1.9380493288
 H          4.1714247576       -0.2692073399       -0.6448124728
 H          1.5711781240       -1.5020604083        1.2410176342
  45
    -0.271042 !GC
 C          0.0000000000        0.0000000000        0.0000000000
 C          1.5318991450        0.0000000000        0.0000000000
 C          2.0930528438        1.4431934228        0.0000000000
 C          2.5868537505        1.7587045614       -1.4236756385
 C          2.0549053291        0.5985988959       -2.2614268747
 C          2.1239817468       -0.6042239008       -1.3097414285
 C          1.3956983003       -1.7284314063       -1.9664972170
 C          1.4122324072       -1.8564062104       -3.2991344877
 C          2.0887471276       -0.9481652110       -4.2004530416
 C          2.1798290815       -1.1696644519       -5.5416329055
 C          1.5713901281       -2.3628942740       -6.2361215509
 C          2.4564323176       -2.8764618629       -7.3674145063
 C          2.7729299553       -1.7757541479       -8.3567886984
 O          2.8672047660       -1.9734375860       -9.5523617023
 C          3.0158428875       -0.4849287882       -7.7391174032
 C          2.8218012448       -0.2209560466       -6.4257124888
 C          3.2779273881        1.1014990555       -5.8776461922
 C          2.5564186676        1.4588293377       -4.5890655158
 C          2.7113635462        0.2989603444       -3.6020799647
 C          3.5588598438       -1.0853170629       -1.0343011967
 O          1.9954812953       -0.6399043388        1.1719825197
 H         -0.3882338088       -1.0165722414       -0.0397493285
 H         -0.3524547143        0.4648410928        0.9187762813
 H         -0.3975734560        0.5531212239       -0.8450531258
 H          2.9014103747        1.4889651897        0.7279153245
 H          1.3219414830        2.1432076250        0.3169704925
 H          3.6756245598        1.7922544273       -1.4651862022
 H          2.2091945714        2.7187266447       -1.7723229645
 H          0.9944559779        0.7861228580       -2.4668482054
 H          0.9047430210       -2.4720939117       -1.3549862969
 H          0.8893891127       -2.6935714232       -3.7354559483
 H          1.3913529092       -3.1816605574       -5.5421811747
 H          0.6051630063       -2.0593268781       -6.6545365175
 H          1.9812193202       -3.7094070522       -7.8872209516
 H          3.4084199037       -3.2314839875       -6.9603627144
 H          3.4187726353        0.2791192700       -8.3895713798
 H          3.1390265935        1.8785701112       -6.6313166088
 H          4.3529506595        1.0320939643       -5.6769329671
 H          2.9722762068        2.3743203394       -4.1668247532
 H          1.4954290786        1.6250882260       -4.7897989142
 H          3.7842804914        0.1280194980       -3.4522798359
 H          4.1850385917       -0.2935314637       -0.6325880870
 H          3.5230769868       -1.8824130376       -0.2973317284
 H          4.0110172997       -1.4728741318       -1.9429193236
 H          1.5743319885       -1.5037857793        1.2387134654
  45
    -0.270386 !GC
 C          0.0000000000        0.0000000000        0.0000000000
 C          1.5320466327        0.0000000000        0.0000000000
 C          2.0917848924        1.4432785721        0.0000000000
 C          2.5630382788        1.7655690095       -1.4298395436
 C          2.0468941512        0.5957731040       -2.2651759641
 C          2.1264593251       -0.6034854986       -1.3094600062
 C          1.4067505550       -1.7348788995       -1.9634562915
 C          1.4503277574       -1.8782343757       -3.2940078776
 C          2.1476238499       -0.9802170581       -4.1889350240
 C          2.3093563252       -1.2362324863       -5.5171482826
 C          1.7843664011       -2.4724501237       -6.2038751853
 C          2.7813636068       -3.0273572714       -7.2162155925
 C          3.1659008945       -1.9778820674       -8.2369370796
 O          3.3942600681       -2.2458279711       -9.4002588179
 C          3.2932153486       -0.6410280374       -7.6862033594
 C          2.9799265283       -0.3092731798       -6.4115762427
 C          3.3272384186        1.0679286910       -5.9189393518
 C          2.5645627828        1.4355496592       -4.6572389488
 C          2.7192799243        0.2977703538       -3.6050511801
 C          3.5664066700       -1.0705465412       -1.0361561592
 O          1.9958447176       -0.6395214824        1.1719455383
 H         -0.3887126114       -1.0159142482       -0.0485109634
 H         -0.3524176414        0.4569879362        0.9227292453
 H         -0.3976330044        0.5610099547       -0.8397030160
 H          2.9124009536        1.4843003716        0.7144680616
 H          1.3265007751        2.1415009041        0.3344934228
 H          3.6505181742        1.8209883297       -1.4827931070
 H          2.1629302917        2.7179516693       -1.7746333146
 H          0.9855066838        0.7685475269       -2.4780452464
 H          0.8998846048       -2.4684429283       -1.3529812757
 H          0.9331510666       -2.7174264432       -3.7329144543
 H          1.5456692444       -3.2573271554       -5.4889175550
 H          0.8606866645       -2.2056714573       -6.7296310148
 H          2.3750913373       -3.9012721004       -7.7270992428
 H          3.6982431731       -3.3327100566       -6.7023128405
 H          3.7132734369        0.1027603037       -8.3494650935
 H          3.1430596095        1.7954107244       -6.7118345597
 H          4.4018982656        1.0886750601       -5.7053952525
 H          2.9278956893        2.3851965448       -4.2627554620
 H          1.5003076949        1.5419598688       -4.8805553033
 H          3.7975822992        0.1709232813       -3.4495582567
 H          4.0268488123       -1.4074281592       -1.9599870277
 H          4.1400974231       -0.2085768764       -0.7025918869
 H          3.6296681527       -1.8661165173       -0.3003251927
 H          1.5734758877       -1.5027526232        1.2404463312
  45
    -0.268705 !GC
 C          0.0000000000        0.0000000000        0.0000000000
 C          1.5320558428        0.0000000000        0.0000000000
 C          2.0938231452        1.4432278998        0.0000000000
 C          2.5980794174        1.7528121888       -1.4211014517
 C          2.0621183215        0.5958238275       -2.2603631502
 C          2.1234513472       -0.6073164377       -1.3082352964
 C          1.3909509204       -1.7286084410       -1.9658581093
 C          1.4124159428       -1.8582585554       -3.2981194847
 C          2.0988952544       -0.9534331686       -4.1954444985
 C          2.2003961840       -1.1737786112       -5.5352190093
 C          1.5998471379       -2.3617696177       -6.2439567990
 C          2.5169461520       -2.8761022203       -7.3494056227
 C          2.8672659826       -1.7730695348       -8.3252597611
 O          3.0045840062       -1.9712813300       -9.5165260248
 C          3.0821885636       -0.4789897489       -7.7030084997
 C          2.8505295244       -0.2160641454       -6.3956476632
 C          3.2759909845        1.1110173754       -5.8340171927
 C          2.5351731656        1.4433296342       -4.5490855899
 C          2.7199168690        0.2935756970       -3.5952555688
 C          3.5555248839       -1.0952540835       -1.0307658593
 O          1.9953914274       -0.6389078026        1.1725316776
 H         -0.3860710202        0.4695380276        0.9064953141
 H         -0.3849588077        0.5439973817       -0.8543054652
 H         -0.3679079792       -1.0228605010       -0.0346688407
 H          2.8965714890        1.4922441069        0.7339272767
 H          1.3202051464        2.1445137177        0.3079765232
 H          3.6872945366        1.7777059141       -1.4563990269
 H          2.2300193028        2.7155773589       -1.7725471566
 H          1.0028144177        0.7887330692       -2.4671008360
 H          0.8917117984       -2.4674212571       -1.3552479836
 H          0.8858689726       -2.6914113964       -3.7379275361
 H          1.3951882202       -3.1802581105       -5.5564945888
 H          0.6483794518       -2.0516724293       -6.6904134684
 H          2.0551341883       -3.7063929892       -7.8860059560
 H          3.4550910385       -3.2356783283       -6.9150565093
 H          3.4971472252        0.2873107815       -8.3433043755
 H          3.1275847136        1.8907200971       -6.5833970498
 H          4.3503788455        1.0622628041       -5.6247593092
 H          2.9365147972        2.3571331964       -4.1097769048
 H          1.4750642665        1.6014707315       -4.7602868049
 H          3.7926738125        0.1237089464       -3.4432981439
 H          3.5295122622       -1.8989620592       -0.2984811173
 H          4.0128567810       -1.4814157891       -1.9375267837
 H          4.1676449987       -0.2962812066       -0.6258796582
 H          1.5725850785       -1.5018500248        1.2410979267
  45
    -0.265660 !GC
 C          0.0000000000        0.0000000000        0.0000000000
 C          1.5319974280        0.0000000000        0.0000000000
 C          2.0941831439        1.4430055236        0.0000000000
 C          2.5898688293        1.7555465994       -1.4236157443
 C          2.0553345493        0.5961782833       -2.2607878014
 C          2.1228693604       -0.6066243973       -1.3087652381
 C          1.3940829683       -1.7318465921       -1.9639029999
 C          1.4062586547       -1.8584910624       -3.2964618322
 C          2.0790253494       -0.9464079151       -4.1970507190
 C          2.1579253019       -1.1546064053       -5.5399290150
 C          1.5417430338       -2.3319261630       -6.2524892907
 C          2.4293593510       -2.8154173217       -7.3953676755
 C          2.7497238705       -1.6872765752       -8.3528538190
 O          2.8496907030       -1.8548517458       -9.5524460440
 C          2.9889148592       -0.4098651431       -7.7055590241
 C          2.7890902208       -0.1762049858       -6.3875544490
 C          3.2330000115        1.1345091873       -5.8029406880
 C          2.4979785129        1.4483628110       -4.5098029131
 C          2.7082557973        0.2954669442       -3.5946105844
 C          3.5569649455       -1.0890313259       -1.0322674847
 O          1.9950495917       -0.6398761073        1.1719945889
 H         -0.3881330195       -1.0165905748       -0.0395835236
 H         -0.3529678334        0.4650134785        0.9184950125
 H         -0.3974648143        0.5526861963       -0.8453223804
 H          2.9019680690        1.4889907578        0.7286077791
 H          1.3233136790        2.1442134056        0.3149979331
 H          3.6787261971        1.7863929273       -1.4641902938
 H          2.2150510664        2.7164057304       -1.7731358813
 H          0.9949955577        0.7862916110       -2.4647422901
 H          0.9051859787       -2.4756605243       -1.3509307332
 H          0.8806316224       -2.6931456696       -3.7345964460
 H          1.3650542521       -3.1658966028       -5.5762075312
 H          0.5747749981       -2.0201513370       -6.6625494300
 H          1.9551358043       -3.6336139354       -7.9394057043
 H          3.3803827980       -3.1822574369       -6.9966037812
 H          3.3944348930        0.3682574123       -8.3376463403
 H          3.0914714808        1.9306374909       -6.5360597541
 H          4.3070271453        1.0688174107       -5.5968620073
 H          2.9059378008        2.3519183291       -4.0554801907
 H          1.4382543146        1.6169652029       -4.7154509140
 H          3.7802834580        0.1189999696       -3.4456976055
 H          4.1208705554       -0.2475924270       -0.6337306216
 H          3.5614427543       -1.8526256067       -0.2566478377
 H          4.0629224443       -1.4328442366       -1.9247545848
 H          1.5707533705       -1.5020266383        1.2409099608
  45
    -0.265417 !GC
 C          0.0000000000        0.0000000000        0.0000000000
 C          1.5320235443        0.0000000000        0.0000000000
 C          2.0947368368        1.4428873542        0.0000000000
 C          2.6028699900        1.7516114743       -1.4199204028
 C          2.0626248539        0.5967824794       -2.2591455246
 C          2.1228885812       -0.6074216439       -1.3083139130
 C          1.3884941036       -1.7278373163       -1.9656628113
 C          1.3979533056       -1.8514172507       -3.2985345525
 C          2.0732260909       -0.9403316376       -4.1984530013
 C          2.1433914260       -1.1425145788       -5.5427216220
 C          1.5106565805       -2.3090259892       -6.2586945687
 C          2.3853892437       -2.7931871556       -7.4111478090
 C          2.7100801734       -1.6610709381       -8.3624256994
 O          2.7982687451       -1.8204183823       -9.5640848973
 C          2.9664412693       -0.3905971375       -7.7077571969
 C          2.7784035505       -0.1647778988       -6.3867894838
 C          3.2388533462        1.1369483938       -5.7949834255
 C          2.5096869106        1.4501873101       -4.4982981494
 C          2.7130459868        0.2945706051       -3.5929006811
 C          3.5542101684       -1.0976540806       -1.0307220497
 O          1.9953678390       -0.6390090430        1.1725577784
 H         -0.3867209415       -1.0174823146       -0.0291293622
 H         -0.3537577949        0.4742498884        0.9134499808
 H         -0.3977411693        0.5431725574       -0.8514375209
 H          2.8953575123        1.4923817162        0.7361356690
 H          1.3204437063        2.1444702435        0.3049948743
 H          3.6921326244        1.7720905669       -1.4539035503
 H          2.2391362136        2.7158960810       -1.7716693341
 H          1.0032805848        0.7935136360       -2.4624524689
 H          0.8986871885       -2.4718840737       -1.3536816448
 H          0.8701878375       -2.6842505650       -3.7373846952
 H          1.3307664793       -3.1457492486       -5.5866302348
 H          0.5438566423       -1.9854373435       -6.6601387310
 H          1.8986706051       -3.6025036056       -7.9573796425
 H          3.3353692582       -3.1728761049       -7.0219557353
 H          3.3736759926        0.3884006479       -8.3376546647
 H          3.1054271292        1.9394803702       -6.5226611732
 H          4.3123857051        1.0571766854       -5.5912089012
 H          2.9272029268        2.3471321496       -4.0395698774
 H          1.4513502877        1.6302564947       -4.7010624953
 H          3.7835218940        0.1087504038       -3.4444073037
 H          4.0303220022       -1.4897321308       -1.9272018659
 H          4.1680323608       -0.3028787939       -0.6209991155
 H          3.5027244399       -1.8977000393       -0.2979860545
 H          1.5713560057       -1.5011798123        1.2414350860
  45
    -0.263120 !GC
 C          0.0000000000        0.0000000000        0.0000000000
 C          1.5320451187        0.0000000000        0.0000000000
 C          2.0917701340        1.4433464974        0.0000000000
 C          2.5687505427        1.7634182550       -1.4283384110
 C          2.0505335957        0.5953133838       -2.2645498260
 C          2.1264151357       -0.6043370604       -1.3089303946
 C          1.4044068905       -1.7336959759       -1.9639055125
 C          1.4497866176       -1.8774211553       -3.2943620342
 C          2.1513222548       -0.9816596211       -4.1881955056
 C          2.3170062716       -1.2397716685       -5.5155731306
 C          1.7917370070       -2.4763744125       -6.2014979089
 C          2.7935266515       -3.0405190304       -7.2040477598
 C          3.1890764448       -1.9983292346       -8.2279556465
 O          3.4266103078       -2.2739518035       -9.3876228086
 C          3.3152675943       -0.6585726510       -7.6839601811
 C          2.9952281509       -0.3193970061       -6.4129396461
 C          3.3428175587        1.0598433773       -5.9262107568
 C          2.5796043102        1.4343495366       -4.6669252756
 C          2.7238221332        0.2959219301       -3.6043511630
 C          3.5648523772       -1.0752697341       -1.0345335280
 O          1.9956964430       -0.6391117541        1.1722632935
 H         -0.4178755510        0.5486878312       -0.8398188494
 H         -0.3546198741       -1.0252332153       -0.0441343315
 H         -0.3663171721        0.4569777594        0.9195885877
 H          2.9092960898        1.4859358790        0.7179159198
 H          1.3248428247        2.1419784628        0.3299122347
 H          3.6566036221        1.8142475899       -1.4778550895
 H          2.1736976118        2.7173722814       -1.7745584309
 H          0.9897413563        0.7708568490       -2.4782127321
 H          0.8942952010       -2.4657120163       -1.3542545277
 H          0.9311712864       -2.7154382766       -3.7340070683
 H          1.5436248621       -3.2573895075       -5.4853085105
 H          0.8733200292       -2.2071299050       -6.7353848737
 H          2.3875123711       -3.9158467385       -7.7130590813
 H          3.7055776435       -3.3465865855       -6.6820048429
 H          3.7407667401        0.0808240285       -8.3485926122
 H          3.1599947038        1.7837033422       -6.7227714466
 H          4.4173391431        1.0808816415       -5.7119966204
 H          2.9442129570        2.3850218319       -4.2763543229
 H          1.5157703740        1.5412982460       -4.8915146096
 H          3.8018918898        0.1681922529       -3.4478411709
 H          3.5501357182       -1.8711054335       -0.2933410128
 H          4.0208930975       -1.4666671627       -1.9397602812
 H          4.1710435631       -0.2659516664       -0.6413161862
 H          1.5729452399       -1.5020535507        1.2411978689
  45
    -0.261609 !GC
 C          0.0000000000        0.0000000000        0.0000000000
 C          1.5320463803        0.0000000000        0.0000000000
 C          2.0944419734        1.4430447952        0.0000000000
 C          2.5974359120        1.7528771204       -1.4215944382
 C          2.0595055717        0.5959480011       -2.2597207480
 C          2.1228318719       -0.6075321559       -1.3082380052
 C          1.3917352730       -1.7305678396       -1.9645920677
 C          1.4011832907       -1.8548844540       -3.2974104593
 C          2.0745386320       -0.9427055484       -4.1974383268
 C          2.1481789852       -1.1473701120       -5.5411358356
 C          1.5206680311       -2.3182788313       -6.2544290561
 C          2.4036404593       -2.8105567484       -7.3971978166
 C          2.7334980051       -1.6863244823       -8.3561691205
 O          2.8313392449       -1.8562358015       -9.5555481380
 C          2.9828067226       -0.4098812851       -7.7107383666
 C          2.7860730442       -0.1734622935       -6.3927719154
 C          3.2407480062        1.1341935260       -5.8094127765
 C          2.5113479505        1.4535254966       -4.5144025398
 C          2.7107937801        0.2945948586       -3.5931033712
 C          3.5552748644       -1.0936087170       -1.0296449906
 O          1.9953312953       -0.6392258141        1.1722224530
 H         -0.3733544296        0.4939638813        0.9002762766
 H         -0.3223961747        0.5775684206       -0.8633387554
 H         -0.4414826796       -0.9869442453       -0.0512542251
 H          2.8981973426        1.4906910256        0.7329369525
 H          1.3217505806        2.1448663450        0.3091336817
 H          3.6865667389        1.7774669127       -1.4580619471
 H          2.2292540978        2.7156998018       -1.7727252632
 H          0.9996767270        0.7896980419       -2.4631370688
 H          0.9024798479       -2.4745366858       -1.3520570186
 H          0.8740593093       -2.6882521781       -3.7362324180
 H          1.3345575297       -3.1506513377       -5.5787190907
 H          0.5575780864       -1.9956859245       -6.6652661270
 H          1.9220692163       -3.6252633435       -7.9403249039
 H          3.3514685275       -3.1854647144       -6.9983745775
 H          3.3928086239        0.3645753077       -8.3441069265
 H          3.1028804697        1.9311508024       -6.5423324966
 H          4.3148723709        1.0609978051       -5.6061826103
 H          2.9264333579        2.3545437119       -4.0614576265
 H          1.4521885367        1.6289009108       -4.7172566073
 H          3.7820166439        0.1126517129       -3.4450808143
 H          3.5291508482       -1.9018533005       -0.3022328322
 H          4.0161037051       -1.4725992093       -1.9376671812
 H          4.1640698859       -0.2957432862       -0.6175872697
 H          1.5726722674       -1.5022636158        1.2408290316
  45
    -0.241822 !GC
 C          0.0000000000        0.0000000000        0.0000000000
 C          1.5345522833        0.0000000000        0.0000000000
 C          2.1050967114        1.4320033345        0.0000000000
 C          2.5931890216        1.7476500829       -1.4264443360
 C          2.0449186330        0.5914494989       -2.2580838786
 C          2.1240631829       -0.6107087034       -1.3070729591
 C          1.4250692616       -1.7563682052       -1.9573041189
 C          1.3436564047       -1.8508577315       -3.2906212899
 C          1.8637205272       -0.8686519484       -4.2203778745
 C          1.6542489201       -0.9474050182       -5.5635048691
 C          0.8524552687       -2.0505293801       -6.2109441434
 C          0.0840354040       -1.5685570600       -7.4373048177
 C          1.0042203891       -0.8930007607       -8.4310756646
 O          0.8757643245       -1.0103068400       -9.6332386827
 C          1.9995902481       -0.0387827591       -7.8079959476
 C          2.2460286983       -0.0102165011       -6.4785684059
 C          3.2034606285        0.9984181896       -5.9181083801
 C          2.6990276636        1.4770682023       -4.5640267085
 C          2.6664315476        0.2659866731       -3.6151190227
 C          3.5610725464       -1.0690399705       -1.0055781997
 O          2.1002470961       -0.5691885414        1.1672685460
 H         -0.3758070734        0.3765336836        0.9529519899
 H         -0.4012296095        0.6112804224       -0.8037824411
 H         -0.3823144706       -1.0123095127       -0.1280446962
 H          2.9144617463        1.4377470031        0.7242159337
 H          1.3456165262        2.1384422047        0.3297058598
 H          3.6808937659        1.7740586489       -1.4736678308
 H          2.2178546074        2.7097166089       -1.7724309635
 H          0.9822904151        0.7882435486       -2.4457366936
 H          1.0515592926       -2.5674300394       -1.3443126430
 H          0.8739509621       -2.7286083092       -3.7075716797
 H          1.5441015670       -2.8425619255       -6.5201252747
 H          0.1395099756       -2.4841827996       -5.5109585139
 H         -0.6644497671       -0.8293124303       -7.1354630595
 H         -0.4349889438       -2.3972292488       -7.9210540105
 H          2.5360165744        0.6252996893       -8.4716548380
 H          3.3191184129        1.8314942087       -6.6127620679
 H          4.1852679352        0.5307020040       -5.7903312013
 H          3.3560653846        2.2498281025       -4.1634161790
 H          1.6984310522        1.9017413155       -4.6743560416
 H          3.6956873953       -0.0814997917       -3.4661476794
 H          3.5543451549       -1.8367496051       -0.2350078770
 H          4.0183356107       -1.4743039984       -1.9006733141
 H          4.1690941133       -0.2422960085       -0.6573693283
 H          2.1045990201        0.1042114043        1.8566946982
  45
    -0.234442 !GC
 C          0.0000000000        0.0000000000        0.0000000000
 C          1.5346827386        0.0000000000        0.0000000000
 C          2.1052816130        1.4321370095        0.0000000000
 C          2.6001939589        1.7438281384       -1.4247171421
 C          2.0486247241        0.5900997163       -2.2572580907
 C          2.1234465299       -0.6124499349       -1.3064618186
 C          1.4216427415       -1.7558205334       -1.9577833795
 C          1.3388462132       -1.8487355076       -3.2912233167
 C          1.8623888934       -0.8676998292       -4.2202273238
 C          1.6519557410       -0.9449490196       -5.5634133755
 C          0.8402928002       -2.0425014615       -6.2079713573
 C          0.0874815520       -1.5619934485       -7.4446824974
 C          1.0236496040       -0.9042354929       -8.4355202533
 O          0.9080781226       -1.0337878431       -9.6377496988
 C          2.0167198869       -0.0493785879       -7.8097485280
 C          2.2522775414       -0.0139006664       -6.4785862083
 C          3.2101294819        0.9936782123       -5.9167701866
 C          2.7060458349        1.4735132246       -4.5628890566
 C          2.6695927548        0.2632195985       -3.6143492021
 C          3.5584732365       -1.0755219480       -1.0038575852
 O          2.1008697383       -0.5682128174        1.1674740408
 H         -0.4060760423       -1.0054245045       -0.1293210251
 H         -0.3568310277        0.4027111424        0.9474297181
 H         -0.3970501820        0.6177700543       -0.7999135429
 H          2.9111943028        1.4399779034        0.7279639347
 H          1.3441722548        2.1396095662        0.3237699492
 H          3.6881679833        1.7644108663       -1.4684676633
 H          2.2308610759        2.7075488232       -1.7723554297
 H          0.9865643689        0.7906708563       -2.4446160675
 H          1.0460154534       -2.5662182897       -1.3453056949
 H          0.8657963514       -2.7242249272       -3.7092068247
 H          1.5230401262       -2.8474146922       -6.5032148614
 H          0.1159124537       -2.4586189124       -5.5089995947
 H         -0.6556468391       -0.8121898750       -7.1554796500
 H         -0.4360480398       -2.3889053206       -7.9264771348
 H          2.5617165061        0.6082146250       -8.4728920386
 H          3.3278413356        1.8259759252       -6.6120879626
 H          4.1910714820        0.5244616875       -5.7881833657
 H          3.3644529244        2.2445928243       -4.1612080548
 H          1.7065540308        1.9004646401       -4.6739424000
 H          3.6976778416       -0.0878386400       -3.4660146186
 H          4.0333070349       -1.4405833153       -1.9095169531
 H          4.1312797331       -0.2146496191       -0.6700434656
 H          3.5998296802       -1.8344241929       -0.2326494029
 H          2.1039129430        0.1053888862        1.8570189556
  45
    -0.233535 !GC
 C          0.0000000000        0.0000000000        0.0000000000
 C          1.5345109009        0.0000000000        0.0000000000
 C          2.1049654084        1.4320521953        0.0000000000
 C          2.5907269189        1.7472762115       -1.4271772775
 C          2.0438902217        0.5901019845       -2.2584400587
 C          2.1242021418       -0.6114345573       -1.3065878046
 C          1.4261959948       -1.7579400378       -1.9566809209
 C          1.3507735489       -1.8551601521       -3.2901789286
 C          1.8752403393       -0.8741647454       -4.2185719786
 C          1.6780858018       -0.9581379727       -5.5630948084
 C          0.8934800766       -2.0707792312       -6.2146679408
 C          0.1310130972       -1.5960381016       -7.4478472949
 C          1.0539680802       -0.9148791038       -8.4353976258
 O          0.9360351469       -1.0349733624       -9.6385509818
 C          2.0364701027       -0.0505135911       -7.8058771869
 C          2.2717298683       -0.0181533379       -6.4745707063
 C          3.2139732779        1.0006303898       -5.9065298249
 C          2.6965915745        1.4704598599       -4.5539168998
 C          2.6683809692        0.2658729865       -3.6110717905
 C          3.5615799871       -1.0679710783       -1.0049021822
 O          2.0998356592       -0.5687350786        1.1676413936
 H         -0.3913700299       -1.0114371136       -0.1110949059
 H         -0.3519539420        0.3877699600        0.9546019862
 H         -0.4155060920        0.6266575236       -0.7872823074
 H          2.9158028723        1.4377276084        0.7225776014
 H          1.3464026406        2.1389149827        0.3310153924
 H          3.6783876262        1.7758036541       -1.4754483175
 H          2.2130179586        2.7083786386       -1.7732965749
 H          0.9811782577        0.7855225375       -2.4472620147
 H          1.0480907433       -2.5665145140       -1.3432747396
 H          0.8828782579       -2.7332707943       -3.7088747309
 H          1.5967215530       -2.8552084533       -6.5170372460
 H          0.1794886833       -2.5109771639       -5.5200878708
 H         -0.6260231527       -0.8622702133       -7.1535939883
 H         -0.3771032540       -2.4293821917       -7.9350462436
 H          2.5721335715        0.6175647667       -8.4662138173
 H          3.3236997614        1.8363453969       -6.5990208437
 H          4.2003924742        0.5441725734       -5.7741409758
 H          3.3442769554        2.2473642585       -4.1460975926
 H          1.6931167520        1.8870871117       -4.6691047750
 H          3.6999487247       -0.0741289643       -3.4603561367
 H          4.1259374854       -0.2099132459       -0.6434500002
 H          3.5565760534       -1.8049241952       -0.2075959712
 H          4.0670623757       -1.4655186377       -1.8736801192
 H          2.1042112455        0.1050328864        1.8567210620
  45
    -0.233132 !GC
 C          0.0000000000        0.0000000000        0.0000000000
 C          1.5345053496        0.0000000000        0.0000000000
 C          2.1050674475        1.4322070717        0.0000000000
 C          2.6003516965        1.7432462496       -1.4247277929
 C          2.0490081918        0.5893526854       -2.2572571461
 C          2.1231882619       -0.6131858269       -1.3060873917
 C          1.4213980705       -1.7565938382       -1.9574853194
 C          1.3435602509       -1.8513916784       -3.2910460379
 C          1.8710934245       -0.8711979504       -4.2185551891
 C          1.6702817331       -0.9512449275       -5.5627971847
 C          0.8741508698       -2.0565086119       -6.2132166990
 C          0.1196783393       -1.5782064617       -7.4499727250
 C          1.0506950672       -0.9057517541       -8.4359906998
 O          0.9353202798       -1.0273668316       -9.6391384296
 C          2.0381026624       -0.0476551948       -7.8055593603
 C          2.2709790752       -0.0154973421       -6.4738238810
 C          3.2197788207        0.9969346706       -5.9052595514
 C          2.7064804155        1.4684922006       -4.5517249432
 C          2.6715476027        0.2632156127       -3.6103437015
 C          3.5580833779       -1.0762062154       -1.0025322081
 O          2.1001350347       -0.5680703720        1.1677869833
 H         -0.4213511174        0.5784201990       -0.8234104535
 H         -0.3063784321       -1.0388946039       -0.1372285638
 H         -0.4297679771        0.3582991909        0.9295057819
 H          2.9105972936        1.4401505782        0.7284528401
 H          1.3439428240        2.1400100695        0.3231091455
 H          3.6884107249        1.7634469861       -1.4677709649
 H          2.2315384440        2.7070217870       -1.7729833147
 H          0.9871734175        0.7900786326       -2.4457239096
 H          1.0404921193       -2.5644400760       -1.3448916788
 H          0.8711228407       -2.7266489169       -3.7104968575
 H          1.5684102624       -2.8507161433       -6.5106961775
 H          0.1531362124       -2.4852601955       -5.5187368922
 H         -0.6325446618       -0.8377647293       -7.1594754438
 H         -0.3937337118       -2.4084533844       -7.9369940379
 H          2.5801027671        0.6152730174       -8.4655566355
 H          3.3337136416        1.8327415586       -6.5969739484
 H          4.2036634698        0.5344991341       -5.7744920589
 H          3.3593953347        2.2408113220       -4.1436123059
 H          1.7055024741        1.8914274770       -4.6655477931
 H          3.7011073404       -0.0830239547       -3.4604123762
 H          3.5470275294       -1.8497515147       -0.2377711577
 H          4.0176640334       -1.4757192181       -1.8989816332
 H          4.1665635629       -0.2532975602       -0.6461679811
 H          2.1039208221        0.1056011459        1.8569810191
  45
    -0.223064 !GC
 C          0.0000000000        0.0000000000        0.0000000000
 C          1.5344878126        0.0000000000        0.0000000000
 C          2.1048105877        1.4320169348        0.0000000000
 C          2.5839004578        1.7500284846       -1.4289449119
 C          2.0402846209        0.5906959750       -2.2595724082
 C          2.1241361748       -0.6103468509       -1.3073399069
 C          1.4287050341       -1.7589342800       -1.9563532218
 C          1.3549546522       -1.8576708196       -3.2898456242
 C          1.8796744213       -0.8768981234       -4.2183995386
 C          1.6886231615       -0.9637673790       -5.5635550696
 C          0.9121961044       -2.0801978910       -6.2184475753
 C          0.1649518002       -1.6132525614       -7.4637279900
 C          1.0992535366       -0.9334398099       -8.4415115150
 O          0.9994899390       -1.0620109941       -9.6454536544
 C          2.0692666869       -0.0609462627       -7.8038264620
 C          2.2888228509       -0.0220042393       -6.4701130017
 C          3.2181172739        1.0051286633       -5.8957743686
 C          2.6904098615        1.4673167840       -4.5446626870
 C          2.6659697525        0.2678750677       -3.6108838307
 C          3.5627452325       -1.0640875792       -1.0072261383
 O          2.1000081013       -0.5692635810        1.1672006205
 H         -0.3871404675       -1.0102863591       -0.1268413283
 H         -0.3716059267        0.3738525476        0.9557934928
 H         -0.4005057534        0.6134393879       -0.8026487975
 H          2.9192807273        1.4357951759        0.7185570224
 H          1.3479185288        2.1380234304        0.3365471986
 H          3.6712227873        1.7841735935       -1.4811251749
 H          2.2003809342        2.7093671780       -1.7734666367
 H          0.9771188793        0.7828847734       -2.4487622832
 H          1.0493689496       -2.5664807545       -1.3423463544
 H          0.8864119656       -2.7355653974       -3.7080620943
 H          1.6186457096       -2.8661903968       -6.5081917191
 H          0.1899461042       -2.5172295190       -5.5304989325
 H         -0.5981472459       -0.8805606905       -7.1829176872
 H         -0.3342068977       -2.4502227903       -7.9540633517
 H          2.6096542290        0.6067303747       -8.4607649065
 H          3.3225102047        1.8431830503       -6.5863101119
 H          4.2084869330        0.5583764917       -5.7602843279
 H          3.3309344682        2.2471135424       -4.1311843590
 H          1.6849159677        1.8777378722       -4.6640912709
 H          3.6992891727       -0.0661883449       -3.4594849819
 H          4.1266597695       -0.2049887772       -0.6482098659
 H          3.5602297832       -1.7996776866       -0.2088225903
 H          4.0677203665       -1.4619623157       -1.8760282696
 H          2.1056842731        0.1044752851        1.8562257605
  45
    -0.220710 !GC
 C          0.0000000000        0.0000000000        0.0000000000
 C          1.5345367649        0.0000000000        0.0000000000
 C          2.1050689185        1.4320549436        0.0000000000
 C          2.5914762073        1.7472937740       -1.4270375174
 C          2.0444040737        0.5903750965       -2.2585147277
 C          2.1240560509       -0.6113258481       -1.3067248378
 C          1.4261989627       -1.7578457244       -1.9568290030
 C          1.3496648305       -1.8543780612       -3.2903441717
 C          1.8750104252       -0.8733377379       -4.2182380437
 C          1.6788761895       -0.9562708851       -5.5628879043
 C          0.8915886302       -2.0661234909       -6.2160538327
 C          0.1482835307       -1.5942387261       -7.4618702128
 C          1.0878622683       -0.9221833090       -8.4400698168
 O          0.9870311549       -1.0507153221       -9.6438676170
 C          2.0636751117       -0.0555680081       -7.8031710509
 C          2.2839725572       -0.0178901159       -6.4695545196
 C          3.2204651351        1.0028717621       -5.8953754429
 C          2.6978187104        1.4667446069       -4.5428439565
 C          2.6681912628        0.2664570897       -3.6104479648
 C          3.5610439421       -1.0687761164       -1.0045166062
 O          2.1002810710       -0.5686125061        1.1673741926
 H         -0.3723445027        0.4151704950        0.9401394163
 H         -0.3411081003        0.6558369118       -0.8020835043
 H         -0.4445253664       -0.9806360370       -0.1236228881
 H          2.9155762977        1.4375017300        0.7230056957
 H          1.3462384888        2.1387362083        0.3307354367
 H          3.6791336010        1.7751653086       -1.4751569984
 H          2.2145702828        2.7086158161       -1.7732892972
 H          0.9817594731        0.7862120327       -2.4471421220
 H          1.0464459731       -2.5656241143       -1.3433481855
 H          0.8795731008       -2.7311183777       -3.7092814914
 H          1.5899646230       -2.8597940071       -6.5044066037
 H          0.1650478040       -2.4941187894       -5.5269320131
 H         -0.6092999774       -0.8553738677       -7.1817047823
 H         -0.3574133821       -2.4276220655       -7.9515786909
 H          2.6074977739        0.6088373773       -8.4602753341
 H          3.3287948983        1.8410847091       -6.5851158837
 H          4.2083674430        0.5499431354       -5.7620829112
 H          3.3434063176        2.2425053499       -4.1296039302
 H          1.6943922821        1.8828116117       -4.6600702607
 H          3.6999731237       -0.0728715197       -3.4603655711
 H          3.5535576667       -1.8419901598       -0.2394959572
 H          4.0208424291       -1.4671115145       -1.9013397039
 H          4.1669739330       -0.2436466165       -0.6489844025
 H          2.1043345156        0.1047868018        1.8568163673
  45
    -0.219245 !GC
 C          0.0000000000        0.0000000000        0.0000000000
 C          1.5345206157        0.0000000000        0.0000000000
 C          2.1046348033        1.4321547159        0.0000000000
 C          2.5852412483        1.7494987367       -1.4285386952
 C          2.0402325369        0.5907035099       -2.2589890053
 C          2.1247998605       -0.6103449744       -1.3069099297
 C          1.4298033949       -1.7593942486       -1.9557641270
 C          1.3547058875       -1.8580254789       -3.2891659483
 C          1.8759187096       -0.8759372008       -4.2181892086
 C          1.6799064075       -0.9621497200       -5.5626375462
 C          0.9026450508       -2.0801056947       -6.2138150104
 C          0.1401086806       -1.6107573066       -7.4490586415
 C          1.0613506350       -0.9250739829       -8.4351328299
 O          0.9468329721       -1.0468642016       -9.6384067625
 C          2.0372788876       -0.0542489049       -7.8042219653
 C          2.2698866155       -0.0200297279       -6.4725342032
 C          3.2046699605        1.0050466941       -5.9032449264
 C          2.6845280151        1.4691748521       -4.5497302618
 C          2.6637739600        0.2684821318       -3.6119390670
 C          3.5638434017       -1.0624631292       -1.0063357214
 O          2.0997610565       -0.5688915687        1.1675355717
 H         -0.3911008212       -1.0112949916       -0.1138136208
 H         -0.3520544931        0.3850042651        0.9557255734
 H         -0.4157915404        0.6287005785       -0.7855019391
 H          2.9181978797        1.4365915290        0.7195193448
 H          1.3472596505        2.1382945917        0.3351490815
 H          3.6726189305        1.7819865500       -1.4799678328
 H          2.2032763412        2.7093541038       -1.7733199951
 H          0.9767702714        0.7830763648       -2.4465788837
 H          1.0534590237       -2.5681091519       -1.3414112381
 H          0.8886268910       -2.7374517262       -3.7072410025
 H          1.6107940486       -2.8608693895       -6.5142427586
 H          0.1897360360       -2.5235556258       -5.5202189638
 H         -0.6218447028       -0.8813282040       -7.1569864307
 H         -0.3620718341       -2.4475079768       -7.9366748404
 H          2.5698866349        0.6170825413       -8.4637824814
 H          3.3078356488        1.8426880293       -6.5945173092
 H          4.1945791948        0.5558131542       -5.7722270659
 H          3.3278156521        2.2489402941       -4.1404124373
 H          1.6787252100        1.8803242885       -4.6643287381
 H          3.6974660654       -0.0658203282       -3.4630051779
 H          3.9736008886       -1.4580776295       -1.9330376599
 H          4.2027406519       -0.2388976337       -0.7068924632
 H          3.5882088464       -1.8685174711       -0.2832577954
 H          2.1075149181        0.1058400763        1.8555433626
  45
    -0.219184 !GC
 C          0.0000000000        0.0000000000        0.0000000000
 C          1.5345781472        0.0000000000        0.0000000000
 C          2.1048500506        1.4320024290        0.0000000000
 C          2.5844538469        1.7505358900       -1.4287726742
 C          2.0406353327        0.5912650061       -2.2593878221
 C          2.1249142849       -0.6098132908       -1.3072341347
 C          1.4300404134       -1.7586919970       -1.9562742813
 C          1.3568352484       -1.8577038291       -3.2897398236
 C          1.8808063173       -0.8765900700       -4.2183105418
 C          1.6904877427       -0.9643623094       -5.5635105518
 C          0.9171354539       -2.0832516630       -6.2180780167
 C          0.1705224616       -1.6199830374       -7.4649689578
 C          1.1045611010       -0.9390152708       -8.4421499435
 O          1.0072903341       -1.0698485582       -9.6459797975
 C          2.0706463475       -0.0623438499       -7.8041803498
 C          2.2888383704       -0.0215921109       -6.4702111519
 C          3.2148358078        1.0088258986       -5.8962296325
 C          2.6867841471        1.4692186353       -4.5447390372
 C          2.6655584102        0.2695053211       -3.6112654491
 C          3.5640187029       -1.0621716952       -1.0067944647
 O          2.1002338956       -0.5693655293        1.1671299595
 H         -0.3419545106        0.6282539020       -0.8256797268
 H         -0.3860937010       -1.0028897985       -0.1685694542
 H         -0.4304950739        0.3950385358        0.9172115972
 H          2.9189051678        1.4358093328        0.7190628462
 H          1.3475523038        2.1376481708        0.3363984699
 H          3.6717885753        1.7840558866       -1.4806301525
 H          2.2016059755        2.7101566872       -1.7733307543
 H          0.9773518280        0.7831582203       -2.4480953492
 H          1.0518401115       -2.5667969972       -1.3422909222
 H          0.8908795572       -2.7369614024       -3.7077885011
 H          1.6256275735       -2.8680877291       -6.5061634704
 H          0.1946720773       -2.5209893450       -5.5306399315
 H         -0.5946213087       -0.8888746219       -7.1858781306
 H         -0.3260867782       -2.4588437750       -7.9546979621
 H          2.6093395776        0.6067600000       -8.4610441065
 H          3.3154870880        1.8474789015       -6.5866136486
 H          4.2070381753        0.5657679258       -5.7617112352
 H          3.3257039331        2.2505184531       -4.1316366598
 H          1.6801981102        1.8771472328       -4.6633404219
 H          3.6996690256       -0.0626092555       -3.4609999651
 H          3.5604360641       -1.8306887727       -0.2370559728
 H          4.0224497876       -1.4648412874       -1.9024330753
 H          4.1688541947       -0.2333029703       -0.6579696571
 H          2.1053913425        0.1041039324        1.8564872348
  45
    -0.214195 !GC
 C          0.0000000000        0.0000000000        0.0000000000
 C          1.5345005553        0.0000000000        0.0000000000
 C          2.1037232110        1.4325235517        0.0000000000
 C          2.5853581443        1.7492118896       -1.4283625625
 C          2.0406590661        0.5903776486       -2.2589193726
 C          2.1238418435       -0.6108982716       -1.3070779058
 C          1.4284644700       -1.7595353852       -1.9561174330
 C          1.3531744325       -1.8576173286       -3.2895501811
 C          1.8771037314       -0.8763325263       -4.2178412411
 C          1.6838897907       -0.9632491557       -5.5627883558
 C          0.9009412697       -2.0784690032       -6.2121430042
 C          0.1710362250       -1.6194614557       -7.4708162842
 C          1.1188167221       -0.9549260803       -8.4459742589
 O          1.0336995125       -1.0993405030       -9.6490708567
 C          2.0814793108       -0.0750857510       -7.8077444482
 C          2.2903627131       -0.0253188235       -6.4726426649
 C          3.2150519729        1.0073414597       -5.9001791218
 C          2.6897244533        1.4675923168       -4.5475581590
 C          2.6642561713        0.2682618010       -3.6113972009
 C          3.5626757344       -1.0638903738       -1.0066073731
 O          2.1003558670       -0.5687780916        1.1673493315
 H         -0.4209023547        0.5863147539       -0.8180419536
 H         -0.3067615263       -1.0374831676       -0.1468706625
 H         -0.4298758239        0.3498457103        0.9325922981
 H          2.9169246475        1.4371557300        0.7200360635
 H          1.3458657913        2.1386619461        0.3343458241
 H          3.6727817580        1.7809279637       -1.4795045061
 H          2.2041551608        2.7092187129       -1.7736017954
 H          0.9773865289        0.7831099070       -2.4467744998
 H          1.0525057112       -2.5686954500       -1.3422578153
 H          0.8867546258       -2.7364851784       -3.7082124277
 H          1.6007739659       -2.8777032055       -6.4824720351
 H          0.1656541151       -2.4957256090       -5.5252226790
 H         -0.5903257456       -0.8790349986       -7.2061868209
 H         -0.3284442819       -2.4581305325       -7.9576544039
 H          2.6272018710        0.5871238362       -8.4656538654
 H          3.3124299271        1.8458412889       -6.5913103530
 H          4.2086257983        0.5665004599       -5.7681124309
 H          3.3289798976        2.2492908825       -4.1356418434
 H          1.6826179522        1.8750008753       -4.6639805466
 H          3.6983770296       -0.0645553555       -3.4625832487
 H          3.5499977851       -1.8206195065       -0.2272621755
 H          4.0372982239       -1.4844197253       -1.8891024613
 H          4.1453301019       -0.2373814914       -0.6214734159
 H          2.1050074825        0.1051474191        1.8563145871
  45
    -0.213312 !GC
 C          0.0000000000        0.0000000000        0.0000000000
 C          1.5345329799        0.0000000000        0.0000000000
 C          2.1044545122        1.4322421206        0.0000000000
 C          2.5877278247        1.7466810298       -1.4282993268
 C          2.0414426204        0.5885546912       -2.2587218060
 C          2.1246487429       -0.6121012848       -1.3061921822
 C          1.4280265819       -1.7602661649       -1.9545497172
 C          1.3512546594       -1.8586305612       -3.2878974343
 C          1.8734607833       -0.8775542197       -4.2175039087
 C          1.6755952779       -0.9640526209       -5.5619708581
 C          0.8898836410       -2.0799796490       -6.2072294806
 C          0.1407900061       -1.6206905464       -7.4543173222
 C          1.0722377963       -0.9485979672       -8.4399360148
 O          0.9675096299       -1.0831575006       -9.6427095230
 C          2.0439499333       -0.0727959423       -7.8098037969
 C          2.2680211552       -0.0275972311       -6.4769301391
 C          3.2011959217        1.0014544789       -5.9120063228
 C          2.6826327714        1.4707938360       -4.5599320904
 C          2.6640389166        0.2652733339       -3.6122624650
 C          3.5632851348       -1.0659737921       -1.0056059886
 O          2.1000692393       -0.5678426150        1.1678623530
 H         -0.4062347529       -1.0046162073       -0.1351915489
 H         -0.3563257210        0.3978847320        0.9497524533
 H         -0.3965999676        0.6224613642       -0.7963477290
 H          2.9166190174        1.4377183404        0.7211395062
 H          1.3461301912        2.1386520290        0.3324292595
 H          3.6752331859        1.7767701971       -1.4786667844
 H          2.2083096509        2.7070812958       -1.7742484931
 H          0.9781738692        0.7823571634       -2.4459153042
 H          1.0528583428       -2.5694328166       -1.3402275535
 H          0.8858494409       -2.7384477288       -3.7054517104
 H          1.5905670901       -2.8735778789       -6.4912144011
 H          0.1663776547       -2.5054660479       -5.5129724286
 H         -0.6206465869       -0.8850935494       -7.1767138722
 H         -0.3608057638       -2.4605146957       -7.9371428202
 H          2.5809138853        0.5931449373       -8.4712035791
 H          3.3022268031        1.8362449176       -6.6070471331
 H          4.1920932001        0.5543849875       -5.7806191653
 H          3.3256965108        2.2530588773       -4.1550818368
 H          1.6761389636        1.8802440190       -4.6746173372
 H          3.6973866937       -0.0703715520       -3.4640418872
 H          3.9739768224       -1.4585651729       -1.9330596386
 H          4.2024042906       -0.2438862886       -0.7027384772
 H          3.5869942311       -1.8746357423       -0.2854647618
 H          2.1042592412        0.1065005960        1.8564816950
  45
    -0.212556 !GC
 C          0.0000000000        0.0000000000        0.0000000000
 C          1.5319477188        0.0000000000        0.0000000000
 C          2.1020604164        1.4309222192        0.0000000000
 C          2.5997303602        1.7428926022       -1.4222145378
 C          2.0583290524        0.5894723223       -2.2631673457
 C          2.1223135771       -0.6161294871       -1.3142716926
 C          1.3926330451       -1.7360690659       -1.9783147516
 C          1.4104794912       -1.8596264499       -3.3113861366
 C          2.0965819135       -0.9528570178       -4.2060692540
 C          2.2113967256       -1.1786870569       -5.5436884559
 C          1.6284066935       -2.3753375921       -6.2521877333
 C          2.5782490587       -2.9147276144       -7.3171754068
 C          2.9618271858       -1.8341471766       -8.3057485449
 O          3.1483270438       -2.0610744267       -9.4848324644
 C          3.1450506946       -0.5235292334       -7.7076776099
 C          2.8746687086       -0.2337803227       -6.4136944226
 C          3.2717321632        1.1096640552       -5.8701873475
 C          2.5273077143        1.4453520660       -4.5883093417
 C          2.7089794111        0.2984062497       -3.6062537469
 C          3.5569443374       -1.0953073961       -1.0338922630
 O          1.9994126586       -0.5379081658        1.2184169069
 H         -0.3871976455       -1.0104766461       -0.1229907690
 H         -0.3669916738        0.3887172190        0.9499142078
 H         -0.3825899142        0.6204202866       -0.8019988609
 H          2.9012043056        1.4575308492        0.7368979463
 H          1.3363411103        2.1327744270        0.3214035877
 H          3.6887352792        1.7672564013       -1.4644495478
 H          2.2296410650        2.7067125631       -1.7679212976
 H          0.9976152298        0.7817641585       -2.4627291553
 H          0.8942667793       -2.4874899013       -1.3793010687
 H          0.8844824299       -2.6922818623       -3.7527857788
 H          1.3941092432       -3.1808418209       -5.5589496695
 H          0.6951251723       -2.0664082800       -6.7362993561
 H          2.1318340470       -3.7554240384       -7.8502177888
 H          3.5011637211       -3.2666346586       -6.8455542698
 H          3.5700991620        0.2326158997       -8.3534687538
 H          3.1055513432        1.8755424039       -6.6300111892
 H          4.3472853474        1.0868480013       -5.6625617128
 H          2.9142955398        2.3712475153       -4.1613800816
 H          1.4644185014        1.5833387680       -4.7992861190
 H          3.7852557990        0.1396867731       -3.4665978217
 H          4.1353020723       -0.2757881009       -0.6078910039
 H          3.6080915314       -1.9545619756       -0.3735663114
 H          4.0374927695       -1.3409695047       -1.9758309569
 H          2.8840631946       -0.8969165618        1.0854771200
  45
    -0.211723 !GC
 C          0.0000000000        0.0000000000        0.0000000000
 C          1.5345678017        0.0000000000        0.0000000000
 C          2.1038478657        1.4322142744        0.0000000000
 C          2.5766294259        1.7517112668       -1.4308299615
 C          2.0369145640        0.5895020390       -2.2602446511
 C          2.1260321093       -0.6101438144       -1.3069594434
 C          1.4333903774       -1.7611741153       -1.9544247796
 C          1.3613658320       -1.8624648007       -3.2878654367
 C          1.8839093015       -0.8819297293       -4.2178242569
 C          1.6962829540       -0.9746289939       -5.5633817225
 C          0.9287558509       -2.1008023278       -6.2125669272
 C          0.1751523701       -1.6489929674       -7.4596471019
 C          1.0993305515       -0.9641988207       -8.4432710041
 O          0.9961957333       -1.0964343133       -9.6464401385
 C          2.0624116787       -0.0805280497       -7.8107446979
 C          2.2838818959       -0.0339224582       -6.4775211699
 C          3.2065859365        1.0034509573       -5.9106028989
 C          2.6780254976        1.4720250646       -4.5620817620
 C          2.6641386268        0.2679115138       -3.6120017161
 C          3.5671796226       -1.0577807635       -1.0088329788
 O          2.0997825529       -0.5684048386        1.1677836666
 H         -0.3760094421        0.3698603020        0.9554449212
 H         -0.4010951579        0.6168680663       -0.7995444486
 H         -0.3820158644       -1.0113352670       -0.1352599409
 H          2.9215173538        1.4351802434        0.7148009793
 H          1.3483223179        2.1373534933        0.3411957595
 H          3.6635844434        1.7922729802       -1.4865597758
 H          2.1865489129        2.7087852567       -1.7743034451
 H          0.9729266433        0.7770081214       -2.4495063042
 H          1.0570489813       -2.5693204438       -1.3395391848
 H          0.8982675178       -2.7438304723       -3.7047581944
 H          1.6426500462       -2.8819451848       -6.4981317103
 H          0.2113408985       -2.5405850409       -5.5211344040
 H         -0.5956252282       -0.9233735649       -7.1816982584
 H         -0.3154405821       -2.4941848861       -7.9443517587
 H          2.5939361902        0.5908855432       -8.4708972265
 H          3.3047183785        1.8373431534       -6.6070633230
 H          4.2001908561        0.5641796219       -5.7733146591
 H          3.3132586955        2.2599850747       -4.1558415693
 H          1.6690470949        1.8736659653       -4.6822779836
 H          3.6993302713       -0.0604912570       -3.4602684077
 H          3.5438924064       -1.8268676692       -0.2444109606
 H          4.0208503233       -1.5058830054       -1.8869030247
 H          4.1768628643       -0.2334615342       -0.6540409621
 H          2.1042863144        0.1058343412        1.8565125981
  45
    -0.208628 !GC
 C          0.0000000000        0.0000000000        0.0000000000
 C          1.5319028038        0.0000000000        0.0000000000
 C          2.1018973979        1.4308698580        0.0000000000
 C          2.5940780548        1.7469932691       -1.4232862326
 C          2.0558962637        0.5916216461       -2.2637568916
 C          2.1222141345       -0.6144660420       -1.3155574808
 C          1.3943509707       -1.7357822353       -1.9793855886
 C          1.4158133021       -1.8612266018       -3.3122346337
 C          2.1013316689       -0.9535161231       -4.2063677753
 C          2.2177030921       -1.1802554338       -5.5439977340
 C          1.6428270973       -2.3838665938       -6.2479114488
 C          2.5864556718       -2.9119973416       -7.3238887411
 C          2.9456136503       -1.8265896477       -8.3158472567
 O          3.1175914667       -2.0488039369       -9.4980167497
 C          3.1259568449       -0.5162335170       -7.7164958074
 C          2.8699605902       -0.2311980683       -6.4183189493
 C          3.2664395944        1.1147007403       -5.8798524036
 C          2.5298702061        1.4530536686       -4.5943480925
 C          2.7082778208        0.3006806580       -3.6073996190
 C          3.5580686716       -1.0922566838       -1.0384433353
 O          1.9991459181       -0.5387499661        1.2181738887
 H         -0.3723266992        0.3920458555        0.9461729598
 H         -0.3832468923        0.6173806354       -0.8037864684
 H         -0.3822090585       -1.0123811731       -0.1235968742
 H          2.9040523420        1.4555361889        0.7336273248
 H          1.3373403127        2.1314276756        0.3266296347
 H          3.6828328069        1.7769314664       -1.4682778762
 H          2.2186539061        2.7091798828       -1.7678825672
 H          0.9949050681        0.7812411778       -2.4642266259
 H          0.8940152857       -2.4859502006       -1.3804428773
 H          0.8909080343       -2.6945197652       -3.7535863933
 H          1.4278846362       -3.1922624569       -5.5516938078
 H          0.6996305679       -2.0878952789       -6.7209590584
 H          2.1432199382       -3.7574239817       -7.8518259439
 H          3.5188125836       -3.2531372779       -6.8629900894
 H          3.5382613897        0.2444757966       -8.3651261408
 H          3.0933143645        1.8779245132       -6.6408184093
 H          4.3437170218        1.0955000996       -5.6801454788
 H          2.9204464368        2.3789015161       -4.1710665431
 H          1.4656549875        1.5916418971       -4.7986399313
 H          3.7851482946        0.1474512018       -3.4662582006
 H          3.5353744237       -1.9315324446       -0.3471396486
 H          4.0337875995       -1.4244208599       -1.9570068254
 H          4.1628325366       -0.3135354799       -0.5821977079
 H          2.8874172732       -0.8894320284        1.0877317036
  45
    -0.207893 !GC
 C          0.0000000000        0.0000000000        0.0000000000
 C          1.5345353771        0.0000000000        0.0000000000
 C          2.1031165770        1.4324953925        0.0000000000
 C          2.5742560694        1.7542362213       -1.4308755931
 C          2.0361402992        0.5913408551       -2.2604476617
 C          2.1252241299       -0.6089399448       -1.3078671956
 C          1.4338355563       -1.7604275514       -1.9560411759
 C          1.3633095771       -1.8614067053       -3.2895652862
 C          1.8875853770       -0.8806392831       -4.2181782885
 C          1.7046342726       -0.9737115290       -5.5641845628
 C          0.9399017223       -2.0991572231       -6.2174474191
 C          0.2055199751       -1.6473539996       -7.4761006871
 C          1.1461239505       -0.9699011353       -8.4492228141
 O          1.0627460425       -1.1117242638       -9.6527496422
 C          2.1000717017       -0.0823208230       -7.8084974685
 C          2.3062504514       -0.0313845435       -6.4730557032
 C          3.2203954326        1.0094764601       -5.8984945557
 C          2.6850720027        1.4687903839       -4.5494215197
 C          2.6643700397        0.2709407759       -3.6111557964
 C          3.5665616087       -1.0557001590       -1.0098465132
 O          2.1000692005       -0.5693402659        1.1672702644
 H         -0.3908732359       -1.0105908852       -0.1205807742
 H         -0.3525321919        0.3785535435        0.9580265349
 H         -0.4156343632        0.6337447816       -0.7814303433
 H          2.9218157314        1.4346238617        0.7136850802
 H          1.3480747429        2.1373582983        0.3431053833
 H          3.6611106164        1.7964239936       -1.4873648359
 H          2.1824022278        2.7109022471       -1.7736283412
 H          0.9721586702        0.7777807568       -2.4503807584
 H          1.0566956091       -2.5685812573       -1.3416425212
 H          0.8992020500       -2.7418169315       -3.7075957609
 H          1.6530485568       -2.8859790381       -6.4893396184
 H          0.2105921645       -2.5308831487       -5.5333351280
 H         -0.5652427886       -0.9168978030       -7.2111185564
 H         -0.2829485755       -2.4913538737       -7.9648405895
 H          2.6404084724        0.5854886755       -8.4650831607
 H          3.3148828277        1.8471258380       -6.5909840553
 H          4.2166101306        0.5764213177       -5.7605168968
 H          3.3164600849        2.2561175452       -4.1360206917
 H          1.6755180368        1.8684116761       -4.6713684018
 H          3.7003115885       -0.0546317648       -3.4588236361
 H          4.1745742846       -0.2252518741       -0.6718010816
 H          3.5607245768       -1.8164571023       -0.2328542605
 H          4.0227596322       -1.4708725995       -1.9011580707
 H          2.1050346205        0.1044809907        1.8563449987
  45
    -0.207879 !GC
 C          0.0000000000        0.0000000000        0.0000000000
 C          1.5318836266        0.0000000000        0.0000000000
 C          2.1019338418        1.4309568903        0.0000000000
 C          2.5960766850        1.7451755861       -1.4228463724
 C          2.0561316903        0.5906988598       -2.2633736848
 C          2.1216828452       -0.6153789506       -1.3152436583
 C          1.3930735451       -1.7363459687       -1.9788048929
 C          1.4124559814       -1.8610484843       -3.3118035750
 C          2.0976444650       -0.9533709148       -4.2061772179
 C          2.2115691182       -1.1798233469       -5.5441950430
 C          1.6284751910       -2.3810275870       -6.2455458444
 C          2.5746397412       -2.9307892882       -7.3085310524
 C          2.9523026111       -1.8614580337       -8.3110132876
 O          3.1328847735       -2.1002615693       -9.4887415046
 C          3.1365157428       -0.5451100814       -7.7264882176
 C          2.8757825132       -0.2435678721       -6.4330021204
 C          3.2779847812        1.1063992446       -5.9088524043
 C          2.5502852000        1.4597277111       -4.6223758321
 C          2.7069752324        0.2996085685       -3.6074307244
 C          3.5570645743       -1.0945364819       -1.0381718787
 O          1.9992746631       -0.5382488856        1.2182561929
 H         -0.4024280824       -1.0067853083       -0.1156463105
 H         -0.3384976722        0.3970170543        0.9530960789
 H         -0.3966626740        0.6161189598       -0.8006602288
 H          2.9031058961        1.4564661966        0.7346695558
 H          1.3369677229        2.1320559173        0.3244302203
 H          3.6849356339        1.7727894924       -1.4670467246
 H          2.2228583467        2.7079683563       -1.7680033701
 H          0.9951306725        0.7815771909       -2.4627358860
 H          0.8933547177       -2.4866938755       -1.3795881680
 H          0.8869025950       -2.6939367594       -3.7532778641
 H          1.3937473519       -3.1807664347       -5.5457410662
 H          0.6948188291       -2.0741396762       -6.7306239716
 H          2.1274029687       -3.7781802502       -7.8300717537
 H          3.5000815181       -3.2754061060       -6.8365028140
 H          3.5557159633        0.2059144683       -8.3819398537
 H          3.1025327876        1.8626052951       -6.6763192948
 H          4.3564216962        1.0864185702       -5.7155923437
 H          2.9469611392        2.3877873898       -4.2096483541
 H          1.4854627015        1.6008380246       -4.8219254812
 H          3.7840453234        0.1460159589       -3.4681011690
 H          4.1020296385       -0.2712443341       -0.5800476425
 H          3.5540696201       -1.9014462954       -0.3077685984
 H          4.0992716336       -1.3824770225       -1.9309624673
 H          2.8876531247       -0.8886483814        1.0876946236
  45
    -0.207601 !GC
 C          0.0000000000        0.0000000000        0.0000000000
 C          1.5345623765        0.0000000000        0.0000000000
 C          2.1042782981        1.4322139385        0.0000000000
 C          2.5842631176        1.7496941358       -1.4286660119
 C          2.0408904740        0.5901687684       -2.2592457950
 C          2.1248564681       -0.6106953293       -1.3069153197
 C          1.4291961742       -1.7590574107       -1.9559615087
 C          1.3572466050       -1.8587370686       -3.2895374937
 C          1.8833949089       -0.8790779793       -4.2183014949
 C          1.6961062190       -0.9698779655       -5.5639975795
 C          0.9246282713       -2.0921434320       -6.2151371411
 C          0.1776813302       -1.6363815786       -7.4648290970
 C          1.1089131528       -0.9561435123       -8.4450275891
 O          1.0107466322       -1.0895954495       -9.6485182465
 C          2.0731250226       -0.0760035867       -7.8092857568
 C          2.2906074968       -0.0305168993       -6.4752871046
 C          3.2153180537        1.0031997248       -5.9050032730
 C          2.6869063203        1.4702587447       -4.5558521164
 C          2.6674414930        0.2674448109       -3.6111713871
 C          3.5639722291       -1.0637826108       -1.0076350631
 O          2.0999207637       -0.5688944307        1.1675499285
 H         -0.3914228688       -1.0111210335       -0.1136622184
 H         -0.3522378217        0.3853427018        0.9553851674
 H         -0.4154416690        0.6285230370       -0.7857446492
 H          2.9179539058        1.4368169371        0.7193081803
 H          1.3469819996        2.1382865299        0.3353771727
 H          3.6716873059        1.7836717685       -1.4800541408
 H          2.2010144599        2.7091294926       -1.7734428373
 H          0.9776659319        0.7819354083       -2.4487367134
 H          1.0493100191       -2.5663187233       -1.3420684092
 H          0.8905184317       -2.7377238904       -3.7075218428
 H          1.6351415034       -2.8775223457       -6.4974414274
 H          0.2024306722       -2.5272854528       -5.5258162113
 H         -0.5904287925       -0.9067174118       -7.1897125828
 H         -0.3153907861       -2.4791617976       -7.9512762434
 H          2.6100597112        0.5927171779       -8.4677627178
 H          3.3159150289        1.8384339734       -6.5994757762
 H          4.2077725915        0.5613193484       -5.7679119217
 H          3.3245443012        2.2547710400       -4.1467381784
 H          1.6795724931        1.8760054237       -4.6760824083
 H          3.7014309905       -0.0646825926       -3.4594295068
 H          4.0333522701       -1.4422864339       -1.9104133834
 H          4.1366019386       -0.1958654421       -0.6927751764
 H          3.6138333478       -1.8096075542       -0.2243826868
 H          2.1048408618        0.1050687305        1.8564692518
  45
    -0.205336 !GC
 C          0.0000000000        0.0000000000        0.0000000000
 C          1.5346737808        0.0000000000        0.0000000000
 C          2.1044087539        1.4323463501        0.0000000000
 C          2.5923333189        1.7457290956       -1.4267389147
 C          2.0455485133        0.5888144608       -2.2583109373
 C          2.1243964355       -0.6125235667       -1.3060123736
 C          1.4263141612       -1.7589201320       -1.9562490915
 C          1.3549680854       -1.8576327465       -3.2899114379
 C          1.8862460027       -0.8790356592       -4.2168676491
 C          1.7013003696       -0.9680192156       -5.5628357410
 C          0.9243803796       -2.0853132635       -6.2157736013
 C          0.1973514708       -1.6274590337       -7.4764824722
 C          1.1486590406       -0.9638816577       -8.4490221130
 O          1.0689805929       -1.1105862261       -9.6522660876
 C          2.1068829136       -0.0809335585       -7.8080996105
 C          2.3105784144       -0.0296079346       -6.4722177750
 C          3.2313992786        1.0049172093       -5.8968603879
 C          2.7002084280        1.4654769171       -4.5464496636
 C          2.6717330030        0.2654049265       -3.6080725641
 C          3.5612778398       -1.0699996464       -1.0038454163
 O          2.1008853214       -0.5677645470        1.1676621494
 H         -0.3726454770        0.4177884256        0.9389155243
 H         -0.3411068393        0.6537124943       -0.8039133216
 H         -0.4448460072       -0.9808811675       -0.1210375040
 H          2.9142415175        1.4390017340        0.7236706716
 H          1.3449540182        2.1392529647        0.3289597679
 H          3.6799921407        1.7728604529       -1.4740139053
 H          2.2163185658        2.7071400046       -1.7734887126
 H          0.9830103634        0.7846098051       -2.4477248022
 H          1.0434468177       -2.5651340642       -1.3428532045
 H          0.8852451376       -2.7340819841       -3.7097836304
 H          1.6280500126       -2.8812569041       -6.4852479135
 H          0.1885418648       -2.5065333001       -5.5320883074
 H         -0.5647613969       -0.8868514313       -7.2141330295
 H         -0.3005496651       -2.4666114957       -7.9643379009
 H          2.6531421848        0.5824031875       -8.4644659221
 H          3.3305009000        1.8426418841       -6.5886936277
 H          4.2249372358        0.5655083949       -5.7602506483
 H          3.3372135317        2.2476805061       -4.1320132507
 H          1.6933226108        1.8720279751       -4.6670636155
 H          3.7053660821       -0.0677582876       -3.4568834136
 H          3.5283947187       -1.8532708753       -0.2539315497
 H          4.0215236202       -1.5026700006       -1.8864552633
 H          4.1699869828       -0.2539214624       -0.6284386617
 H          2.1048365801        0.1063585363        1.8567426958
  45
    -0.204391 !GC
 C          0.0000000000        0.0000000000        0.0000000000
 C          1.5344905883        0.0000000000        0.0000000000
 C          2.1043847165        1.4321623192        0.0000000000
 C          2.5866883375        1.7469459099       -1.4285598594
 C          2.0422470328        0.5882193957       -2.2593485461
 C          2.1245345363       -0.6122220216       -1.3062692080
 C          1.4266662031       -1.7593347154       -1.9551755163
 C          1.3552619090       -1.8595163370       -3.2887667608
 C          1.8852525943       -0.8820329994       -4.2175824286
 C          1.7024195297       -0.9756565783       -5.5638193332
 C          0.9287333887       -2.0984416141       -6.2119107531
 C          0.1977137672       -1.6520525036       -7.4742256427
 C          1.1432937176       -0.9863993532       -8.4506718961
 O          1.0609281402       -1.1346839906       -9.6535206711
 C          2.0990821815       -0.0989713347       -7.8125156875
 C          2.3024138856       -0.0421719962       -6.4767362205
 C          3.2212837986        0.9971920680       -5.9069189834
 C          2.6879129133        1.4671429963       -4.5608866822
 C          2.6693060318        0.2643397172       -3.6105800423
 C          3.5628626180       -1.0670101936       -1.0057878645
 O          2.1002098940       -0.5678674556        1.1678567983
 H         -0.4205991957        0.6238431489       -0.7864381756
 H         -0.3866520403       -1.0131089821       -0.1142066094
 H         -0.3514938790        0.3857593292        0.9556101952
 H          2.9170263114        1.4374040466        0.7205796212
 H          1.3462796611        2.1384227452        0.3332624616
 H          3.6741277785        1.7787715704       -1.4790648516
 H          2.2057333362        2.7067233304       -1.7745160763
 H          0.9793278625        0.7813164361       -2.4491859440
 H          1.0454134211       -2.5658285489       -1.3411447122
 H          0.8886049648       -2.7384704680       -3.7066931451
 H          1.6353711460       -2.8929060236       -6.4782020801
 H          0.1955284587       -2.5197195255       -5.5253194956
 H         -0.5694681645       -0.9158249290       -7.2147646563
 H         -0.2943685463       -2.4973961590       -7.9572148109
 H          2.6420080594        0.5654465937       -8.4705802589
 H          3.3213023477        1.8301791577       -6.6042770388
 H          4.2148964076        0.5591882760       -5.7656500126
 H          3.3228696046        2.2542972769       -4.1527662779
 H          1.6799494261        1.8700754501       -4.6850783825
 H          3.7032527889       -0.0675900341       -3.4581370342
 H          3.5335051627       -1.8425509413       -0.2477496078
 H          4.0191228425       -1.5090825140       -1.8857316157
 H          4.1735226523       -0.2473524873       -0.6415103079
 H          2.1053777765        0.1065423907        1.8563468371
  45
    -0.203692 !GC
 C          0.0000000000        0.0000000000        0.0000000000
 C          1.5317035882        0.0000000000        0.0000000000
 C          2.1002532955        1.4315967696        0.0000000000
 C          2.5999937558        1.7456986290       -1.4206523023
 C          2.0614587536        0.5921255328       -2.2633461287
 C          2.1212134415       -0.6148971542       -1.3156653105
 C          1.3898685519       -1.7329650571       -1.9818312318
 C          1.4176350426       -1.8592700933       -3.3144433898
 C          2.1130078441       -0.9554357692       -4.2050397192
 C          2.2375761892       -1.1834804703       -5.5416253889
 C          1.6630313584       -2.3835892439       -6.2512242689
 C          2.6200906992       -2.9212643854       -7.3105181696
 C          3.0015107038       -1.8407526750       -8.2998965947
 O          3.1914980331       -2.0685848790       -9.4781652026
 C          3.1783931826       -0.5287749859       -7.7032844978
 C          2.9027243844       -0.2373672991       -6.4106840825
 C          3.2920206183        1.1103248576       -5.8713772417
 C          2.5443179482        1.4494865409       -4.5923868837
 C          2.7192110263        0.2981734196       -3.6042636637
 C          3.5551274803       -1.0996365165       -1.0396607422
 O          1.9988004799       -0.5376678955        1.2190304247
 H         -0.4175919653        0.4051888164        0.9147932474
 H         -0.3410713853        0.6120341967       -0.8373710567
 H         -0.3776485829       -1.0087879667       -0.1412903238
 H          2.8983171165        1.4592881258        0.7377313671
 H          1.3333163652        2.1320920164        0.3205865303
 H          3.6890532845        1.7721741772       -1.4603328636
 H          2.2293866534        2.7091956771       -1.7666681697
 H          1.0017037043        0.7847245459       -2.4677838608
 H          0.8790529831       -2.4775059887       -1.3849009963
 H          0.8896681448       -2.6890920628       -3.7587475911
 H          1.4282240144       -3.1885404746       -5.5576632213
 H          0.7310243559       -2.0792908661       -6.7404431821
 H          2.1804341203       -3.7655934480       -7.8433519215
 H          3.5429204294       -3.2667114099       -6.8340679901
 H          3.6033165502        0.2277142436       -8.3487838590
 H          3.1240215082        1.8717131120       -6.6352807711
 H          4.3675086628        1.0935184978       -5.6626293919
 H          2.9310222975        2.3755589381       -4.1660099631
 H          1.4819326888        1.5879681040       -4.8061356948
 H          3.7949914152        0.1436039512       -3.4567741044
 H          3.5252620107       -1.9296610609       -0.3377526600
 H          4.0410257899       -1.4506869370       -1.9474870759
 H          4.1558636653       -0.3114299935       -0.5982510109
 H          2.8946858508       -0.8702686841        1.0936131382
  45
    -0.201189 !GC
 C          0.0000000000        0.0000000000        0.0000000000
 C          1.5319096167        0.0000000000        0.0000000000
 C          2.1028054984        1.4307213207        0.0000000000
 C          2.6009691619        1.7444695462       -1.4215538021
 C          2.0583947282        0.5918037621       -2.2626251654
 C          2.1214211482       -0.6152503974       -1.3156279903
 C          1.3906576762       -1.7346085338       -1.9799998805
 C          1.4020700985       -1.8541751926       -3.3134848135
 C          2.0804333354       -0.9420305740       -4.2089968250
 C          2.1703538650       -1.1530572349       -5.5509096693
 C          1.5633176774       -2.3358600429       -6.2624243797
 C          2.4730744407       -2.8469399264       -7.3754706352
 C          2.8193178659       -1.7412500940       -8.3497354709
 O          2.9532824287       -1.9356321046       -9.5417210968
 C          3.0385191948       -0.4492957336       -7.7237924336
 C          2.8160941212       -0.1910724746       -6.4141205700
 C          3.2459581276        1.1334966529       -5.8499497025
 C          2.5182698065        1.4605325768       -4.5560933136
 C          2.7061508079        0.2997993349       -3.6037094778
 C          3.5558637824       -1.0978334298       -1.0394108370
 O          1.9985196016       -0.5385226364        1.2185142600
 H         -0.3736649572       -1.0144009419       -0.1147103456
 H         -0.3520566753        0.3940421554        0.9513070559
 H         -0.4110811892        0.6121818598       -0.7985161113
 H          2.9018490756        1.4567435912        0.7369107542
 H          1.3371856345        2.1323224537        0.3218984848
 H          3.6899913770        1.7689437732       -1.4634830359
 H          2.2313070644        2.7084951392       -1.7672300954
 H          0.9977179945        0.7858217139       -2.4609117246
 H          0.8952368273       -2.4877237218       -1.3807041143
 H          0.8738231777       -2.6853424101       -3.7552096724
 H          1.3608029251       -3.1571489131       -5.5778416018
 H          0.6100640004       -2.0212099752       -6.7018429506
 H          2.0070816596       -3.6743372585       -7.9124495867
 H          3.4132368661       -3.2091679478       -6.9479579733
 H          3.4494095182        0.3190958103       -8.3641323197
 H          3.0898557885        1.9164967325       -6.5942030267
 H          4.3225428402        1.0843977698       -5.6518806307
 H          2.9251127199        2.3715905239       -4.1161772192
 H          1.4562099774        1.6210989449       -4.7555160638
 H          3.7805501399        0.1300113606       -3.4632233119
 H          4.1686680507       -0.3223963406       -0.5896532397
 H          3.5244850028       -1.9326851229       -0.3437322540
 H          4.0285859615       -1.4420903075       -1.9550916016
 H          2.8867825508       -0.8891668516        1.0878322044
  45
    -0.198679 !GC
 C          0.0000000000        0.0000000000        0.0000000000
 C          1.5344948779        0.0000000000        0.0000000000
 C          2.1044845651        1.4322642900        0.0000000000
 C          2.5888238085        1.7471506853       -1.4277214710
 C          2.0425820032        0.5895280935       -2.2589109330
 C          2.1239709710       -0.6116605414       -1.3066047567
 C          1.4261171511       -1.7586241380       -1.9559000009
 C          1.3551349507       -1.8585507823       -3.2895318945
 C          1.8854795747       -0.8808096773       -4.2177425693
 C          1.7041652269       -0.9746988173       -5.5640288056
 C          0.9339378253       -2.0988328736       -6.2136709945
 C          0.2097144502       -1.6538746114       -7.4804915264
 C          1.1605541318       -0.9881446118       -8.4518941921
 O          1.0866532085       -1.1392510924       -9.6549430084
 C          2.1107211962       -0.0978180798       -7.8093047815
 C          2.3073319736       -0.0403351506       -6.4725067725
 C          3.2205845121        1.0016412957       -5.8982373899
 C          2.6846760801        1.4644111290       -4.5506871463
 C          2.6680300064        0.2665794435       -3.6106608838
 C          3.5619165041       -1.0674731733       -1.0060882718
 O          2.1002734949       -0.5685135614        1.1675174963
 H         -0.4353764573        0.4028097693        0.9112203711
 H         -0.3374107650        0.6250941698       -0.8301125700
 H         -0.3855900418       -1.0041706703       -0.1628221624
 H          2.9158364990        1.4379160380        0.7220044276
 H          1.3458272279        2.1387243664        0.3315650003
 H          3.6763938041        1.7763606527       -1.4770334213
 H          2.2104576214        2.7080082584       -1.7735962362
 H          0.9796909927        0.7838333434       -2.4477456355
 H          1.0430819717       -2.5643942173       -1.3419530877
 H          0.8866854583       -2.7364194409       -3.7079676809
 H          1.6419974325       -2.8937509547       -6.4747568105
 H          0.1970594284       -2.5188036759       -5.5303121370
 H         -0.5595953100       -0.9180710730       -7.2260678176
 H         -0.2788205593       -2.5001658421       -7.9655824879
 H          2.6559345048        0.5671861650       -8.4649047415
 H          3.3163969285        1.8377655275       -6.5925002143
 H          4.2164673993        0.5683705858       -5.7585319554
 H          3.3175591096        2.2510049528       -4.1383076585
 H          1.6760518402        1.8658820749       -4.6743060862
 H          3.7028675852       -0.0633608688       -3.4600012850
 H          3.5317704839       -1.8460513645       -0.2512024450
 H          4.0198036626       -1.5057564881       -1.8870784360
 H          4.1716081911       -0.2490890068       -0.6373968136
 H          2.1092354779        0.1065802124        1.8551223876
  45
    -0.197737 !GC
 C          0.0000000000        0.0000000000        0.0000000000
 C          1.5318036375        0.0000000000        0.0000000000
 C          2.1033359046        1.4306759056        0.0000000000
 C          2.6094495916        1.7407524295       -1.4194702277
 C          2.0624383236        0.5912967243       -2.2616726986
 C          2.1198915454       -0.6167228942       -1.3154386464
 C          1.3855833939       -1.7330766476       -1.9811209752
 C          1.3939218288       -1.8499845648       -3.3148056268
 C          2.0729576168       -0.9378815311       -4.2099733546
 C          2.1541008722       -1.1428499522       -5.5532201956
 C          1.5332594885       -2.3158518837       -6.2688655666
 C          2.4289424394       -2.8189255462       -7.3969119753
 C          2.7723893471       -1.7028799917       -8.3604528321
 O          2.8930150449       -1.8828982577       -9.5561020693
 C          3.0077829470       -0.4205555235       -7.7206072588
 C          2.7975245781       -0.1765657777       -6.4062453904
 C          3.2413210037        1.1372837486       -5.8284737371
 C          2.5151934276        1.4565612111       -4.5317123087
 C          2.7082446269        0.2975606342       -3.6017087451
 C          3.5516804896       -1.1054493019       -1.0370474132
 O          1.9984619330       -0.5383446715        1.2185767348
 H         -0.4180900397        0.4051103997        0.9144972610
 H         -0.3370419118        0.6157392437       -0.8364968564
 H         -0.3810142645       -1.0074315347       -0.1405667397
 H          2.8981315588        1.4584096848        0.7414975207
 H          1.3358664836        2.1333206321        0.3154132805
 H          3.6987316224        1.7577344744       -1.4571117139
 H          2.2476062200        2.7070983773       -1.7668299329
 H          1.0026158073        0.7905854404       -2.4595026299
 H          0.8896454007       -2.4863520120       -1.3823866014
 H          0.8617313860       -2.6782327703       -3.7572964157
 H          1.3353247249       -3.1433628199       -5.5905162094
 H          0.5765412227       -1.9930752958       -6.6945253868
 H          1.9523011985       -3.6365878212       -7.9394786513
 H          3.3710357380       -3.1923065055       -6.9833581135
 H          3.4213988412        0.3517806777       -8.3545486095
 H          3.0939434513        1.9299622412       -6.5642048524
 H          4.3170183369        1.0746754165       -5.6297165773
 H          2.9286601754        2.3599792778       -4.0824536533
 H          1.4545767499        1.6272197732       -4.7304026736
 H          3.7811189199        0.1187185073       -3.4611134472
 H          3.5370117435       -1.9460597464       -0.3450884938
 H          4.0298058341       -1.4432386494       -1.9522080212
 H          4.1459454416       -0.3197355465       -0.5833246436
 H          2.8865053047       -0.8894090723        1.0880125432
  45
    -0.191620 !GC
 C          0.0000000000        0.0000000000        0.0000000000
 C          1.5345165784        0.0000000000        0.0000000000
 C          2.1048166808        1.4320096680        0.0000000000
 C          2.5854199661        1.7489796499       -1.4286120520
 C          2.0416602406        0.5900077660       -2.2596327666
 C          2.1242548128       -0.6108587501       -1.3069993864
 C          1.4273582647       -1.7583494917       -1.9563140136
 C          1.3573937230       -1.8585177942       -3.2899958705
 C          1.8888099245       -0.8809759271       -4.2178883339
 C          1.7110849482       -0.9754127414       -5.5646069056
 C          0.9424451546       -2.0987418305       -6.2174170934
 C          0.2296630890       -1.6548351786       -7.4909040767
 C          1.1906023737       -0.9938921407       -8.4556197637
 O          1.1278422984       -1.1501307058       -9.6587472105
 C          2.1356049546       -0.1015263287       -7.8082310459
 C          2.3222653666       -0.0404309969       -6.4702420231
 C          3.2305658907        1.0035357697       -5.8918603913
 C          2.6882421292        1.4643131039       -4.5462689177
 C          2.6693143311        0.2673500353       -3.6099459262
 C          3.5626017400       -1.0655157182       -1.0067197630
 O          2.1004941330       -0.5688990625        1.1672102932
 H         -0.3871428544       -1.0104964608       -0.1256051523
 H         -0.3716993897        0.3751048782        0.9552712449
 H         -0.4004383099        0.6125157168       -0.8034219823
 H          2.9183884926        1.4364170320        0.7195799216
 H          1.3473118978        2.1380531051        0.3350404284
 H          3.6728037137        1.7819101753       -1.4798206000
 H          2.2032374828        2.7085917468       -1.7737578815
 H          0.9787334763        0.7824684019       -2.4498657422
 H          1.0437106412       -2.5639429526       -1.3424850224
 H          0.8894993457       -2.7365250699       -3.7085952484
 H          1.6494439338       -2.8966169216       -6.4713298486
 H          0.1991076628       -2.5147775256       -5.5386805922
 H         -0.5398286659       -0.9164276225       -7.2446614702
 H         -0.2570540723       -2.5008216327       -7.9782260171
 H          2.6856180760        0.5617221120       -8.4616431862
 H          3.3272496603        1.8400469214       -6.5854745647
 H          4.2268699002        0.5726282333       -5.7482848698
 H          3.3181487941        2.2514819148       -4.1304150823
 H          1.6795698968        1.8643305270       -4.6738373980
 H          3.7042030871       -0.0613567631       -3.4573597359
 H          4.0347952963       -1.4364284196       -1.9113949679
 H          4.1336787504       -0.1996953728       -0.6830509720
 H          3.6103479371       -1.8177693106       -0.2293012880
 H          2.1063458490        0.1049624028        1.8561384195
  45
    -0.190759 !GC
 C          0.0000000000        0.0000000000        0.0000000000
 C          1.5318708839        0.0000000000        0.0000000000
 C          2.1032963480        1.4307006340        0.0000000000
 C          2.6087801441        1.7417890010       -1.4195800853
 C          2.0605030596        0.5925935239       -2.2612869962
 C          2.1206839790       -0.6156178661       -1.3155725161
 C          1.3880913323       -1.7335806742       -1.9804784349
 C          1.3877493964       -1.8470341477       -3.3143739527
 C          2.0547140933       -0.9282888802       -4.2120545968
 C          2.1135118921       -1.1206470784       -5.5579850376
 C          1.4765823678       -2.2819619005       -6.2779476385
 C          2.3404912819       -2.7496792339       -7.4454184353
 C          2.6535550289       -1.6039606760       -8.3842690576
 O          2.7325542115       -1.7465233924       -9.5885901637
 C          2.9115694142       -0.3415473762       -7.7138726905
 C          2.7347847474       -0.1348811600       -6.3883695303
 C          3.1970486508        1.1589748850       -5.7811716111
 C          2.4755912396        1.4531707041       -4.4756254787
 C          2.7007205579        0.3004909010       -3.6011142880
 C          3.5534633255       -1.1013387914       -1.0370878739
 O          1.9988592196       -0.5386665525        1.2182915085
 H         -0.3737091300       -1.0145360822       -0.1138511424
 H         -0.3521246635        0.3948464106        0.9511506198
 H         -0.4110144612        0.6118064199       -0.7990248978
 H          2.8984273183        1.4585140682        0.7410438824
 H          1.3358399692        2.1328723386        0.3160159746
 H          3.6980103561        1.7586903545       -1.4577309549
 H          2.2467459324        2.7082173978       -1.7664709069
 H          1.0000106094        0.7916699080       -2.4559089572
 H          0.9014960294       -2.4917135919       -1.3800725397
 H          0.8595539086       -2.6787490871       -3.7553161116
 H          1.3085681060       -3.1264768810       -5.6125225652
 H          0.5038782475       -1.9582555209       -6.6645178041
 H          1.8504725944       -3.5528779026       -7.9975844859
 H          3.2953154059       -3.1316463016       -7.0707355332
 H          3.3116603907        0.4473565616       -8.3360367689
 H          3.0575854649        1.9715073201       -6.4964527696
 H          4.2720417458        1.0781893391       -5.5853971787
 H          2.8944929541        2.3442729842       -4.0071767443
 H          1.4156052757        1.6340328996       -4.6687745932
 H          3.7726873058        0.1133919299       -3.4641335030
 H          4.1027653934       -0.2802031083       -0.5800257150
 H          3.5455888877       -1.9070265387       -0.3053824112
 H          4.0941701779       -1.3941579867       -1.9292728241
 H          2.8876436737       -0.8880251923        1.0879806391
  45
    -0.189840 !GC
 C          0.0000000000        0.0000000000        0.0000000000
 C          1.5318617999        0.0000000000        0.0000000000
 C          2.1035784994        1.4304787098        0.0000000000
 C          2.6106225534        1.7409507165       -1.4191440253
 C          2.0615152637        0.5923689728       -2.2610232110
 C          2.1206465411       -0.6159496680       -1.3153248501
 C          1.3866784223       -1.7328666341       -1.9804400172
 C          1.3876418826       -1.8469127229       -3.3143229348
 C          2.0568769045       -0.9296469884       -4.2118360570
 C          2.1181488001       -1.1234158991       -5.5576032919
 C          1.4824397835       -2.2857550688       -6.2772416977
 C          2.3494107926       -2.7578911786       -7.4405653996
 C          2.6655443947       -1.6160412208       -8.3828787611
 O          2.7479922431       -1.7631646747       -9.5863350917
 C          2.9221019830       -0.3510514403       -7.7166920606
 C          2.7429569819       -0.1393515428       -6.3923694897
 C          3.2038354469        1.1572072386       -5.7898079613
 C          2.4824549679        1.4551646421       -4.4850864551
 C          2.7017529461        0.2998650976       -3.6012146685
 C          3.5528010417       -1.1032084798       -1.0364078083
 O          1.9988447726       -0.5383776924        1.2184864310
 H         -0.3708755288        0.3990900382        0.9437373907
 H         -0.3839743334        0.6116566425       -0.8078450095
 H         -0.3823192278       -1.0133496933       -0.1151435247
 H          2.8977286179        1.4586993319        0.7420205872
 H          1.3357913101        2.1326869914        0.3147357695
 H          3.6998226901        1.7564405805       -1.4568906125
 H          2.2500033666        2.7077788473       -1.7663345612
 H          1.0012729078        0.7925697691       -2.4559429952
 H          0.8988686388       -2.4904357899       -1.3802493657
 H          0.8582094863       -2.6778026441       -3.7552623458
 H          1.3112969730       -3.1284406187       -5.6102891611
 H          0.5112904810       -1.9622476506       -6.6680191718
 H          1.8602647468       -3.5628354983       -7.9909115385
 H          3.3028242666       -3.1392711011       -7.0616796728
 H          3.3222704889        0.4356531234       -8.3415013632
 H          3.0637477190        1.9668959317       -6.5081557778
 H          4.2789145652        1.0782233238       -5.5939098907
 H          2.9010976525        2.3479070415       -4.0195237260
 H          1.4224169362        1.6349645707       -4.6787589070
 H          3.7738636553        0.1136847683       -3.4643806904
 H          3.5378541648       -1.9476704704       -0.3488611576
 H          4.0334474260       -1.4352813436       -1.9524951018
 H          4.1445577419       -0.3185888159       -0.5771937977
 H          2.8864878896       -0.8899656976        1.0873844214
  45
    -0.188408 !GC
 C          0.0000000000        0.0000000000        0.0000000000
 C          1.5347649986        0.0000000000        0.0000000000
 C          2.0882199342        1.4458270827        0.0000000000
 C          2.5240674053        1.7804826682       -1.4390258143
 C          2.0367250963        0.5939190708       -2.2688706037
 C          2.1340653965       -0.5975867628       -1.3049939292
 C          1.4396685738       -1.7474714614       -1.9519676520
 C          1.4951639206       -1.9006092721       -3.2810895850
 C          2.1762146895       -0.9922055615       -4.1785121123
 C          2.3327153637       -1.2437798893       -5.5081783276
 C          1.8098646610       -2.4791909333       -6.1980564130
 C          2.7904568885       -2.9977298115       -7.2453513714
 C          3.1312070929       -1.9209545224       -8.2532539213
 O          3.3205295728       -2.1598855591       -9.4300446193
 C          3.2667775124       -0.5962672227       -7.6763819844
 C          2.9779276918       -0.2938204658       -6.3886016159
 C          3.3280012998        1.0727452712       -5.8701155700
 C          2.5483884039        1.4219237234       -4.6130668963
 C          2.7311173158        0.2922913386       -3.5935785622
 C          3.5804581044       -1.0324337099       -1.0195072410
 O          2.0983717204       -0.6641046299        1.1199094926
 H         -0.4053664612       -1.0136937952       -0.0206030541
 H         -0.3525982100        0.4725179190        0.9153245577
 H         -0.4039004004        0.5531846225       -0.8438699464
 H          2.9324284968        1.4639003185        0.6856041204
 H          1.3342708544        2.1443889765        0.3620626861
 H          3.6075852864        1.8715555482       -1.5062632408
 H          2.0866543648        2.7180890625       -1.7800835792
 H          0.9748746405        0.7445499989       -2.4973380228
 H          0.9497534411       -2.4891786563       -1.3378554890
 H          1.0011146519       -2.7550884451       -3.7175743143
 H          1.6070871943       -3.2796461244       -5.4892509966
 H          0.8669200967       -2.2229012416       -6.6943498166
 H          2.3859362315       -3.8686544470       -7.7631871598
 H          3.7249477026       -3.2968599648       -6.7605650011
 H          3.6710667984        0.1631548424       -8.3316664082
 H          3.1587703321        1.8148323645       -6.6527440498
 H          4.3994971583        1.0830459590       -5.6408857720
 H          2.9030953664        2.3675384700       -4.2017630063
 H          1.4869577487        1.5274728517       -4.8494298362
 H          3.8059009081        0.1713847757       -3.4133256599
 H          4.0219648749       -1.5447324146       -1.8689148304
 H          4.1942732428       -0.1870077489       -0.7288058034
 H          3.5479034538       -1.7450571959       -0.2036070030
 H          3.0526349104       -0.6936124999        0.9913288525
  45
    -0.187149 !GC
 C          0.0000000000        0.0000000000        0.0000000000
 C          1.5344779717        0.0000000000        0.0000000000
 C          2.1047968395        1.4320567874        0.0000000000
 C          2.5871428275        1.7476482772       -1.4281604923
 C          2.0435987650        0.5888160400       -2.2595795070
 C          2.1244483249       -0.6118909465       -1.3063810193
 C          1.4268359394       -1.7586645444       -1.9564629662
 C          1.3650329815       -1.8615555324       -3.2903612408
 C          1.9045522927       -0.8865002340       -4.2160596725
 C          1.7417256759       -0.9869567755       -5.5641737355
 C          0.9919944744       -2.1217006664       -6.2191322260
 C          0.2817058906       -1.6890507522       -7.4981171692
 C          1.2395114763       -1.0192842539       -8.4598420870
 O          1.1833453020       -1.1772171581       -9.6630725483
 C          2.1716806747       -0.1157975321       -7.8094455429
 C          2.3502605558       -0.0500133526       -6.4705657786
 C          3.2439043507        1.0052765632       -5.8894382473
 C          2.6911737440        1.4620891100       -4.5465745737
 C          2.6749968648        0.2670588294       -3.6053910219
 C          3.5623581353       -1.0675132776       -1.0054298779
 O          2.1002911222       -0.5685030377        1.1675567042
 H         -0.3868829429       -1.0110907808       -0.1221873736
 H         -0.3718917946        0.3785072262        0.9538991648
 H         -0.4003845409        0.6098229972       -0.8055652888
 H          2.9174076858        1.4374170018        0.7206231231
 H          1.3468737333        2.1385238950        0.3331356188
 H          3.6746122912        1.7798831763       -1.4777512319
 H          2.2061082577        2.7074658653       -1.7739736134
 H          0.9809740026        0.7813449010       -2.4516501855
 H          1.0362265254       -2.5611888431       -1.3431378495
 H          0.8964723571       -2.7383210603       -3.7110956930
 H          1.7121468044       -2.9102428802       -6.4666021376
 H          0.2495403669       -2.5462060784       -5.5446566563
 H         -0.4977826786       -0.9592008527       -7.2580419055
 H         -0.1923127217       -2.5419408476       -7.9858236097
 H          2.7175840619        0.5523778656       -8.4611019044
 H          3.3336833428        1.8419074260       -6.5838230064
 H          4.2446072177        0.5862228378       -5.7412699574
 H          3.3122676004        2.2549759764       -4.1282892100
 H          1.6795442793        1.8531298185       -4.6787239309
 H          3.7117152873       -0.0547388599       -3.4499478542
 H          4.1724198628       -0.2425733465       -0.6569039711
 H          3.5494424825       -1.8355367381       -0.2355787986
 H          4.0207333191       -1.4767419159       -1.8985671706
 H          2.1064846605        0.1058924704        1.8560404038
  45
    -0.184274 !GC
 C          0.0000000000        0.0000000000        0.0000000000
 C          1.5347933859        0.0000000000        0.0000000000
 C          2.0878872008        1.4462028703        0.0000000000
 C          2.5265495294        1.7773054218       -1.4390358902
 C          2.0364342627        0.5912200792       -2.2679563099
 C          2.1341394141       -0.5991732250       -1.3027247895
 C          1.4397070578       -1.7496344806       -1.9484853854
 C          1.4920200587       -1.9031871137       -3.2775995492
 C          2.1704760384       -0.9944775954       -4.1767992352
 C          2.3226741923       -1.2438322107       -5.5070881850
 C          1.8014525417       -2.4773315158       -6.2010474919
 C          2.7759670433       -2.9776424498       -7.2626764619
 C          3.1053501488       -1.8866749759       -8.2596545919
 O          3.2846646980       -2.1114178677       -9.4409144588
 C          3.2439131957       -0.5683703619       -7.6692577527
 C          2.9599673483       -0.2787090003       -6.3775485631
 C          3.3094366881        1.0823727302       -5.8454331695
 C          2.5243227252        1.4164932337       -4.5876974321
 C          2.7271001150        0.2893748091       -3.5918452599
 C          3.5800175637       -1.0322399236       -1.0130397822
 O          2.0980480147       -0.6635760184        1.1201086023
 H         -0.4046625995       -1.0138834954       -0.0252171026
 H         -0.3524590371        0.4682853481        0.9174820783
 H         -0.4043138003        0.5567395330       -0.8412915186
 H          2.9302305625        1.4662571200        0.6878106142
 H          1.3327414261        2.1452537106        0.3586357873
 H          3.6103387841        1.8650356037       -1.5052240210
 H          2.0924848073        2.7161773217       -1.7809334302
 H          0.9742051095        0.7430916651       -2.4939772537
 H          0.9513099236       -2.4916711787       -1.3333955612
 H          0.9983447964       -2.7587705551       -3.7124372698
 H          1.6132186012       -3.2854347664       -5.4969057881
 H          0.8510118811       -2.2254811647       -6.6846297083
 H          2.3708388450       -3.8433036404       -7.7889739921
 H          3.7157893788       -3.2799802049       -6.7900442800
 H          3.6446094151        0.1976391734       -8.3190664970
 H          3.1433468000        1.8324341209       -6.6210007241
 H          4.3795167604        1.0898606258       -5.6104750061
 H          2.8747866952        2.3587275597       -4.1651643655
 H          1.4634921279        1.5222713649       -4.8273032722
 H          3.8019788146        0.1653838076       -3.4145273332
 H          4.0341230590       -1.4426137584       -1.9098635995
 H          4.1384416168       -0.1400473654       -0.7483868159
 H          3.6499494498       -1.7457867691       -0.2013864905
 H          3.0521904687       -0.6961953378        0.9908861590
  45
    -0.182551 !GC
 C          0.0000000000        0.0000000000        0.0000000000
 C          1.5344932377        0.0000000000        0.0000000000
 C          2.1040419679        1.4321848478        0.0000000000
 C          2.5864291916        1.7499296244       -1.4277573580
 C          2.0449305095        0.5905540581       -2.2596968881
 C          2.1250631084       -0.6103165473       -1.3069830120
 C          1.4268846171       -1.7560254191       -1.9578628844
 C          1.3622814217       -1.8573371873       -3.2918290362
 C          1.9012775470       -0.8840489905       -4.2196576400
 C          1.7360350376       -0.9866169992       -5.5679585858
 C          0.9733586093       -2.1160622469       -6.2180076410
 C          0.2753269507       -1.6915007508       -7.5060514668
 C          1.2453241216       -1.0395220206       -8.4674532458
 O          1.1988645415       -1.2106879480       -9.6692177657
 C          2.1772994905       -0.1354714834       -7.8177655607
 C          2.3473143337       -0.0583986450       -6.4781663832
 C          3.2454672108        0.9966178672       -5.9037037183
 C          2.6929198773        1.4699251170       -4.5670010057
 C          2.6776477360        0.2669483501       -3.6111794673
 C          3.5628636772       -1.0669105083       -1.0065916188
 O          2.1003842728       -0.5684629062        1.1675888576
 H         -0.4201516751        0.6214178815       -0.7884839652
 H         -0.3868858502       -1.0133014470       -0.1111224194
 H         -0.3518481589        0.3890031521        0.9542600720
 H          2.9163749513        1.4373362245        0.7208566921
 H          1.3457676570        2.1378524795        0.3339992370
 H          3.6739070091        1.7837306561       -1.4774603514
 H          2.2037558326        2.7094186906       -1.7728673382
 H          0.9824213243        0.7822568146       -2.4530166508
 H          1.0393279338       -2.5607004619       -1.3453280938
 H          0.8925523757       -2.7345311311       -3.7097911046
 H          1.6824705619       -2.9186224708       -6.4512164798
 H          0.2212393576       -2.5221269679       -5.5427210024
 H         -0.4996006495       -0.9526757287       -7.2791103722
 H         -0.2023665197       -2.5457632106       -7.9878280925
 H          2.7317296068        0.5239756131       -8.4712156255
 H          3.3430073461        1.8258758618       -6.6058816295
 H          4.2431385779        0.5723098740       -5.7491080905
 H          3.3156181722        2.2659540519       -4.1571412340
 H          1.6823487281        1.8617467942       -4.7044295264
 H          3.7125098667       -0.0601034952       -3.4541372895
 H          3.5584256015       -1.8295532892       -0.2310555763
 H          4.0172304588       -1.4783166358       -1.9003032836
 H          4.1722346763       -0.2380648689       -0.6660236197
 H          2.1033477300        0.1049331623        1.8570228124
  45
    -0.176752 !GC
 C          0.0000000000        0.0000000000        0.0000000000
 C          1.5318747950        0.0000000000        0.0000000000
 C          2.1034119030        1.4307484231        0.0000000000
 C          2.6119913180        1.7394431184       -1.4188248703
 C          2.0630377566        0.5909864921       -2.2611183150
 C          2.1201468981       -0.6170908030       -1.3150689388
 C          1.3856531650       -1.7333850932       -1.9805551127
 C          1.3924672214       -1.8497717934       -3.3143056612
 C          2.0704737905       -0.9372121570       -4.2096951263
 C          2.1500114529       -1.1424986357       -5.5531167648
 C          1.5240945278       -2.3152219353       -6.2650896517
 C          2.4245219698       -2.8407066972       -7.3790398959
 C          2.7844616584       -1.7416685020       -8.3559576542
 O          2.9156334766       -1.9405693260       -9.5475080751
 C          3.0189761663       -0.4510602618       -7.7329289775
 C          2.8030985901       -0.1887592645       -6.4229348572
 C          3.2491236959        1.1316748106       -5.8616422134
 C          2.5333948383        1.4653316344       -4.5628745222
 C          2.7065933057        0.2981012893       -3.6023556570
 C          3.5519864355       -1.1058083144       -1.0363911981
 O          1.9988171134       -0.5379550798        1.2186002345
 H         -0.4037828345        0.5833593057       -0.8245854347
 H         -0.3063044711       -1.0393143013       -0.1297944930
 H         -0.4253375553        0.3752615960        0.9227986780
 H          2.8967859697        1.4593651456        0.7430173822
 H          1.3351577911        2.1335615168        0.3130511730
 H          3.7013414161        1.7534831332       -1.4553413098
 H          2.2530374615        2.7066439115       -1.7667364706
 H          1.0030963535        0.7912358434       -2.4573642806
 H          0.8913988119       -2.4875368087       -1.3815363488
 H          0.8620502574       -2.6792170067       -3.7566289127
 H          1.3074991534       -3.1335598191       -5.5812642900
 H          0.5764756527       -1.9837242773       -6.7046759523
 H          1.9458849268       -3.6622661175       -7.9139264131
 H          3.3602027458       -3.2156059720       -6.9525568939
 H          3.4368789558        0.3119587952       -8.3752623123
 H          3.0951856973        1.9161663361       -6.6048427383
 H          4.3265314617        1.0725066202       -5.6710606585
 H          2.9516869036        2.3725743140       -4.1258889447
 H          1.4715617597        1.6357563317       -4.7552803062
 H          3.7801408847        0.1208695959       -3.4647907772
 H          3.5361464721       -1.9525370865       -0.3519142326
 H          4.0338151624       -1.4349864129       -1.9528085571
 H          4.1435302295       -0.3232997232       -0.5735658496
 H          2.8872603913       -0.8881640007        1.0880279973
  45
    -0.176404 !GC
 C          0.0000000000        0.0000000000        0.0000000000
 C          1.5318939722        0.0000000000        0.0000000000
 C          2.1033753725        1.4306614452        0.0000000000
 C          2.6099992854        1.7412608091       -1.4192909582
 C          2.0627862163        0.5918722359       -2.2614877965
 C          2.1206754790       -0.6161930797       -1.3153349791
 C          1.3869139643       -1.7328583573       -1.9810443803
 C          1.3957836412       -1.8500340827       -3.3146656256
 C          2.0741076254       -0.9374739883       -4.2098598694
 C          2.1560705759       -1.1431270201       -5.5529515274
 C          1.5382450411       -2.3184078453       -6.2676805603
 C          2.4358171449       -2.8219161106       -7.3938750146
 C          2.7777535833       -1.7070191809       -8.3592303670
 O          2.9002107253       -1.8892094648       -9.5542912094
 C          3.0089817745       -0.4227412152       -7.7217367278
 C          2.7979690205       -0.1769953499       -6.4077356778
 C          3.2388955822        1.1389841532       -5.8324180209
 C          2.5144188545        1.4582875897       -4.5348434188
 C          2.7078680081        0.2991017839       -3.6022795776
 C          3.5530001911       -1.1035412376       -1.0366214673
 O          1.9986883200       -0.5384562316        1.2185180091
 H         -0.3737772059       -1.0148824345       -0.1105830143
 H         -0.3518429423        0.3980707108        0.9497766832
 H         -0.4112042435        0.6090861193       -0.8009208952
 H          2.8977426624        1.4584297777        0.7419898772
 H          1.3355059374        2.1329422936        0.3152578950
 H          3.6992792594        1.7576226605       -1.4566149764
 H          2.2488261812        2.7078777678       -1.7666685267
 H          1.0028384595        0.7908614336       -2.4588329799
 H          0.8920510213       -2.4868072292       -1.3822572764
 H          0.8660069960       -2.6799000916       -3.7568376571
 H          1.3412539903       -3.1454257282       -5.5883716869
 H          0.5813779003       -1.9981572070       -6.6951741020
 H          1.9608607808       -3.6413783129       -7.9350588708
 H          3.3781365294       -3.1930380920       -6.9787630721
 H          3.4203144274        0.3497551896       -8.3569525570
 H          3.0875577990        1.9302522060       -6.5688814244
 H          4.3152203556        1.0800178059       -5.6357432451
 H          2.9270649915        2.3630347300       -4.0875286937
 H          1.4531411889        1.6267181988       -4.7317993658
 H          3.7812254509        0.1222259105       -3.4629056554
 H          4.0510311729       -1.4432530962       -1.9423776877
 H          4.1465802895       -0.3219111774       -0.5752521333
 H          3.5142865508       -1.9438877991       -0.3473396140
 H          2.8870245652       -0.8889477424        1.0880652455
  45
    -0.174890 !GC
 C          0.0000000000        0.0000000000        0.0000000000
 C          1.5345635120        0.0000000000        0.0000000000
 C          2.0963471721        1.4339565810        0.0000000000
 C          2.5365638749        1.7668896216       -1.4372207187
 C          2.0390594290        0.5867883346       -2.2701392828
 C          2.1320488618       -0.6080111338       -1.3095934465
 C          1.4351813348       -1.7525575205       -1.9645406552
 C          1.4894994902       -1.9007665363       -3.2944451545
 C          2.1776123196       -0.9942580442       -4.1875012325
 C          2.3500361689       -1.2514082270       -5.5141102172
 C          1.8443741138       -2.4946043386       -6.2027142113
 C          2.8520103177       -3.0332453002       -7.2133525698
 C          3.2243016530       -1.9758962472       -8.2309388056
 O          3.4570321831       -2.2384892349       -9.3946718547
 C          3.3331333481       -0.6388475073       -7.6769922282
 C          3.0113872875       -0.3135990979       -6.4027520380
 C          3.3394360613        1.0660225519       -5.9046548067
 C          2.5592397177        1.4226018395       -4.6503269921
 C          2.7264903857        0.2923650972       -3.6023202685
 C          3.5778045141       -1.0417536476       -1.0189895377
 O          2.1012842057       -0.5664407260        1.1684426379
 H         -0.4342541980        0.4131383202        0.9070934651
 H         -0.3364155321        0.6169291123       -0.8365039104
 H         -0.3883600632       -1.0049749310       -0.1498302402
 H          2.9307190120        1.4331421350        0.6953889575
 H          1.3470264497        2.1331336769        0.3661207092
 H          3.6207130762        1.8492731025       -1.5051712736
 H          2.1065323828        2.7088502941       -1.7750443908
 H          0.9764991252        0.7424530921       -2.4918248014
 H          0.9381028850       -2.5026595979       -1.3632268353
 H          0.9922472284       -2.7522507490       -3.7332640369
 H          1.6164083212       -3.2838603984       -5.4889140587
 H          0.9176095490       -2.2418381366       -6.7303522634
 H          2.4595531256       -3.9119453830       -7.7273188628
 H          3.7719005327       -3.3266725110       -6.6978184192
 H          3.7466666060        0.1113751788       -8.3370772000
 H          3.1565462775        1.7930599190       -6.6982418744
 H          4.4112139844        1.0971426162       -5.6789447536
 H          2.9062625575        2.3759104319       -4.2507800918
 H          1.4961900267        1.5158985457       -4.8848432647
 H          3.8039249770        0.1786129711       -3.4327979896
 H          3.5845418914       -1.8112459763       -0.2505201347
 H          4.0336216551       -1.4395218837       -1.9183417122
 H          4.1768037845       -0.2069021223       -0.6742450105
 H          2.1120487564        0.1110735134        1.8538596072
  45
    -0.172246 !GC
 C          0.0000000000        0.0000000000        0.0000000000
 C          1.5318072964        0.0000000000        0.0000000000
 C          2.1034224075        1.4305956632        0.0000000000
 C          2.6126719324        1.7396563680       -1.4186179594
 C          2.0625185089        0.5919120332       -2.2608870652
 C          2.1197235898       -0.6167207756       -1.3154131290
 C          1.3844343250       -1.7325846402       -1.9807239631
 C          1.3857241190       -1.8465600238       -3.3146215122
 C          2.0572466899       -0.9306462699       -4.2118379975
 C          2.1197120548       -1.1249440277       -5.5575174964
 C          1.4832657108       -2.2868346306       -6.2774183015
 C          2.3514283410       -2.7636305793       -7.4379494484
 C          2.6707484082       -1.6254003088       -8.3835218488
 O          2.7550198479       -1.7768175817       -9.5862778022
 C          2.9298183561       -0.3588345897       -7.7213490708
 C          2.7499931623       -0.1419564161       -6.3979406584
 C          3.2135671871        1.1557979453       -5.8001293475
 C          2.4939501367        1.4594292769       -4.4958074532
 C          2.7027565205        0.2984843669       -3.6012067087
 C          3.5509789776       -1.1067298054       -1.0367296768
 O          1.9988729105       -0.5383677120        1.2184638427
 H         -0.4155358899        0.6025708072       -0.8031744761
 H         -0.3696105167       -1.0167045823       -0.1091735350
 H         -0.3518189282        0.4009919284        0.9487177860
 H          2.8962210105        1.4594173303        0.7434332395
 H          1.3350016059        2.1330733067        0.3126424102
 H          3.7019624179        1.7530894136       -1.4552052026
 H          2.2543247525        2.7071845793       -1.7662286566
 H          1.0026223177        0.7937612309       -2.4560120329
 H          0.8943876244       -2.4889608947       -1.3809285469
 H          0.8534835244       -2.6754850195       -3.7557295621
 H          1.3079644363       -3.1280249431       -5.6096822000
 H          0.5138784717       -1.9616688160       -6.6711541966
 H          1.8617378036       -3.5693925228       -7.9866514580
 H          3.3036114722       -3.1455546623       -7.0563685386
 H          3.3335977204        0.4242917721       -8.3482796534
 H          3.0740067767        1.9632359688       -6.5211182433
 H          4.2887350122        1.0757619603       -5.6051798793
 H          2.9152103740        2.3525758384       -4.0334987625
 H          1.4341848679        1.6411856539       -4.6891119391
 H          3.7745966600        0.1112783346       -3.4639000486
 H          3.5353412340       -1.9501650201       -0.3481466540
 H          4.0306788100       -1.4407119360       -1.9525067557
 H          4.1445474925       -0.3229003451       -0.5787039447
 H          2.8860642347       -0.8908950460        1.0871268228
  45
    -0.171677 !GC
 C          0.0000000000        0.0000000000        0.0000000000
 C          1.5318306370        0.0000000000        0.0000000000
 C          2.1007717315        1.4310294845        0.0000000000
 C          2.5855061299        1.7499348203       -1.4250559187
 C          2.0555918050        0.5906575635       -2.2657964502
 C          2.1232615682       -0.6140133244       -1.3156497029
 C          1.3963895441       -1.7354543836       -1.9802619331
 C          1.4367837627       -1.8699162943       -3.3120535273
 C          2.1428407397       -0.9738181814       -4.2012980068
 C          2.3091733657       -1.2291659811       -5.5291473248
 C          1.7780577642       -2.4619923655       -6.2175805644
 C          2.7845626919       -3.0457895400       -7.2039268918
 C          3.2034588150       -2.0162189672       -8.2312071335
 O          3.4592003342       -2.3038374575       -9.3838817512
 C          3.3272024082       -0.6720009464       -7.6966490794
 C          2.9995180804       -0.3227080218       -6.4304640675
 C          3.3492026718        1.0590824825       -5.9521023746
 C          2.5972612915        1.4410493757       -4.6883799672
 C          2.7214621239        0.2982211365       -3.6123326980
 C          3.5602241674       -1.0895978478       -1.0400343830
 O          1.9992034327       -0.5379818431        1.2185806480
 H         -0.3869365775       -1.0110037421       -0.1170060041
 H         -0.3677779391        0.3941804692        0.9471330729
 H         -0.3829965408        0.6156533666       -0.8053848529
 H          2.9069285696        1.4545344186        0.7292478079
 H          1.3379630464        2.1307277553        0.3324435336
 H          3.6739331743        1.7892356327       -1.4734216235
 H          2.2007757234        2.7089081564       -1.7683892910
 H          0.9948940953        0.7741359589       -2.4731314466
 H          0.8808212196       -2.4771832807       -1.3839401375
 H          0.9123181130       -2.7023335853       -3.7553309716
 H          1.5086022823       -3.2360275160       -5.5015834523
 H          0.8711852879       -2.1826645987       -6.7660785232
 H          2.3740855757       -3.9203337928       -7.7106242900
 H          3.6868518375       -3.3579681124       -6.6687020846
 H          3.7596555023        0.0615711979       -8.3632793079
 H          3.1596363557        1.7786916645       -6.7509102022
 H          4.4256790009        1.0818414541       -5.7477536739
 H          2.9687407184        2.3915473047       -4.3043048519
 H          1.5320829632        1.5510807479       -4.9044850618
 H          3.8006655693        0.1685400498       -3.4646063911
 H          4.0550135562       -1.4373074579       -1.9446039278
 H          4.1515162088       -0.2984321181       -0.5922052025
 H          3.5310643767       -1.9211861136       -0.3396336255
 H          2.8879806510       -0.8874490200        1.0885621753
  45
    -0.170908 !GC
 C          0.0000000000        0.0000000000        0.0000000000
 C          1.5347648725        0.0000000000        0.0000000000
 C          2.0872115006        1.4462052263        0.0000000000
 C          2.5176826383        1.7805991455       -1.4407506607
 C          2.0338955592        0.5914391083       -2.2693842393
 C          2.1354522411       -0.5981671754       -1.3034345182
 C          1.4440747139       -1.7504472052       -1.9491398473
 C          1.5063098480       -1.9084179663       -3.2773978846
 C          2.1925809056       -1.0034046494       -4.1739962536
 C          2.3712302832       -1.2665258519       -5.4986571225
 C          1.8769799481       -2.5166807139       -6.1829195136
 C          2.8874820113       -3.0432304292       -7.1970786609
 C          3.2455390562       -1.9812129224       -8.2150852116
 O          3.4722764224       -2.2405995816       -9.3809338770
 C          3.3497517543       -0.6445717754       -7.6604200349
 C          3.0258889256       -0.3211646309       -6.3860629761
 C          3.3461433422        1.0600617216       -5.8875136428
 C          2.5525854349        1.4148876998       -4.6410947472
 C          2.7311769156        0.2907393342       -3.5950365109
 C          3.5829490756       -1.0264880279       -1.0144970946
 O          2.0979271839       -0.6635271290        1.1202063480
 H         -0.4354603935        0.4772875085        0.8745138754
 H         -0.3220764797        0.5575930218       -0.8806145540
 H         -0.4027894056       -1.0093205604       -0.0791128613
 H          2.9337426923        1.4644147155        0.6827416790
 H          1.3343147850        2.1443512253        0.3650707410
 H          3.6005639739        1.8765386299       -1.5108067165
 H          2.0754430886        2.7163505919       -1.7807527309
 H          0.9716244751        0.7378550549       -2.4985704893
 H          0.9503115871       -2.4898466204       -1.3352103026
 H          1.0152583190       -2.7650717458       -3.7130557710
 H          1.6623584357       -3.3078565951       -5.4671085987
 H          0.9446393189       -2.2760805235       -6.7061816092
 H          2.5032041355       -3.9257825848       -7.7107817058
 H          3.8121096720       -3.3271847902       -6.6847413871
 H          3.7598971215        0.1076486706       -8.3203753549
 H          3.1685682508        1.7857743155       -6.6835501997
 H          4.4154719500        1.0943115112       -5.6511261056
 H          2.8903767965        2.3712210448       -4.2404952140
 H          1.4912185143        1.5017325271       -4.8858573559
 H          3.8073975185        0.1822207266       -3.4154476416
 H          3.5957146932       -1.7533969106       -0.2055536930
 H          4.0234049645       -1.4761829845       -1.8970473235
 H          4.1797192999       -0.1701893167       -0.7278453943
 H          3.0520188462       -0.6964083270        0.9910148122
  45
    -0.167951 !GC
 C          0.0000000000        0.0000000000        0.0000000000
 C          1.5318437582        0.0000000000        0.0000000000
 C          2.1008433952        1.4310510132        0.0000000000
 C          2.5873304894        1.7492702999       -1.4246145413
 C          2.0558995349        0.5907875075       -2.2653787633
 C          2.1231945717       -0.6140870192       -1.3155462543
 C          1.3961138960       -1.7354025477       -1.9800953052
 C          1.4339807516       -1.8687181386       -3.3120445488
 C          2.1372899802       -0.9711030417       -4.2020012876
 C          2.2970483295       -1.2226568098       -5.5313150815
 C          1.7608383390       -2.4519543518       -6.2219046139
 C          2.7593919231       -3.0277110044       -7.2210591361
 C          3.1687661352       -1.9903236370       -8.2442370874
 O          3.4121024656       -2.2691034056       -9.4017284491
 C          3.2994294241       -0.6503031547       -7.7007733095
 C          2.9816247687       -0.3095631901       -6.4297953405
 C          3.3368104935        1.0678963892       -5.9433306706
 C          2.5871949285        1.4435595283       -4.6762471455
 C          2.7195899467        0.2986341650       -3.6116172902
 C          3.5598230224       -1.0902303047       -1.0395722924
 O          1.9992841273       -0.5380002153        1.2184885913
 H         -0.4166621066        0.6081198799       -0.7983933076
 H         -0.3687897682       -1.0161858333       -0.1163660233
 H         -0.3517568164        0.3929533315        0.9521206010
 H          2.9059926985        1.4551047209        0.7303275383
 H          1.3374813827        2.1308409831        0.3309357435
 H          3.6758396624        1.7866003968       -1.4720877054
 H          2.2045771881        2.7088746212       -1.7683540612
 H          0.9951305186        0.7753512227       -2.4714840893
 H          0.8824602881       -2.4782103372       -1.3834142866
 H          0.9095164394       -2.7013545306       -3.7550323838
 H          1.4996355153       -3.2307868227       -5.5079986043
 H          0.8483730868       -2.1708206649       -6.7600710989
 H          2.3454112041       -3.8989211085       -7.7305597546
 H          3.6665088359       -3.3430350727       -6.6959211259
 H          3.7280861796        0.0871994669       -8.3654511791
 H          3.1485437944        1.7933389824       -6.7371452766
 H          4.4135351445        1.0858464086       -5.7399236976
 H          2.9608452682        2.3909978196       -4.2867443415
 H          1.5219666524        1.5569075151       -4.8904627404
 H          3.7986028358        0.1660376945       -3.4651334865
 H          3.5392976354       -1.9250132839       -0.3428559798
 H          4.0325329216       -1.4285812790       -1.9573768213
 H          4.1662331912       -0.3086428270       -0.5906258173
 H          2.8881499216       -0.8873248999        1.0884719921
  45
    -0.167910 !GC
 C          0.0000000000        0.0000000000        0.0000000000
 C          1.5344876864        0.0000000000        0.0000000000
 C          2.1037937534        1.4323359041        0.0000000000
 C          2.5865812910        1.7487638446       -1.4278310735
 C          2.0452259499        0.5892931219       -2.2597291922
 C          2.1250379478       -0.6113101027       -1.3064361114
 C          1.4270149615       -1.7571642161       -1.9573493657
 C          1.3692649662       -1.8613844062       -3.2914029613
 C          1.9143007657       -0.8901056931       -4.2176247026
 C          1.7635556262       -0.9989214296       -5.5670256465
 C          1.0206366951       -2.1394628573       -6.2203949969
 C          0.3343178410       -1.7272908568       -7.5188664569
 C          1.3092764892       -1.0692102079       -8.4711574606
 O          1.2797884088       -1.2466836515       -9.6726170050
 C          2.2228535392       -0.1514263024       -7.8145721039
 C          2.3768801588       -0.0678012595       -6.4733890567
 C          3.2553138520        1.0004513281       -5.8925803287
 C          2.6891801780        1.4636371849       -4.5578503690
 C          2.6799988263        0.2670057261       -3.6075079610
 C          3.5628660419       -1.0675039366       -1.0057618384
 O          2.1002250234       -0.5680978071        1.1678632011
 H         -0.4355000450        0.4054261623        0.9098753332
 H         -0.3371975435        0.6224743184       -0.8320972658
 H         -0.3854781051       -1.0046980653       -0.1599594908
 H          2.9158668244        1.4380358689        0.7211827848
 H          1.3453621341        2.1383500103        0.3330808588
 H          3.6741518566        1.7819992463       -1.4771202508
 H          2.2044641062        2.7082951578       -1.7735698825
 H          0.9828543774        0.7809817466       -2.4539282096
 H          1.0336494981       -2.5588843944       -1.3447618863
 H          0.9009446758       -2.7386515645       -3.7109082940
 H          1.7416624194       -2.9349507515       -6.4412010805
 H          0.2646566438       -2.5506345892       -5.5526447971
 H         -0.4510058432       -0.9955160207       -7.3048100093
 H         -0.1284723494       -2.5884480945       -8.0029770697
 H          2.7775153426        0.5115412385       -8.4642749076
 H          3.3431120019        1.8320762284       -6.5933204338
 H          4.2587768222        0.5917225534       -5.7337353640
 H          3.3008657237        2.2648415129       -4.1416242761
 H          1.6753738201        1.8453031781       -4.7001003835
 H          3.7173844314       -0.0515123801       -3.4493566448
 H          3.5580241425       -1.8312735082       -0.2312680691
 H          4.0181423580       -1.4775323572       -1.8996526284
 H          4.1716394394       -0.2387277852       -0.6637942596
 H          2.1037261901        0.1056411033        1.8569805096
  45
    -0.166729 !GC
 C          0.0000000000        0.0000000000        0.0000000000
 C          1.5346419871        0.0000000000        0.0000000000
 C          2.0981990098        1.4335152920        0.0000000000
 C          2.5461964856        1.7633643636       -1.4356884873
 C          2.0388386067        0.5870279833       -2.2676091470
 C          2.1305678289       -0.6089015796       -1.3086323897
 C          1.4321396598       -1.7537633078       -1.9614035305
 C          1.4593191167       -1.8906024403       -3.2931051860
 C          2.1202117713       -0.9703368420       -4.1933293827
 C          2.2245280696       -1.1922354859       -5.5324928180
 C          1.6512509365       -2.3952868635       -6.2384034724
 C          2.5742809825       -2.8802502841       -7.3519512474
 C          2.8886428166       -1.7639332033       -8.3252749390
 O          3.0218258241       -1.9536264234       -9.5183072157
 C          3.0775599081       -0.4678209756       -7.6989912119
 C          2.8461573119       -0.2148403528       -6.3895479770
 C          3.2437685256        1.1185579989       -5.8229075763
 C          2.4903947987        1.4321748521       -4.5404882564
 C          2.7094317681        0.2927416013       -3.5960854892
 C          3.5751538131       -1.0451727707       -1.0161842928
 O          2.1010974408       -0.5675370368        1.1680070612
 H         -0.3786409499        0.3854640311        0.9480617079
 H         -0.4002395195        0.6045498929       -0.8094327573
 H         -0.3814931764       -1.0135340638       -0.1206187378
 H          2.9287027814        1.4333123432        0.7001859434
 H          1.3474212260        2.1340074570        0.3607616511
 H          3.6311555115        1.8355601970       -1.5003359745
 H          2.1259033956        2.7090502188       -1.7752043500
 H          0.9755609071        0.7499988603       -2.4809126555
 H          0.9560010717       -2.5142838682       -1.3560609724
 H          0.9613161656       -2.7433124482       -3.7288749538
 H          1.4765437717       -3.2209565650       -5.5513942231
 H          0.6877040127       -2.1119935139       -6.6768442785
 H          2.1307037902       -3.7198541278       -7.8890084512
 H          3.5246426448       -3.2166245825       -6.9255612048
 H          3.4731044573        0.3096586723       -8.3381198208
 H          3.0836563650        1.8974147378       -6.5706366215
 H          4.3177554056        1.0897607929       -5.6083648569
 H          2.8699296153        2.3533166788       -4.0974658948
 H          1.4280468266        1.5684425351       -4.7564668756
 H          3.7839742979        0.1462631462       -3.4348535751
 H          3.5788120383       -1.8212124832       -0.2542090760
 H          4.0346684443       -1.4351702198       -1.9171595180
 H          4.1727194588       -0.2131815975       -0.6619107575
 H          2.1120961379        0.1091100315        1.8541016867
  45
    -0.163933 !GC
 C          0.0000000000        0.0000000000        0.0000000000
 C          1.5347843020        0.0000000000        0.0000000000
 C          2.0880147024        1.4459457042        0.0000000000
 C          2.5205225579        1.7793351811       -1.4403751680
 C          2.0337834910        0.5911605212       -2.2685968725
 C          2.1350036652       -0.5985725943       -1.3028910266
 C          1.4429254766       -1.7510062838       -1.9474712126
 C          1.4946913670       -1.9047527903       -3.2766523848
 C          2.1718037648       -0.9953697858       -4.1759544939
 C          2.3264300742       -1.2468807205       -5.5056573397
 C          1.8039522316       -2.4821853339       -6.1957723143
 C          2.7879186383       -3.0028789708       -7.2387078900
 C          3.1375100197       -1.9277530362       -8.2457614252
 O          3.3378004362       -2.1699854872       -9.4200664829
 C          3.2694609493       -0.6016721470       -7.6713480606
 C          2.9723652472       -0.2959875420       -6.3862818505
 C          3.3181178905        1.0716416560       -5.8680017860
 C          2.5366445617        1.4173526304       -4.6112915133
 C          2.7254901716        0.2902913080       -3.5924792986
 C          3.5820738589       -1.0277852627       -1.0132870390
 O          2.0978773276       -0.6638871538        1.1200588536
 H         -0.4241326774        0.5536866305       -0.8352902467
 H         -0.3717309082       -1.0229690936       -0.0302320908
 H         -0.3655879567        0.4601128114        0.9188930609
 H          2.9335793802        1.4642197976        0.6840876805
 H          1.3350000257        2.1445954821        0.3639459454
 H          3.6036711251        1.8725119442       -1.5095645663
 H          2.0807796435        2.7159980681       -1.7809605360
 H          0.9711657534        0.7398068513       -2.4950183011
 H          0.9566093668       -2.4940046748       -1.3319184444
 H          1.0033545318       -2.7619030401       -3.7110784753
 H          1.5965621445       -3.2816467350       -5.4871582396
 H          0.8636499333       -2.2241813200       -6.6959708154
 H          2.3831284746       -3.8723468232       -7.7588168055
 H          3.7194060397       -3.3055333395       -6.7500109365
 H          3.6775257953        0.1560601889       -8.3262056755
 H          3.1475073395        1.8131788689       -6.6507669254
 H          4.3890897299        1.0849661355       -5.6371421139
 H          2.8879907630        2.3636981055       -4.1987924489
 H          1.4750069218        1.5202496999       -4.8484870969
 H          3.8008009675        0.1699106421       -3.4155528431
 H          3.5939002630       -1.7565352940       -0.2059590097
 H          4.0234254615       -1.4756680875       -1.8963597881
 H          4.1787709338       -0.1721653840       -0.7243999517
 H          3.0520041649       -0.6956793863        0.9918033546
  45
    -0.160822 !GC
 C          0.0000000000        0.0000000000        0.0000000000
 C          1.5344842800        0.0000000000        0.0000000000
 C          2.1031691566        1.4323935592        0.0000000000
 C          2.5785476141        1.7518251522       -1.4297145028
 C          2.0418892007        0.5893653521       -2.2607835621
 C          2.1260366406       -0.6103513195       -1.3066664673
 C          1.4316162885       -1.7590289368       -1.9565693800
 C          1.3785201928       -1.8660254322       -3.2905765250
 C          1.9252159401       -0.8950556340       -4.2161002002
 C          1.7857253775       -1.0090656192       -5.5661518076
 C          1.0584906891       -2.1576310976       -6.2228237346
 C          0.3882899713       -1.7555290761       -7.5328709398
 C          1.3725688481       -1.0968297940       -8.4751624211
 O          1.3626715445       -1.2840528560       -9.6754601082
 C          2.2681481693       -0.1654531026       -7.8129936278
 C          2.4056130879       -0.0732120076       -6.4706324847
 C          3.2654126928        1.0078883762       -5.8853382552
 C          2.6871784145        1.4622226313       -4.5527168464
 C          2.6796634032        0.2692263033       -3.6055527120
 C          3.5656653496       -1.0613495934       -1.0067265093
 O          2.1003998644       -0.5680145919        1.1677770663
 H         -0.3870538170       -1.0109264972       -0.1227891958
 H         -0.3713514998        0.3778349828        0.9544591601
 H         -0.4007462048        0.6104907322       -0.8049468599
 H          2.9193867354        1.4363806939        0.7165215688
 H          1.3466014767        2.1374779480        0.3391676673
 H          3.6656114270        1.7921893511       -1.4829254813
 H          2.1892161489        2.7089384856       -1.7738523754
 H          0.9789511605        0.7762834912       -2.4561533309
 H          1.0368281853       -2.5595776606       -1.3433658249
 H          0.9121926608       -2.7441721573       -3.7104947304
 H          1.7869615778       -2.9500996962       -6.4295806348
 H          0.2955057362       -2.5695455440       -5.5635571047
 H         -0.4039134072       -1.0271047911       -7.3335001679
 H         -0.0632231813       -2.6214371483       -8.0191794529
 H          2.8233432080        0.4997650272       -8.4599291919
 H          3.3436961487        1.8410347097       -6.5854598469
 H          4.2742904664        0.6142692649       -5.7227684755
 H          3.2879620699        2.2692290006       -4.1318080572
 H          1.6700116384        1.8330729888       -4.6995260768
 H          3.7196755014       -0.0397273434       -3.4457512124
 H          4.1426343676       -0.1968551560       -0.6891378106
 H          3.6127486275       -1.8120029474       -0.2281868861
 H          4.0328797317       -1.4364766924       -1.9124498369
 H          2.1042712600        0.1059026723        1.8567470075
  45
    -0.160173 !GC
 C          0.0000000000        0.0000000000        0.0000000000
 C          1.5346382021        0.0000000000        0.0000000000
 C          2.0968319904        1.4338367629        0.0000000000
 C          2.5342224952        1.7678281540       -1.4379608392
 C          2.0347459162        0.5876469901       -2.2696590907
 C          2.1319123313       -0.6073488519       -1.3100461852
 C          1.4374393968       -1.7544478596       -1.9630942000
 C          1.4779012326       -1.8972359618       -3.2939505255
 C          2.1480889860       -0.9813254885       -4.1914998643
 C          2.2848049380       -1.2195357289       -5.5253229047
 C          1.7509692581       -2.4447969165       -6.2239984492
 C          2.7140252590       -2.9432719532       -7.2969996559
 C          3.0405718395       -1.8484559040       -8.2905024453
 O          3.2122331920       -2.0672497972       -9.4737265243
 C          3.1885726900       -0.5337208729       -7.6934834447
 C          2.9183678343       -0.2509611128       -6.3975430207
 C          3.2782352448        1.1051451858       -5.8596986259
 C          2.5088888842        1.4341602953       -4.5908147085
 C          2.7137239943        0.2952024499       -3.5998544175
 C          3.5789083379       -1.0379053768       -1.0208063481
 O          2.1009799424       -0.5672377741        1.1681307494
 H         -0.3901463021       -1.0125925932       -0.1054231783
 H         -0.3514621989        0.3919336125        0.9529623487
 H         -0.4182868514        0.6198877308       -0.7908548426
 H          2.9327487692        1.4319506092        0.6934522886
 H          1.3487187077        2.1330454726        0.3683815629
 H          3.6181566394        1.8509672860       -1.5079700230
 H          2.1030779339        2.7096661606       -1.7747322046
 H          0.9712181916        0.7433806241       -2.4866907082
 H          0.9532659438       -2.5108578319       -1.3590806336
 H          0.9818499174       -2.7505384605       -3.7308861851
 H          1.5638133019       -3.2569416178       -5.5242064461
 H          0.7980878888       -2.1838553545       -6.6980579644
 H          2.3004639735       -3.8038907864       -7.8248672228
 H          3.6562544720       -3.2526873133       -6.8339243825
 H          3.5854727837        0.2347096839       -8.3425825086
 H          3.1058256108        1.8609683007       -6.6281395516
 H          4.3510596613        1.1076034944       -5.6373195410
 H          2.8682182642        2.3717816577       -4.1657351657
 H          1.4458633655        1.5461170683       -4.8173517592
 H          3.7902095499        0.1677653674       -3.4345811059
 H          4.0464381799       -1.4002696201       -1.9308621140
 H          4.1375684538       -0.1611777545       -0.7046531453
 H          3.6480996493       -1.7879229301       -0.2429114324
 H          2.1131668526        0.1104887660        1.8533441487
  45
    -0.158659 !GC
 C          0.0000000000        0.0000000000        0.0000000000
 C          1.5346016141        0.0000000000        0.0000000000
 C          2.0990205756        1.4334414995        0.0000000000
 C          2.5576508951        1.7591283320       -1.4331709929
 C          2.0444737529        0.5862617290       -2.2659331275
 C          2.1289283648       -0.6105729263       -1.3073971777
 C          1.4242097818       -1.7510560870       -1.9617401206
 C          1.4478197337       -1.8854746530       -3.2936988806
 C          2.1109623387       -0.9663698898       -4.1936788988
 C          2.2048670519       -1.1818207426       -5.5344582978
 C          1.6130421000       -2.3725982091       -6.2451919536
 C          2.5193931518       -2.8493323266       -7.3761152111
 C          2.8335885636       -1.7209940219       -8.3357449808
 O          2.9494246497       -1.8930970867       -9.5333391595
 C          3.0436814712       -0.4368156867       -7.6918618558
 C          2.8258080227       -0.2010038469       -6.3770534420
 C          3.2417197485        1.1187468822       -5.7923212537
 C          2.4878042829        1.4252359628       -4.5082141101
 C          2.7139376066        0.2882736879       -3.5922201726
 C          3.5703901993       -1.0557378193       -1.0136633158
 O          2.1007487290       -0.5670535705        1.1683454157
 H         -0.3777031631        0.3979309169        0.9432907235
 H         -0.4009067571        0.5945468191       -0.8163256641
 H         -0.3812108723       -1.0153390404       -0.1070867244
 H          2.9238450557        1.4358450309        0.7066059769
 H          1.3456199845        2.1355312219        0.3519040991
 H          3.6434494014        1.8229446980       -1.4924872032
 H          2.1463363149        2.7078399673       -1.7750859365
 H          0.9821141349        0.7559323438       -2.4794147446
 H          0.9458475689       -2.5107169013       -1.3568919832
 H          0.9447743200       -2.7349261732       -3.7305714138
 H          1.4423083792       -3.2048708750       -5.5652480118
 H          0.6456922573       -2.0777390134       -6.6670714495
 H          2.0628696017       -3.6770990767       -7.9208124652
 H          3.4714398517       -3.2001557273       -6.9655748821
 H          3.4421266877        0.3456509767       -8.3231308093
 H          3.0959426144        1.9099054405       -6.5300025824
 H          4.3141978857        1.0708736236       -5.5738680206
 H          2.8754449699        2.3368402379       -4.0526038362
 H          1.4276482388        1.5754196421       -4.7258991406
 H          3.7863684234        0.1288768690       -3.4290158266
 H          3.5679857675       -1.8125364792       -0.2340412671
 H          4.0394281756       -1.4714164804       -1.9012153228
 H          4.1496818999       -0.2244758326       -0.6331960425
 H          2.1114486305        0.1101973066        1.8540324011
  45
    -0.157060 !GC
 C          0.0000000000        0.0000000000        0.0000000000
 C          1.5347632323        0.0000000000        0.0000000000
 C          2.0873573872        1.4461637198        0.0000000000
 C          2.5144981297        1.7813935364       -1.4415639860
 C          2.0331221121        0.5911261285       -2.2702114327
 C          2.1352455328       -0.5981287506       -1.3039235187
 C          1.4447513971       -1.7507835200       -1.9498455236
 C          1.5117187123       -1.9105909941       -3.2777428104
 C          2.2024340320       -1.0075896063       -4.1727209854
 C          2.3939215047       -1.2769806518       -5.4944529703
 C          1.9111821302       -2.5339574372       -6.1745723947
 C          2.9381657072       -3.0733509998       -7.1649741851
 C          3.3125392431       -2.0245783791       -8.1907964606
 O          3.5621249713       -2.2993584851       -9.3483135065
 C          3.4016164145       -0.6803179642       -7.6524031975
 C          3.0579698447       -0.3423090661       -6.3869928455
 C          3.3651418911        1.0472427161       -5.9030088113
 C          2.5676208334        1.4115099502       -4.6620185272
 C          2.7340735014        0.2904287833       -3.5961373264
 C          3.5831074780       -1.0255470411       -1.0151876841
 O          2.0976653168       -0.6639286167        1.1200484420
 H         -0.4072884223        0.5152771151       -0.8691587877
 H         -0.3193302302       -1.0442425467       -0.0588883458
 H         -0.4330896641        0.4300702672        0.8966954509
 H          2.9358167502        1.4632176051        0.6805177562
 H          1.3356854445        2.1445066301        0.3676723215
 H          3.5970957976        1.8804691383       -1.5129932478
 H          2.0690664694        2.7158592623       -1.7809694671
 H          0.9709172380        0.7353189643       -2.5011297988
 H          0.9467167796       -2.4880681065       -1.3369471770
 H          1.0209893005       -2.7670597233       -3.7140682151
 H          1.6820964925       -3.3170986429       -5.4545164058
 H          0.9889597856       -2.2972297913       -6.7171843657
 H          2.5629646857       -3.9628920303       -7.6731941275
 H          3.8542325275       -3.3497042439       -6.6335529139
 H          3.8176735816        0.0657888133       -8.3155786451
 H          3.1827105238        1.7620876398       -6.7077385505
 H          4.4340098088        1.0932504442       -5.6663251529
 H          2.9004589091        2.3733751036       -4.2705580190
 H          1.5062105307        1.4910230036       -4.9091675987
 H          3.8106455610        0.1877159609       -3.4148931136
 H          3.5825303562       -1.7313203130       -0.1909439079
 H          4.0309705299       -1.4945312067       -1.8869719737
 H          4.1731367064       -0.1751524496       -0.6983505489
 H          3.0522415525       -0.6943657790        0.9927462738
  45
    -0.154985 !GC
 C          0.0000000000        0.0000000000        0.0000000000
 C          1.5347573025        0.0000000000        0.0000000000
 C          2.0871166298        1.4462218252        0.0000000000
 C          2.5165298257        1.7810645202       -1.4410408879
 C          2.0322473056        0.5918601451       -2.2693595264
 C          2.1352997860       -0.5977592704       -1.3035968537
 C          1.4445584417       -1.7507504766       -1.9485225659
 C          1.5033434067       -1.9077836630       -3.2770161185
 C          2.1851353544       -1.0006716766       -4.1749790545
 C          2.3559653366       -1.2600097349       -5.5013628792
 C          1.8560615249       -2.5068789580       -6.1875102036
 C          2.8570826715       -3.0256413391       -7.2149704841
 C          3.2048064200       -1.9557489005       -8.2282217954
 O          3.4176324019       -2.2060580460       -9.3986944213
 C          3.3153855657       -0.6232940456       -7.6647043840
 C          3.0032157468       -0.3090988265       -6.3851720561
 C          3.3292106021        1.0677770362       -5.8783804370
 C          2.5393100417        1.4156948973       -4.6276286457
 C          2.7270014101        0.2917976041       -3.5951233827
 C          3.5832217872       -1.0248973107       -1.0149959761
 O          2.0980980698       -0.6639113798        1.1198610985
 H         -0.4044650811       -1.0139674502       -0.0289515548
 H         -0.3523558866        0.4644949744        0.9195649986
 H         -0.4047860319        0.5598962201       -0.8390888851
 H          2.9340734976        1.4643424278        0.6821201601
 H          1.3344166778        2.1441228361        0.3656574692
 H          3.5993196950        1.8774083876       -1.5119970578
 H          2.0736629965        2.7167137748       -1.7805413028
 H          0.9696222850        0.7380202469       -2.4970829705
 H          0.9541371748       -2.4915466175       -1.3335585949
 H          1.0132255936       -2.7654115366       -3.7117347994
 H          1.6500782149       -3.3025831147       -5.4742066574
 H          0.9181028274       -2.2648704558       -6.6999062641
 H          2.4683240809       -3.9048000762       -7.7311279212
 H          3.7868348636       -3.3126982101       -6.7136901979
 H          3.7200125358        0.1334280879       -8.3228818198
 H          3.1514086850        1.7994497005       -6.6688286028
 H          4.3991507182        1.0973824143       -5.6444092986
 H          2.8791415967        2.3691300872       -4.2218748260
 H          1.4774922633        1.5053885413       -4.8694926247
 H          3.8032893199        0.1810456859       -3.4172773692
 H          4.1288738125       -0.1347282628       -0.7120680209
 H          3.6017517965       -1.7200375870       -0.1809049518
 H          4.0777804080       -1.4614331177       -1.8716468053
 H          3.0522505585       -0.6965494532        0.9908973995
  45
    -0.154661 !GC
 C          0.0000000000        0.0000000000        0.0000000000
 C          1.5346440057        0.0000000000        0.0000000000
 C          2.0979690388        1.4338136005        0.0000000000
 C          2.5478711018        1.7617833501       -1.4354583537
 C          2.0386725696        0.5862081793       -2.2671485575
 C          2.1300312789       -0.6096883294       -1.3082984600
 C          1.4311588393       -1.7544448069       -1.9609380978
 C          1.4567666341       -1.8908511915       -3.2927391451
 C          2.1169083405       -0.9703341840       -4.1933385396
 C          2.2191464585       -1.1914687725       -5.5328805453
 C          1.6412560597       -2.3929046059       -6.2376262338
 C          2.5658352816       -2.8901595919       -7.3446118476
 C          2.8898547896       -1.7827639245       -8.3249595788
 O          3.0259359062       -1.9821545995       -9.5162853563
 C          3.0823261362       -0.4830349556       -7.7076832250
 C          2.8490356640       -0.2197731638       -6.4005575086
 C          3.2507715103        1.1163488273       -5.8432660257
 C          2.5033007737        1.4396605323       -4.5598127141
 C          2.7077330945        0.2918561729       -3.5959828403
 C          3.5743910661       -1.0470821312       -1.0162232093
 O          2.1013323925       -0.5667013051        1.1681016824
 H         -0.4088893209       -1.0049886955       -0.1222904599
 H         -0.3554635998        0.4085733785        0.9454876999
 H         -0.3961137568        0.6145329684       -0.8027657971
 H          2.9275628013        1.4345723741        0.7012320549
 H          1.3463549422        2.1347884933        0.3581577021
 H          3.6330254497        1.8317243651       -1.4995805149
 H          2.1297175160        2.7081817566       -1.7755898967
 H          0.9752948009        0.7502602261       -2.4792579512
 H          0.9557707450       -2.5152203646       -1.3552914504
 H          0.9581779778       -2.7432233359       -3.7286576445
 H          1.4552892801       -3.2139830955       -5.5481721334
 H          0.6824671815       -2.1033230668       -6.6820872654
 H          2.1208215369       -3.7317402101       -7.8775349830
 H          3.5129982422       -3.2277774407       -6.9120377887
 H          3.4816257773        0.2885667441       -8.3515978197
 H          3.0893553913        1.8908186025       -6.5953632899
 H          4.3255525293        1.0866943259       -5.6328298549
 H          2.8865549695        2.3625048873       -4.1234612502
 H          1.4403767069        1.5771591596       -4.7725215534
 H          3.7824790359        0.1449531264       -3.4362451146
 H          3.9851482385       -1.4278617175       -1.9487303051
 H          4.2065112443       -0.2213620916       -0.7082641493
 H          3.6058768935       -1.8624620564       -0.3042597646
 H          2.1141490187        0.1112593183        1.8529496599
  45
    -0.153225 !GC
 C          0.0000000000        0.0000000000        0.0000000000
 C          1.5346908132        0.0000000000        0.0000000000
 C          2.0867615471        1.4459807597        0.0000000000
 C          2.5188171108        1.7805597936       -1.4400314464
 C          2.0376320071        0.5920374894       -2.2712271678
 C          2.1348168682       -0.5985698934       -1.3058323907
 C          1.4414198294       -1.7480912920       -1.9541246490
 C          1.5174904949       -1.9105463689       -3.2812946592
 C          2.2159471918       -1.0140886104       -4.1764945929
 C          2.4233902684       -1.2979018743       -5.4929017633
 C          1.9549020851       -2.5619320520       -6.1695305330
 C          2.9975767821       -3.0904401599       -7.1500637820
 C          3.3691655881       -2.0375629432       -8.1725871366
 O          3.6333238416       -2.3098604520       -9.3274417242
 C          3.4409199246       -0.6919176621       -7.6340520793
 C          3.0824309507       -0.3592740881       -6.3716996996
 C          3.3712860641        1.0292278066       -5.8750260735
 C          2.5420403859        1.3742131492       -4.6488008002
 C          2.7457232231        0.2883457105       -3.6073318071
 C          3.5807202187       -1.0342627605       -1.0184927827
 O          2.0990535597       -0.6633933624        1.1200864836
 H         -0.4287726309        0.5429884638       -0.8398122432
 H         -0.3689690348       -1.0242439919       -0.0207283148
 H         -0.3628142557        0.4675826962        0.9161183625
 H          2.9329252855        1.4642548374        0.6832366865
 H          1.3332893486        2.1436811263        0.3646681305
 H          3.6018618708        1.8770296001       -1.5085645145
 H          2.0765316480        2.7162122668       -1.7803624404
 H          0.9767122684        0.7382610053       -2.5069817047
 H          0.9361891674       -2.4819293948       -1.3431359301
 H          1.0238082711       -2.7644035381       -3.7193647253
 H          1.7315736294       -3.3455598968       -5.4482954673
 H          1.0343477983       -2.3381213222       -6.7202913926
 H          2.6369629756       -3.9842869188       -7.6611557793
 H          3.9116105008       -3.3566859484       -6.6098903218
 H          3.8568844763        0.0576023607       -8.2932518235
 H          3.1991978532        1.7485260209       -6.6778934747
 H          4.4341752529        1.0821756695       -5.6140022474
 H          2.8492260956        2.3412335288       -4.2492996800
 H          1.4853498340        1.4353585386       -4.9190514250
 H          3.8216754387        0.1853384448       -3.4224920601
 H          3.5795081132       -1.7201818550       -0.1777795943
 H          4.0154731429       -1.5300447366       -1.8820527712
 H          4.1827133613       -0.1833264459       -0.7269977612
 H          3.0537525364       -0.6885546312        0.9931049613
  45
    -0.150506 !GC
 C          0.0000000000        0.0000000000        0.0000000000
 C          1.5345867265        0.0000000000        0.0000000000
 C          2.0975193239        1.4336788829        0.0000000000
 C          2.5407438807        1.7654469842       -1.4366536685
 C          2.0376581055        0.5873088265       -2.2687508889
 C          2.1312065624       -0.6081870694       -1.3093468142
 C          1.4343304099       -1.7535577533       -1.9631502763
 C          1.4711857532       -1.8942465426       -3.2942671293
 C          2.1397248086       -0.9773859792       -4.1921674447
 C          2.2661630597       -1.2097756950       -5.5278212278
 C          1.7188571196       -2.4264638543       -6.2306748194
 C          2.6666793581       -2.9137392297       -7.3222650781
 C          2.9861782830       -1.8050197669       -8.3027434728
 O          3.1420000640       -2.0061835442       -9.4913070225
 C          3.1477483563       -0.5002412036       -7.6874975711
 C          2.8910801455       -0.2358538996       -6.3850010496
 C          3.2620579156        1.1095397591       -5.8285606188
 C          2.4930309789        1.4253814419       -4.5559784182
 C          2.7145586645        0.2936356905       -3.5975710603
 C          3.5765443690       -1.0421712193       -1.0176677953
 O          2.1008948417       -0.5670783361        1.1682220108
 H         -0.3900934199       -1.0128876853       -0.1028518955
 H         -0.3511781875        0.3943559510        0.9521622262
 H         -0.4183513788        0.6180095550       -0.7923718313
 H          2.9306923174        1.4327993393        0.6968307142
 H          1.3479951515        2.1337202821        0.3640830227
 H          3.6252143427        1.8431048083       -1.5036075500
 H          2.1150514762        2.7091552303       -1.7749934990
 H          0.9745021007        0.7466948675       -2.4851168993
 H          0.9519038037       -2.5110684978       -1.3589742631
 H          0.9738617402       -2.7467289924       -3.7315243409
 H          1.5409582376       -3.2459787134       -5.5371165620
 H          0.7598938740       -2.1588593992       -6.6883873687
 H          2.2427788452       -3.7645769111       -7.8577439194
 H          3.6130764005       -3.2340299607       -6.8753905374
 H          3.5431362230        0.2757412337       -8.3286643186
 H          3.0969167482        1.8777586862       -6.5862138410
 H          4.3343859429        1.0997902877       -5.6042544143
 H          2.8562730414        2.3556332785       -4.1182476751
 H          1.4308232653        1.5453011671       -4.7822785359
 H          3.7900848222        0.1580983317       -3.4325564681
 H          4.1237163330       -0.1748760303       -0.6525475401
 H          3.5862326069       -1.7829400961       -0.2237074389
 H          4.0868553882       -1.4263045058       -1.8897713161
 H          2.1125362259        0.1104573768        1.8535991633
  45
    -0.150411 !GC
 C          0.0000000000        0.0000000000        0.0000000000
 C          1.5345960628        0.0000000000        0.0000000000
 C          2.0991219746        1.4335968116        0.0000000000
 C          2.5673326234        1.7551214324       -1.4309190465
 C          2.0494902315        0.5851981742       -2.2646173324
 C          2.1278679516       -0.6124338883       -1.3064763874
 C          1.4193240634       -1.7499322501       -1.9618083435
 C          1.4403256922       -1.8824622963       -3.2940271465
 C          2.1063162075       -0.9649109092       -4.1934964042
 C          2.1959309244       -1.1779206356       -5.5349802661
 C          1.5917780601       -2.3622553799       -6.2463547702
 C          2.4946083616       -2.8529287010       -7.3741726042
 C          2.8216471367       -1.7324194578       -8.3387449961
 O          2.9370805753       -1.9116212271       -9.5352349619
 C          3.0446647764       -0.4472852449       -7.7011362754
 C          2.8292925313       -0.2029819040       -6.3874614440
 C          3.2590001935        1.1152080441       -5.8091409441
 C          2.5124685433        1.4335341211       -4.5236345138
 C          2.7171702659        0.2850959396       -3.5905618724
 C          3.5669208834       -1.0640529748       -1.0108529565
 O          2.1010480669       -0.5663886228        1.1684898766
 H         -0.4078648921       -1.0074904041       -0.1049322848
 H         -0.3563356276        0.4237206397        0.9383876563
 H         -0.3958261918        0.6004846151       -0.8138398119
 H          2.9187460431        1.4382011800        0.7126046391
 H          1.3429966509        2.1366790942        0.3440644565
 H          3.6538516784        1.8105790978       -1.4850821027
 H          2.1648164618        2.7067310648       -1.7752256466
 H          0.9878693036        0.7601700704       -2.4777379087
 H          0.9383529435       -2.5083654261       -1.3575281089
 H          0.9328112045       -2.7288855389       -3.7314945939
 H          1.4074459979       -3.1913397534       -5.5661022621
 H          0.6299434917       -2.0550061227       -6.6719777733
 H          2.0299693302       -3.6782740973       -7.9160202079
 H          3.4423159682       -3.2122780949       -6.9608734884
 H          3.4513606370        0.3277438587       -8.3359333353
 H          3.1174655571        1.9046892696       -6.5494542233
 H          4.3318730839        1.0587249848       -5.5945509344
 H          2.9101095750        2.3432325134       -4.0729282965
 H          1.4529555747        1.5925084429       -4.7381355091
 H          3.7886354232        0.1191670837       -3.4278141245
 H          4.0352093705       -1.4938786227       -1.8908894705
 H          4.1647554925       -0.2438691258       -0.6286914030
 H          3.5350877374       -1.8492608403       -0.2626120772
 H          2.1111560910        0.1107709421        1.8542926858
  45
    -0.148848 !GC
 C          0.0000000000        0.0000000000        0.0000000000
 C          1.5347458214        0.0000000000        0.0000000000
 C          2.0874786879        1.4459719937        0.0000000000
 C          2.5141657952        1.7813253111       -1.4417814905
 C          2.0330390777        0.5909407681       -2.2702551478
 C          2.1353803319       -0.5982726716       -1.3038131641
 C          1.4440668960       -1.7505390992       -1.9494805938
 C          1.5114625056       -1.9108034418       -3.2773386855
 C          2.2044927170       -1.0093524384       -4.1719935104
 C          2.3997748887       -1.2817710541       -5.4927405700
 C          1.9144959792       -2.5400088955       -6.1693029537
 C          2.9503672235       -3.1028533275       -7.1371094479
 C          3.3491656652       -2.0730197341       -8.1724919060
 O          3.6196936429       -2.3674451788       -9.3203135243
 C          3.4338464747       -0.7208645215       -7.6534893169
 C          3.0777337557       -0.3640868624       -6.3966585948
 C          3.3842316331        1.0317849759       -5.9302240735
 C          2.5914548288        1.4115676540       -4.6910314017
 C          2.7342968229        0.2900283059       -3.5971610350
 C          3.5831655129       -1.0259573753       -1.0150163909
 O          2.0976233310       -0.6637204884        1.1203415018
 H         -0.4043653184       -1.0139938410       -0.0274999284
 H         -0.3519772923        0.4659536694        0.9189549264
 H         -0.4047875416        0.5585966755       -0.8398379284
 H          2.9360853321        1.4631623320        0.6803980283
 H          1.3358601856        2.1441111709        0.3678655057
 H          3.5966076666        1.8809175366       -1.5138480322
 H          2.0680799538        2.7155223779       -1.7810280606
 H          0.9708730871        0.7351141179       -2.5013818183
 H          0.9458608508       -2.4876361648       -1.3364306536
 H          1.0202836598       -2.7669532068       -3.7137182085
 H          1.6625100539       -3.3130278889       -5.4460385558
 H          1.0049511397       -2.2965837138       -6.7303857000
 H          2.5735496113       -3.9958089405       -7.6379503596
 H          3.8558523794       -3.3804216883       -6.5883260006
 H          3.8575528674        0.0148529512       -8.3232985861
 H          3.1986954153        1.7360811239       -6.7434633785
 H          4.4539528540        1.0819876181       -5.6983530911
 H          2.9273472973        2.3773353954       -4.3119253347
 H          1.5293535938        1.4898003174       -4.9355662855
 H          3.8111749202        0.1900452880       -3.4166664608
 H          4.1584302345       -0.1412587435       -0.7543244125
 H          3.6588735600       -1.7377496337       -0.2026895847
 H          4.0147491429       -1.4365333500       -1.9210386019
 H          3.0517589031       -0.6965619252        0.9913655333
  45
    -0.148482 !GC
 C          0.0000000000        0.0000000000        0.0000000000
 C          1.5344804950        0.0000000000        0.0000000000
 C          2.1037754659        1.4322308865        0.0000000000
 C          2.5794090160        1.7514813073       -1.4296092371
 C          2.0426000021        0.5892329518       -2.2609691756
 C          2.1261162436       -0.6104364015       -1.3065997230
 C          1.4313497732       -1.7586217701       -1.9571093980
 C          1.3831338714       -1.8671536307       -3.2912217785
 C          1.9340870386       -0.8973816877       -4.2154256573
 C          1.8031296980       -1.0148094794       -5.5660103979
 C          1.0884278260       -2.1708805460       -6.2232568093
 C          0.4171209770       -1.7761704783       -7.5350438756
 C          1.3969867818       -1.1090251380       -8.4759700808
 O          1.3891057465       -1.2943223004       -9.6766452202
 C          2.2851006517       -0.1721498440       -7.8115279589
 C          2.4179824076       -0.0788746146       -6.4688224391
 C          3.2685623954        1.0084110793       -5.8813148989
 C          2.6835354649        1.4600272837       -4.5506968816
 C          2.6822869213        0.2701249003       -3.6034872150
 C          3.5655693167       -1.0620312816       -1.0066051419
 O          2.1001680336       -0.5682438187        1.1677966978
 H         -0.3867453276       -1.0111208035       -0.1219063079
 H         -0.3717802013        0.3787695462        0.9538212121
 H         -0.4005603604        0.6096594192       -0.8056333541
 H          2.9198220574        1.4364077771        0.7167310882
 H          1.3472828747        2.1375235279        0.3387784587
 H          3.6665531347        1.7917056926       -1.4823264337
 H          2.1903804216        2.7086947529       -1.7739169421
 H          0.9797704648        0.7760984868       -2.4571704482
 H          1.0321669710       -2.5572789974       -1.3443352142
 H          0.9165541903       -2.7446308221       -3.7124549467
 H          1.8257786672       -2.9557695348       -6.4281148778
 H          0.3281507724       -2.5902756597       -5.5655914406
 H         -0.3824807538       -1.0553355617       -7.3378957904
 H         -0.0248841196       -2.6469163910       -8.0213009781
 H          2.8371288126        0.4972731106       -8.4567574441
 H          3.3434875705        1.8416205326       -6.5816939756
 H          4.2795161903        0.6216182251       -5.7153986673
 H          3.2787162687        2.2702419455       -4.1279596429
 H          1.6648944863        1.8254558948       -4.7008120953
 H          3.7234326985       -0.0344437198       -3.4423913876
 H          4.0271374341       -1.5096540697       -1.8811326348
 H          4.1718739716       -0.2392205948       -0.6434175788
 H          3.5344733347       -1.8333934726       -0.2442741551
 H          2.1042782567        0.1057582041        1.8567182578
  45
    -0.140910 !GC
 C          0.0000000000        0.0000000000        0.0000000000
 C          1.5345811752        0.0000000000        0.0000000000
 C          2.0976205662        1.4338343003        0.0000000000
 C          2.5504533052        1.7614404227       -1.4345188778
 C          2.0426301586        0.5861139249       -2.2673983071
 C          2.1301256919       -0.6101149196       -1.3082519318
 C          1.4293663195       -1.7525940912       -1.9628885696
 C          1.4635360326       -1.8915979684       -3.2942812196
 C          2.1348974424       -0.9764244576       -4.1918040241
 C          2.2569180910       -1.2066964326       -5.5282563298
 C          1.6970651763       -2.4173610925       -6.2318797754
 C          2.6413186358       -2.9188606526       -7.3201619234
 C          2.9738106083       -1.8180812969       -8.3053268997
 O          3.1290936269       -2.0266256790       -9.4925859812
 C          3.1486468399       -0.5120644656       -7.6963564393
 C          2.8945980998       -0.2388785130       -6.3951574765
 C          3.2797836712        1.1051805823       -5.8450997284
 C          2.5181152724        1.4332167035       -4.5712119950
 C          2.7177197954        0.2901767210       -3.5957821810
 C          3.5731115837       -1.0505568690       -1.0146780217
 O          2.1011941523       -0.5664134264        1.1683664545
 H         -0.4200911052        0.5719946249       -0.8286328705
 H         -0.3055904942       -1.0400114719       -0.1301746938
 H         -0.4325817749        0.3669576976        0.9246212696
 H          2.9256622252        1.4351224596        0.7029035386
 H          1.3452779045        2.1349019903        0.3562823798
 H          3.6357862778        1.8307233908       -1.4963691798
 H          2.1335098449        2.7081370000       -1.7753777445
 H          0.9801567033        0.7507968478       -2.4833904044
 H          0.9443506830       -2.5087860499       -1.3591728714
 H          0.9616990579       -2.7411159178       -3.7320381488
 H          1.5055821394       -3.2337345944       -5.5382694043
 H          0.7434551702       -2.1374366540       -6.6933843851
 H          2.2090321922       -3.7674774579       -7.8528049425
 H          3.5835395394       -3.2476291800       -6.8705332925
 H          3.5524690974        0.2564428777       -8.3408910945
 H          3.1188996376        1.8718099868       -6.6052877612
 H          4.3528343180        1.0865767804       -5.6246811213
 H          2.8916532623        2.3616456751       -4.1383751166
 H          1.4563051969        1.5621754813       -4.7943379745
 H          3.7924231142        0.1480938084       -3.4311982871
 H          3.5738382138       -1.8293787588       -0.2555397013
 H          4.0329566348       -1.4382556499       -1.9163771792
 H          4.1720106408       -0.2214565362       -0.6561476725
 H          2.1122434220        0.1110316804        1.8538596398
  45
    -0.086565 !GC
 C          0.0000000000        0.0000000000        0.0000000000
 C          1.5345109009        0.0000000000        0.0000000000
 C          2.1053156014        1.4320558010        0.0000000000
 C          2.6001990712        1.7444101515       -1.4246629353
 C          2.0487078681        0.5906075819       -2.2572226571
 C          2.1232178723       -0.6121951567       -1.3066287742
 C          1.4212697434       -1.7554610701       -1.9579837524
 C          1.3365662840       -1.8473917467       -3.2913295649
 C          1.8580087891       -0.8652006867       -4.2203518016
 C          1.6427976972       -0.9389814703       -5.5628318562
 C          0.8272729263       -2.0328367963       -6.2086711584
 C          0.0623120941       -1.5421413806       -7.4339181515
 C          0.9878961362       -0.8753865782       -8.4287762336
 O          0.8559797270       -0.9901490071       -9.6308230331
 C          1.9927465299       -0.0314431767       -7.8069183372
 C          2.2412136358       -0.0061383267       -6.4778996636
 C          3.2089181877        0.9926007173       -5.9173901046
 C          2.7101012651        1.4745873760       -4.5622819868
 C          2.6690647488        0.2630336164       -3.6144093350
 C          3.5580874533       -1.0756128748       -1.0033682154
 O          2.1002942750       -0.5684354500        1.1675126612
 H         -0.4058275705       -1.0055394637       -0.1296350932
 H         -0.3565922893        0.4025717003        0.9476438433
 H         -0.3968574976        0.6180581209       -0.7998102660
 H          2.9111084249        1.4394505418        0.7281306393
 H          1.3443394524        2.1395162654        0.3240296498
 H          3.6881740150        1.7651790177       -1.4681321334
 H          2.2308206570        2.7081479729       -1.7722938751
 H          0.9867373179        0.7913420025       -2.4447994543
 H          1.0461974515       -2.5662386632       -1.3455441512
 H          0.8627486731       -2.7226029981       -3.7091980261
 H          1.5087095562       -2.8335089601       -6.5180553627
 H          0.1104078932       -2.4568244894       -5.5069184921
 H         -0.6785126087       -0.7953164161       -7.1310272952
 H         -0.4656897645       -2.3651574764       -7.9175343996
 H          2.5342057888        0.6279516304       -8.4708652483
 H          3.3321557870        1.8250475131       -6.6114790610
 H          4.1861898975        0.5151483351       -5.7908541077
 H          3.3737318773        2.2417035202       -4.1616245332
 H          1.7127944792        1.9073227146       -4.6712020153
 H          3.6958927801       -0.0916175074       -3.4656425903
 H          3.5474347826       -1.8480424700       -0.2375451809
 H          4.0167487417       -1.4765080799       -1.8996625793
 H          4.1671772329       -0.2526175443       -0.6484055896
 H          2.1035423766        0.1048933879        1.8570233382
  45
    -0.071045 !GC
 C          0.0000000000        0.0000000000        0.0000000000
 C          1.5345467320        0.0000000000        0.0000000000
 C          2.1048485603        1.4321545604        0.0000000000
 C          2.5933409980        1.7464850388       -1.4265145126
 C          2.0452158243        0.5901916407       -2.2581186516
 C          2.1240356737       -0.6117010814       -1.3065295369
 C          1.4251981262       -1.7575041944       -1.9567981296
 C          1.3506510439       -1.8548550938       -3.2903081983
 C          1.8767992431       -0.8746332736       -4.2185515910
 C          1.6817511276       -0.9596158127       -5.5633608718
 C          0.8994736485       -2.0740169916       -6.2151700126
 C          0.1416126867       -1.6044733424       -7.4530279809
 C          1.0670978752       -0.9232444604       -8.4380711868
 O          0.9551984025       -1.0473520490       -9.6412796381
 C          2.0448909427       -0.0549687646       -7.8065879851
 C          2.2757336094       -0.0195674202       -6.4744836307
 C          3.2141394123        1.0026481909       -5.9061463469
 C          2.6953834612        1.4708663853       -4.5536635205
 C          2.6688792897        0.2661472616       -3.6111237611
 C          3.5610713821       -1.0696330609       -1.0047462087
 O          2.1000878407       -0.5688235903        1.1675430958
 H         -0.3915357384       -1.0115963613       -0.1095480219
 H         -0.3520239800        0.3893872290        0.9538916719
 H         -0.4155649878        0.6254771369       -0.7882123754
 H          2.9139524950        1.4384469845        0.7245403273
 H          1.3452149187        2.1389382913        0.3287864733
 H          3.6811339819        1.7723264812       -1.4733179867
 H          2.2185669827        2.7085911505       -1.7731282427
 H          0.9827222213        0.7869754473       -2.4466566685
 H          1.0458522315       -2.5656478656       -1.3436553180
 H          0.8823267548       -2.7326564594       -3.7088215647
 H          1.6038481244       -2.8594557097       -6.5123755266
 H          0.1825207606       -2.5124164919       -5.5223605161
 H         -0.6181854797       -0.8717098299       -7.1636218624
 H         -0.3627603582       -2.4402856401       -7.9400477975
 H          2.5817796496        0.6126031116       -8.4663828969
 H          3.3204197078        1.8389238339       -6.5985278334
 H          4.2024178875        0.5500382456       -5.7741442527
 H          3.3416723038        2.2487912991       -4.1457171186
 H          1.6911899033        1.8856884707       -4.6688754379
 H          3.7008143787       -0.0728968760       -3.4610048962
 H          3.5539420810       -1.8384640615       -0.2352280649
 H          4.0192468660       -1.4735160696       -1.9000077952
 H          4.1684892832       -0.2429684734       -0.6551371475
 H          2.1049776403        0.1049182637        1.8566524244
  45
    -0.060206 !GC
 C          0.0000000000        0.0000000000        0.0000000000
 C          1.5345720913        0.0000000000        0.0000000000
 C          2.1039476697        1.4323162840        0.0000000000
 C          2.5787703176        1.7519149167       -1.4300045551
 C          2.0372421519        0.5907891870       -2.2597986445
 C          2.1254606998       -0.6095931431       -1.3072657924
 C          1.4328259763       -1.7604821597       -1.9550998077
 C          1.3612192595       -1.8615375496       -3.2885798064
 C          1.8841185009       -0.8807601950       -4.2179516689
 C          1.6980078242       -0.9737398932       -5.5635626430
 C          0.9339385316       -2.1012428895       -6.2142887232
 C          0.1870544485       -1.6507990023       -7.4659888281
 C          1.1165436288       -0.9659465089       -8.4446839094
 O          1.0218706869       -1.1009653336       -9.6482408482
 C          2.0740551292       -0.0794355934       -7.8076003531
 C          2.2888140554       -0.0321980684       -6.4732594675
 C          3.2059444558        1.0077246351       -5.9017750544
 C          2.6748314845        1.4690416786       -4.5517169871
 C          2.6628448319        0.2700976776       -3.6120654147
 C          3.5662295897       -1.0582572056       -1.0090986938
 O          2.0998461603       -0.5690509053        1.1674440872
 H         -0.3911536714       -1.0109720240       -0.1163804835
 H         -0.3523383674        0.3825747274        0.9565016970
 H         -0.4157271066        0.6305617399       -0.7839594568
 H          2.9203373889        1.4356875859        0.7162363854
 H          1.3478567660        2.1376600110        0.3395036111
 H          3.6658827452        1.7898571098       -1.4845431324
 H          2.1912737081        2.7100865233       -1.7734190311
 H          0.9732772738        0.7795058297       -2.4480592980
 H          1.0546959256       -2.5679021918       -1.3402823130
 H          0.8963181005       -2.7418307739       -3.7059658511
 H          1.6493444604       -2.8828802357       -6.4946474647
 H          0.2128123388       -2.5397118746       -5.5259817904
 H         -0.5859234536       -0.9255749648       -7.1930619936
 H         -0.3000091204       -2.4969028978       -7.9528212537
 H          2.6078987724        0.5925623692       -8.4653057686
 H          3.2999282776        1.8447966910       -6.5950613320
 H          4.2018012746        0.5731415762       -5.7660604809
 H          3.3080202539        2.2563866437       -4.1411361011
 H          1.6652141258        1.8692621691       -4.6713464058
 H          3.6989183311       -0.0563146298       -3.4621139590
 H          3.5421531937       -1.8303986387       -0.2477879797
 H          4.0215016898       -1.5025888982       -1.8882520599
 H          4.1749737513       -0.2351749422       -0.6498957181
 H          2.1081450368        0.1058739060        1.8552903187
  45
    -0.056766 !GC
 C          0.0000000000        0.0000000000        0.0000000000
 C          1.5345216250        0.0000000000        0.0000000000
 C          2.1043617633        1.4322776295        0.0000000000
 C          2.5890274346        1.7469926521       -1.4276615474
 C          2.0429683421        0.5896564458       -2.2593254902
 C          2.1235594338       -0.6114367294       -1.3068648260
 C          1.4255563263       -1.7581067311       -1.9566617055
 C          1.3573599053       -1.8584345533       -3.2903036872
 C          1.8896135555       -0.8801123759       -4.2169995672
 C          1.7095900364       -0.9719145476       -5.5634930739
 C          0.9439452192       -2.0972853517       -6.2162205021
 C          0.2141468307       -1.6486111994       -7.4786403399
 C          1.1582008054       -0.9727866882       -8.4496687736
 O          1.0763831907       -1.1129180528       -9.6535731236
 C          2.1095105234       -0.0843590897       -7.8062571618
 C          2.3106167596       -0.0330401629       -6.4699266460
 C          3.2230613816        1.0078975063       -5.8925791236
 C          2.6863607600        1.4650607453       -4.5433438307
 C          2.6692762261        0.2679882549       -3.6077931305
 C          3.5613724364       -1.0675048812       -1.0060710275
 O          2.1002318795       -0.5685687618        1.1675615497
 H         -0.4062405556       -1.0054735527       -0.1289530443
 H         -0.3564014677        0.4033513481        0.9473682514
 H         -0.3968846330        0.6176760438       -0.8000741042
 H          2.9156028980        1.4377683171        0.7221696302
 H          1.3457733544        2.1388366178        0.3315069692
 H          3.6766173852        1.7761675526       -1.4767626818
 H          2.2108231205        2.7078276765       -1.7737366086
 H          0.9801528058        0.7840339845       -2.4484568690
 H          1.0420351826       -2.5640321146       -1.3432707893
 H          0.8895100984       -2.7358067408       -3.7104125513
 H          1.6558955765       -2.8863714264       -6.4842324819
 H          0.2113727213       -2.5252765220       -5.5332078976
 H         -0.5583460530       -0.9182695689       -7.2180940355
 H         -0.2713656662       -2.4944391650       -7.9673937555
 H          2.6510730649        0.5846116969       -8.4607919931
 H          3.3174495698        1.8466337656       -6.5838458062
 H          4.2195025474        0.5755145472       -5.7543202284
 H          3.3180949882        2.2509437374       -4.1277940576
 H          1.6773351189        1.8658946520       -4.6658934947
 H          3.7046554216       -0.0600132929       -3.4566094045
 H          3.5470468822       -1.8245989874       -0.2270830706
 H          4.0350351486       -1.4886690699       -1.8887164160
 H          4.1457765315       -0.2423067955       -0.6206186821
 H          2.1047188627        0.1054806370        1.8564211666
  45
    -0.050125 !GC
 C          0.0000000000        0.0000000000        0.0000000000
 C          1.5344817567        0.0000000000        0.0000000000
 C          2.1041905556        1.4322198947        0.0000000000
 C          2.5862833904        1.7479951483       -1.4282662997
 C          2.0428878334        0.5889509999       -2.2593945357
 C          2.1243670021       -0.6118056234       -1.3064497813
 C          1.4270989709       -1.7590708807       -1.9559262963
 C          1.3604110000       -1.8604464113       -3.2896613598
 C          1.8956546082       -0.8842028316       -4.2166387667
 C          1.7243202234       -0.9812467494       -5.5639767050
 C          0.9621713827       -2.1083301904       -6.2178438962
 C          0.2532607610       -1.6683018203       -7.4950140290
 C          1.2153530318       -1.0070417426       -8.4583664867
 O          1.1572294957       -1.1668345013       -9.6611947999
 C          2.1547642972       -0.1092057018       -7.8105488176
 C          2.3378265795       -0.0445491276       -6.4721738366
 C          3.2404629372        1.0043755709       -5.8936316978
 C          2.6946570987        1.4638919158       -4.5488980164
 C          2.6723292309        0.2661105213       -3.6076038313
 C          3.5624534321       -1.0668345122       -1.0055536844
 O          2.1005229328       -0.5682738101        1.1675371058
 H         -0.3871914366       -1.0108961879       -0.1230702059
 H         -0.3714631125        0.3775725349        0.9545368984
 H         -0.4005703889        0.6106542510       -0.8048786505
 H          2.9169726585        1.4373884421        0.7204155726
 H          1.3461898209        2.1384788785        0.3335257806
 H          3.6736750119        1.7803702144       -1.4783508413
 H          2.2049449574        2.7077151436       -1.7739100029
 H          0.9801579017        0.7815328218       -2.4506324661
 H          1.0408945540       -2.5634734324       -1.3422216620
 H          0.8921143020       -2.7378877627       -3.7090815886
 H          1.6732820088       -2.9043260235       -6.4670281457
 H          0.2170981497       -2.5253448446       -5.5415749131
 H         -0.5186144249       -0.9310139126       -7.2528606808
 H         -0.2301749371       -2.5161725626       -7.9823761388
 H          2.7037220895        0.5547098576       -8.4640665277
 H          3.3335847115        1.8407361440       -6.5879369000
 H          4.2388372864        0.5786162803       -5.7487918083
 H          3.3212515389        2.2535063665       -4.1326673556
 H          1.6846767749        1.8602706118       -4.6777515577
 H          3.7078429811       -0.0600364661       -3.4534725838
 H          3.5326517323       -1.8428471100       -0.2479392122
 H          4.0195471073       -1.5080363331       -1.8855450443
 H          4.1724902293       -0.2471602079       -0.6401953022
 H          2.1064773107        0.1060377254        1.8560692225
  45
    -0.033712 !GC
 C          0.0000000000        0.0000000000        0.0000000000
 C          1.5345191017        0.0000000000        0.0000000000
 C          2.1037953382        1.4321837548        0.0000000000
 C          2.5776834011        1.7528122487       -1.4300496502
 C          2.0406646380        0.5904302203       -2.2610246050
 C          2.1259225807       -0.6093997409       -1.3072253399
 C          1.4318763708       -1.7582975971       -1.9569764744
 C          1.3755132237       -1.8640631594       -3.2909711792
 C          1.9184030805       -0.8917817840       -4.2174394824
 C          1.7725132764       -1.0031593456       -5.5670577004
 C          1.0387353421       -2.1480200490       -6.2230006628
 C          0.3644612979       -1.7419818997       -7.5295625556
 C          1.3476271557       -1.0835748880       -8.4732150182
 O          1.3330449240       -1.2672789885       -9.6740739136
 C          2.2488970855       -0.1575751325       -7.8110841511
 C          2.3900111128       -0.0689285403       -6.4689155436
 C          3.2555461026        1.0073179276       -5.8833895094
 C          2.6806202826        1.4627601770       -4.5498355011
 C          2.6766863428        0.2705116010       -3.6078018801
 C          3.5658086529       -1.0600275151       -1.0078972356
 O          2.1003710654       -0.5686399765        1.1674503864
 H         -0.3870052457       -1.0105274690       -0.1253242427
 H         -0.3715877961        0.3753674742        0.9551942084
 H         -0.4006141181        0.6123523762       -0.8034905887
 H          2.9207983861        1.4354104123        0.7156811603
 H          1.3477316860        2.1370489053        0.3406799639
 H          3.6647323566        1.7937328459       -1.4843773478
 H          2.1875119888        2.7098143486       -1.7736809706
 H          0.9775280080        0.7772299546       -2.4553947579
 H          1.0396346978       -2.5600490495       -1.3436272763
 H          0.9095791214       -2.7427676012       -3.7100739973
 H          1.7633045933       -2.9424916895       -6.4346184276
 H          0.2774066552       -2.5589271528       -5.5612374860
 H         -0.4255415301       -1.0123429573       -7.3260064731
 H         -0.0903441723       -2.6060479083       -8.0160309060
 H          2.8051633387        0.5070679870       -8.4577959305
 H          3.3374036177        1.8408567904       -6.5826123331
 H          4.2625310356        0.6084827866       -5.7220601129
 H          3.2847191926        2.2673463326       -4.1290479843
 H          1.6646539145        1.8372816112       -4.6953861545
 H          3.7161168024       -0.0410279033       -3.4495302619
 H          3.5644903236       -1.8235105826       -0.2332241121
 H          4.0213793782       -1.4688085525       -1.9021705543
 H          4.1719764952       -0.2290585411       -0.6666661766
 H          2.1041398820        0.1048268120        1.8568159125
  45
    -0.029377 !GC
 C          0.0000000000        0.0000000000        0.0000000000
 C          1.5320762816        0.0000000000        0.0000000000
 C          2.0945893311        1.4428570999        0.0000000000
 C          2.5955607540        1.7529880390       -1.4222559160
 C          2.0613622457        0.5947660946       -2.2610312950
 C          2.1244095464       -0.6075926562       -1.3081074646
 C          1.3940745599       -1.7304922329       -1.9651896885
 C          1.4190190835       -1.8628336680       -3.2972034002
 C          2.1073610514       -0.9603726193       -4.1951257488
 C          2.2194305791       -1.1893554633       -5.5329291561
 C          1.6290137946       -2.3869008643       -6.2345749135
 C          2.5618206600       -2.9229260000       -7.3163476558
 C          2.9258877794       -1.8399947195       -8.3092573875
 O          3.0829105659       -2.0617019945       -9.4939663713
 C          3.1275879134       -0.5337936175       -7.7087962709
 C          2.8796719953       -0.2472042486       -6.4092642599
 C          3.2949027699        1.0928439876       -5.8705541202
 C          2.5560131924        1.4435272575       -4.5896487704
 C          2.7206330780        0.2924499768       -3.5991432533
 C          3.5569741101       -1.0937912763       -1.0299530609
 O          1.9956315694       -0.6386572855        1.1724937198
 H         -0.3430494745        0.5476410159       -0.8800341700
 H         -0.3630538473       -1.0200962247       -0.0675289026
 H         -0.4317750775        0.4682392462        0.8795536322
 H          2.8988594494        1.4911778062        0.7324407949
 H          1.3215862860        2.1438947533        0.3101612728
 H          3.6846662534        1.7800132251       -1.4594905828
 H          2.2248990570        2.7148901414       -1.7734091427
 H          1.0018181093        0.7855117589       -2.4683472612
 H          0.8930890806       -2.4680600848       -1.3544458715
 H          0.8903396934       -2.6950669413       -3.7360573852
 H          1.4094873933       -3.1936136018       -5.5379822954
 H          0.6859523719       -2.0803863576       -6.7013306731
 H          2.1072978058       -3.7633894394       -7.8428442181
 H          3.4937088020       -3.2738575310       -6.8616765786
 H          3.5455547005        0.2229589085       -8.3585405636
 H          3.1387013031        1.8581789109       -6.6331863755
 H          4.3704892066        1.0560180596       -5.6641899552
 H          2.9548513112        2.3662763476       -4.1668369942
 H          1.4944651755        1.5937295397       -4.8000429689
 H          3.7946533455        0.1299764423       -3.4479274763
 H          4.1555554977       -0.2577857381       -0.6703590620
 H          3.5838725774       -1.9029014459       -0.3093544669
 H          4.0202911164       -1.4200745520       -1.9563624566
 H          1.5743247181       -1.5023178109        1.2405475062
  45
    -0.029271 !GC
 C          0.0000000000        0.0000000000        0.0000000000
 C          1.5320207687        0.0000000000        0.0000000000
 C          2.0919935453        1.4435152283        0.0000000000
 C          2.5787609078        1.7603390316       -1.4257289927
 C          2.0528305606        0.5963484622       -2.2624955437
 C          2.1246424421       -0.6050384398       -1.3086732103
 C          1.3986074404       -1.7319780157       -1.9638521929
 C          1.4328907993       -1.8694382587       -3.2951193692
 C          2.1243827272       -0.9669776290       -4.1905918922
 C          2.2571904186       -1.2058049494       -5.5246927253
 C          1.7013501993       -2.4229843843       -6.2206961455
 C          2.6590270024       -2.9487802464       -7.2855230594
 C          3.0088825337       -1.8675554699       -8.2856803733
 O          3.1815609279       -2.0969228141       -9.4666940526
 C          3.1758241967       -0.5513204289       -7.6962681680
 C          2.9078742013       -0.2581900414       -6.4022507687
 C          3.2886265181        1.0954449502       -5.8716656872
 C          2.5361414480        1.4391828257       -4.5967719050
 C          2.7174853384        0.2973083260       -3.5985001842
 C          3.5612966060       -1.0808628903       -1.0333388486
 O          1.9958145731       -0.6395441160        1.1720454963
 H         -0.3781301863        0.4905977498        0.8997744677
 H         -0.3176979557        0.5837649199       -0.8610016328
 H         -0.4408555534       -0.9869427455       -0.0574473082
 H          2.9042618843        1.4884136218        0.7236017408
 H          1.3223802049        2.1428548817        0.3220696435
 H          3.6672276539        1.8013713548       -1.4705897210
 H          2.1937948628        2.7178404939       -1.7736861925
 H          0.9922454666        0.7785990859       -2.4718862384
 H          0.8958395490       -2.4680365599       -1.3530105069
 H          0.9148224973       -2.7075600618       -3.7352686626
 H          1.4918421832       -3.2269319657       -5.5176589834
 H          0.7578341958       -2.1428785356       -6.7026290325
 H          2.2314805260       -3.8059260054       -7.8078206115
 H          3.5932533490       -3.2714217893       -6.8153263084
 H          3.5860046264        0.2075170190       -8.3485192316
 H          3.1181503855        1.8506673551       -6.6411984349
 H          4.3637099298        1.0857256627       -5.6601669391
 H          2.9148882730        2.3718915686       -4.1773943340
 H          1.4730999749        1.5677340526       -4.8136369622
 H          3.7937584442        0.1521354042       -3.4452194976
 H          4.1694474330       -0.2747875879       -0.6364959401
 H          3.5432466997       -1.8791151829       -0.2949093841
 H          4.0181965798       -1.4704670935       -1.9388334585
 H          1.5737447633       -1.5030840338        1.2396172067
  45
    -0.028895 !GC
 C          0.0000000000        0.0000000000        0.0000000000
 C          1.5319913721        0.0000000000        0.0000000000
 C          2.0920230841        1.4434033181        0.0000000000
 C          2.5750401384        1.7612888341       -1.4268087470
 C          2.0505941970        0.5961883519       -2.2630099796
 C          2.1250286513       -0.6045328391       -1.3087232033
 C          1.4006150108       -1.7330384734       -1.9628847373
 C          1.4312052394       -1.8696037136       -3.2943758623
 C          2.1178512796       -0.9654175140       -4.1918919867
 C          2.2423496167       -1.2015296863       -5.5274189748
 C          1.6776159551       -2.4153726513       -6.2222968702
 C          2.6205012576       -2.9379957020       -7.3016239611
 C          2.9635238424       -1.8528383262       -8.2997749086
 O          3.1247158704       -2.0770328956       -9.4833539880
 C          3.1423991202       -0.5406226999       -7.7052756832
 C          2.8888236662       -0.2528370771       -6.4071052293
 C          3.2818808436        1.0960251056       -5.8735378519
 C          2.5349822843        1.4413304784       -4.5958172748
 C          2.7142580372        0.2972513026       -3.5995815343
 C          3.5626631252       -1.0780632143       -1.0342630949
 O          1.9952393043       -0.6396503049        1.1722254778
 H         -0.4222847865        0.5255326693       -0.8557597848
 H         -0.3075067255       -1.0451922125       -0.0609947628
 H         -0.4071612353        0.4336190868        0.9037509893
 H          2.9063686517        1.4872889462        0.7213015544
 H          1.3236023581        2.1426221112        0.3250735819
 H          3.6632945311        1.8053912869       -1.4737935051
 H          2.1867379752        2.7176096117       -1.7740921009
 H          0.9896137459        0.7768817856       -2.4717052330
 H          0.9016885373       -2.4708940113       -1.3510739607
 H          0.9132731033       -2.7085343203       -3.7329949697
 H          1.4764636556       -3.2224118538       -5.5203874028
 H          0.7281724252       -2.1325325348       -6.6907157668
 H          2.1830933001       -3.7901440575       -7.8240081287
 H          3.5588072144       -3.2676305240       -6.8446555167
 H          3.5508335091        0.2193008608       -8.3573242287
 H          3.1155888837        1.8550857305       -6.6401979319
 H          4.3572764800        1.0769211591       -5.6644026421
 H          2.9190438695        2.3718254360       -4.1762994661
 H          1.4718445307        1.5746916250       -4.8092468468
 H          3.7902498188        0.1494154514       -3.4469690206
 H          4.0198975074       -1.4187550985       -1.9586173162
 H          4.1597704244       -0.2325117016       -0.6951058464
 H          3.6001317348       -1.8735246188       -0.2991034618
 H          1.5718610027       -1.5024207245        1.2403189703
  45
    -0.028785 !GC
 C          0.0000000000        0.0000000000        0.0000000000
 C          1.5320104231        0.0000000000        0.0000000000
 C          2.0924999107        1.4433141364        0.0000000000
 C          2.5780311126        1.7605101184       -1.4260859593
 C          2.0525583981        0.5959271600       -2.2623575191
 C          2.1246556973       -0.6054112154       -1.3085849726
 C          1.3983383603       -1.7322407700       -1.9635344819
 C          1.4301174350       -1.8687370977       -3.2949315027
 C          2.1204597303       -0.9661154433       -4.1911146013
 C          2.2491438589       -1.2032114987       -5.5259691008
 C          1.6857321060       -2.4164087180       -6.2228291545
 C          2.6366231599       -2.9440718621       -7.2926206451
 C          2.9891375508       -1.8620827150       -8.2909947580
 O          3.1571775877       -2.0894403720       -9.4730485116
 C          3.1650424593       -0.5484322653       -7.6986450776
 C          2.9018877881       -0.2569121165       -6.4033005828
 C          3.2918161215        1.0931570250       -5.8703980724
 C          2.5408195462        1.4392583638       -4.5953228926
 C          2.7174147687        0.2959243638       -3.5980438579
 C          3.5613078714       -1.0811490680       -1.0331385396
 O          1.9956859245       -0.6395256498        1.1720302626
 H         -0.3782009195        0.4912653496        0.8994288225
 H         -0.3178156587        0.5832145589       -0.8613906883
 H         -0.4408824917       -0.9869826052       -0.0568282035
 H          2.9056768127        1.4873466993        0.7226809756
 H          1.3236586374        2.1428879587        0.3234125169
 H          3.6664137985        1.8027665506       -1.4716300145
 H          2.1917362038        2.7175807349       -1.7738212263
 H          0.9919472463        0.7777551013       -2.4721247222
 H          0.8975658185       -2.4694002675       -1.3524358770
 H          0.9122311029       -2.7073140635       -3.7344801739
 H          1.4753941942       -3.2211095324       -5.5209462432
 H          0.7415804027       -2.1309652461       -6.7003894715
 H          2.2024442429       -3.7973624137       -7.8158913491
 H          3.5706853108       -3.2733166802       -6.8265818963
 H          3.5783489152        0.2096484972       -8.3497829118
 H          3.1267268514        1.8508501462       -6.6386121074
 H          4.3667324168        1.0759336796       -5.6582986450
 H          2.9236426320        2.3698777186       -4.1751741471
 H          1.4784523239        1.5729098252       -4.8122663529
 H          3.7930624395        0.1471167068       -3.4438790790
 H          4.0173911546       -1.4724943537       -1.9381590671
 H          4.1693444589       -0.2741429823       -0.6387156563
 H          3.5444674564       -1.8777541588       -0.2930104869
 H          1.5730611072       -1.5027249319        1.2403160245
  45
    -0.027765 !GC
 C          0.0000000000        0.0000000000        0.0000000000
 C          1.5320057550        0.0000000000        0.0000000000
 C          2.0927418303        1.4431899291        0.0000000000
 C          2.5768235675        1.7607860057       -1.4264951922
 C          2.0521205786        0.5959114479       -2.2628660371
 C          2.1246336395       -0.6051393831       -1.3087747068
 C          1.3990162713       -1.7325565367       -1.9635345395
 C          1.4302071790       -1.8689452891       -3.2950351468
 C          2.1198462083       -0.9661592131       -4.1917033674
 C          2.2462031624       -1.2025171981       -5.5270408702
 C          1.6804830275       -2.4152074435       -6.2230623453
 C          2.6247653369       -2.9399454010       -7.3001575153
 C          2.9730154745       -1.8557178835       -8.2975168672
 O          3.1362034042       -2.0804471739       -9.4808036550
 C          3.1529122385       -0.5437780621       -7.7027849798
 C          2.8963911178       -0.2551306920       -6.4053300447
 C          3.2905756025        1.0932731591       -5.8711816984
 C          2.5413088173        1.4400827464       -4.5952295885
 C          2.7169834145        0.2958486370       -3.5985895705
 C          3.5615760459       -1.0806336037       -1.0343048781
 O          1.9952048427       -0.6396173292        1.1722341728
 H         -0.4224287213        0.5224698566       -0.8576353632
 H         -0.3074442806       -1.0454566990       -0.0574646423
 H         -0.4071198905        0.4367164114        0.9023211868
 H          2.9066542493        1.4868067821        0.7218994373
 H          1.3243945576        2.1428688816        0.3243246803
 H          3.6651121816        1.8041349796       -1.4727267662
 H          2.1893977758        2.7174233855       -1.7739921009
 H          0.9914645371        0.7774036232       -2.4726258279
 H          0.8973987429       -2.4691669392       -1.3523564073
 H          0.9087576038       -2.7053106970       -3.7344134320
 H          1.4764410002       -3.2218329361       -5.5215929237
 H          0.7325140017       -2.1306072806       -6.6933247291
 H          2.1864728717       -3.7909105420       -7.8237724554
 H          3.5612052217       -3.2719961956       -6.8411439609
 H          3.5642125925        0.2153175589       -8.3539141616
 H          3.1271185064        1.8524027281       -6.6383772325
 H          4.3655286233        1.0726188365       -5.6596347921
 H          2.9259261864        2.3700940099       -4.1751022690
 H          1.4788556022        1.5751333107       -4.8111205501
 H          3.7925195510        0.1464294323       -3.4442714252
 H          4.1310744800       -0.2370167725       -0.6477983898
 H          3.5689708622       -1.8383909468       -0.2534066069
 H          4.0607246249       -1.4323143152       -1.9278269277
 H          1.5715622318       -1.5022236970        1.2409078775
  45
    -0.027494 !GC
 C          0.0000000000        0.0000000000        0.0000000000
 C          1.5319914983        0.0000000000        0.0000000000
 C          2.0933127149        1.4430278284        0.0000000000
 C          2.5781557607        1.7610890826       -1.4261988678
 C          2.0517602958        0.5970740737       -2.2624921644
 C          2.1241263411       -0.6047688177       -1.3095512336
 C          1.3977204167       -1.7316656904       -1.9645059832
 C          1.4225096189       -1.8644621841       -3.2964776845
 C          2.1065243611       -0.9575483310       -4.1934752214
 C          2.2168302200       -1.1823071574       -5.5321502458
 C          1.6303349866       -2.3819331156       -6.2336004944
 C          2.5570506085       -2.9073056859       -7.3254065046
 C          2.9037993187       -1.8179960936       -8.3176576220
 O          3.0471536987       -2.0328438946       -9.5053398075
 C          3.1068752939       -0.5140900285       -7.7127605317
 C          2.8684865002       -0.2332714994       -6.4100110546
 C          3.2825168303        1.1077606786       -5.8721566468
 C          2.5502901598        1.4586660316       -4.5876177409
 C          2.7131991321        0.2973350799       -3.5955149077
 C          3.5610297969       -1.0814275892       -1.0368671860
 O          1.9949470734       -0.6400783201        1.1720168099
 H         -0.3588733105        0.4639866703        0.9164256536
 H         -0.4010901063        0.5526746116       -0.8433611759
 H         -0.3785358911       -1.0202751703       -0.0458263249
 H          2.9068555854        1.4865424951        0.7222651723
 H          1.3249381679        2.1427652437        0.3239834213
 H          3.6665109372        1.8034503778       -1.4721171539
 H          2.1917565380        2.7182070333       -1.7736677024
 H          0.9909456049        0.7797392221       -2.4703742998
 H          0.9008651789       -2.4710801704       -1.3527032097
 H          0.9014122179       -2.7014197045       -3.7353160755
 H          1.4235262033       -3.1925508807       -5.5376629070
 H          0.6810404587       -2.0815978023       -6.6913605266
 H          2.1044328067       -3.7495711461       -7.8506075228
 H          3.4952222033       -3.2522150073       -6.8795379263
 H          3.5186699733        0.2462615826       -8.3622434163
 H          3.1213849638        1.8724470859       -6.6344350738
 H          4.3592268892        1.0732314599       -5.6716902025
 H          2.9518296242        2.3807764333       -4.1659765261
 H          1.4877271413        1.6096153132       -4.7924680065
 H          3.7877029199        0.1408420635       -3.4417042010
 H          4.1707177324       -0.2368277122       -0.7158503469
 H          3.6092718099       -1.8704666032       -0.2959037645
 H          3.9981387724       -1.4275149216       -1.9684943137
 H          1.5694915874       -1.5016259336        1.2413704749
  45
    -0.027251 !GC
 C          0.0000000000        0.0000000000        0.0000000000
 C          1.5320592492        0.0000000000        0.0000000000
 C          2.0925346035        1.4432986464        0.0000000000
 C          2.5803748083        1.7594876694       -1.4254672329
 C          2.0563534357        0.5952472457       -2.2629842837
 C          2.1257125337       -0.6056050669       -1.3083569446
 C          1.3993741986       -1.7312176575       -1.9651003066
 C          1.4397565851       -1.8711737076       -3.2960878742
 C          2.1402501373       -0.9745200583       -4.1900483757
 C          2.2911848173       -1.2236443273       -5.5207113083
 C          1.7461161250       -2.4477066708       -6.2134789628
 C          2.7276792370       -3.0022974884       -7.2411695002
 C          3.1141085537       -1.9460144411       -8.2541034632
 O          3.3274587784       -2.2039073017       -9.4225787732
 C          3.2637114390       -0.6167409213       -7.6903383337
 C          2.9651259050       -0.2947678415       -6.4097420748
 C          3.3336693616        1.0720020733       -5.9042181216
 C          2.5758072478        1.4377576847       -4.6389849122
 C          2.7263202429        0.2945556969       -3.6012117801
 C          3.5613348310       -1.0837382509       -1.0320336232
 O          1.9953055950       -0.6389474257        1.1725631400
 H         -0.4175170441        0.5440347096       -0.8427976970
 H         -0.3544775460       -1.0253552405       -0.0390179624
 H         -0.3667056361        0.4617183178        0.9168865158
 H          2.9042707133        1.4884664937        0.7243202594
 H          1.3227934476        2.1429359477        0.3212480456
 H          3.6688607204        1.8008867184       -1.4692116471
 H          2.1951557761        2.7166155018       -1.7740509949
 H          0.9963394395        0.7769770748       -2.4756366398
 H          0.8897987639       -2.4641568292       -1.3560570514
 H          0.9180764228       -2.7070161468       -3.7363336325
 H          1.5067413431       -3.2374020412       -5.5039390039
 H          0.8200011401       -2.1664232874       -6.7273914256
 H          2.3071415864       -3.8664368586       -7.7575054422
 H          3.6459697839       -3.3232019315       -6.7392957759
 H          3.6881761266        0.1284181079       -8.3491614460
 H          3.1606341051        1.8100829159       -6.6897811600
 H          4.4083503614        1.0743494117       -5.6900764832
 H          2.9507045535        2.3792525991       -4.2360934304
 H          1.5130261198        1.5589517239       -4.8613194040
 H          3.8028857885        0.1546587648       -3.4450373512
 H          4.0241395886       -1.4155368897       -1.9565549680
 H          4.1387279933       -0.2279113243       -0.6889733227
 H          3.6164103826       -1.8855710099       -0.3023613787
 H          1.5709459232       -1.5011084480        1.2422460228
  45
    -0.026375 !GC
 C          0.0000000000        0.0000000000        0.0000000000
 C          1.5320631604        0.0000000000        0.0000000000
 C          2.0938233545        1.4432406852        0.0000000000
 C          2.5977555413        1.7536387257       -1.4210595402
 C          2.0622630146        0.5963158032       -2.2601634008
 C          2.1239982681       -0.6069910076       -1.3082315384
 C          1.3920839746       -1.7285461269       -1.9661887292
 C          1.4114546023       -1.8567520440       -3.2986024307
 C          2.0950849190       -0.9500904917       -4.1962927746
 C          2.1904510680       -1.1664681616       -5.5369973118
 C          1.5855807680       -2.3508780606       -6.2478133174
 C          2.4930064416       -2.8533536713       -7.3667120507
 C          2.8324664670       -1.7404005720       -8.3352470091
 O          2.9565581266       -1.9266279820       -9.5300198676
 C          3.0558551815       -0.4526453993       -7.7028752256
 C          2.8347895664       -0.2007546272       -6.3915476410
 C          3.2667358299        1.1202346016       -5.8207343227
 C          2.5267818561        1.4460412897       -4.5335705922
 C          2.7192384487        0.2947024903       -3.5946916484
 C          3.5561755381       -1.0944412159       -1.0304360601
 O          1.9952732156       -0.6389684174        1.1725976707
 H         -0.4189063004        0.4745316421        0.8799998446
 H         -0.3229061630        0.5520446919       -0.8831487690
 H         -0.3958019438       -1.0113931019       -0.0648070053
 H          2.8968360575        1.4920631639        0.7336925077
 H          1.3202011395        2.1443390509        0.3083697226
 H          3.6869647136        1.7793076862       -1.4564411427
 H          2.2288586971        2.7161434405       -1.7724211111
 H          1.0028407136        0.7889280618       -2.4667358356
 H          0.8951216778       -2.4689287495       -1.3556231668
 H          0.8859532037       -2.6906153568       -3.7382625203
 H          1.3912488788       -3.1750074085       -5.5642223437
 H          0.6284310111       -2.0406882220       -6.6815726839
 H          2.0274433240       -3.6791168811       -7.9067651325
 H          3.4359598403       -3.2154250886       -6.9449358480
 H          3.4681527561        0.3181995230       -8.3395437497
 H          3.1218217331        1.9061945971       -6.5642770814
 H          4.3408278223        1.0647616964       -5.6114312174
 H          2.9302249055        2.3561565388       -4.0884140775
 H          1.4670196190        1.6083078671       -4.7438979663
 H          3.7915118494        0.1217875969       -3.4428841605
 H          4.0206214504       -1.4236107940       -1.9550758248
 H          4.1370566473       -0.2438311331       -0.6805123148
 H          3.6046611917       -1.9005638462       -0.3050106650
 H          1.5715154095       -1.5014649396        1.2415115558
  45
    -0.025876 !GC
 C          0.0000000000        0.0000000000        0.0000000000
 C          1.5318650802        0.0000000000        0.0000000000
 C          2.0922883225        1.4430268084        0.0000000000
 C          2.5697665258        1.7636788143       -1.4280004313
 C          2.0497279276        0.5967103536       -2.2646039434
 C          2.1246609549       -0.6039594281       -1.3102701867
 C          1.4005896816       -1.7320737999       -1.9651744270
 C          1.4377029651       -1.8711481742       -3.2963678435
 C          2.1316421912       -0.9720018534       -4.1928897703
 C          2.2756860992       -1.2199835889       -5.5243369673
 C          1.7260318103       -2.4405610424       -6.2191799370
 C          2.6982026039       -2.9768576409       -7.2654912875
 C          3.0692444258       -1.9051381691       -8.2682619833
 O          3.2672535538       -2.1461471345       -9.4430139927
 C          3.2249344294       -0.5834908850       -7.6882434087
 C          2.9362915544       -0.2790867604       -6.4011256424
 C          3.3060831727        1.0795456025       -5.8759074398
 C          2.5377063519        1.4270695405       -4.6115748986
 C          2.7203543212        0.2965078614       -3.6050786151
 C          3.5627966525       -1.0776684372       -1.0385664313
 O          1.9945944001       -0.6400923715        1.1721634460
 H         -0.3389341374        0.5583624821       -0.8748003725
 H         -0.3728325365       -1.0155539192       -0.0738334415
 H         -0.4256529263        0.4590687785        0.8875075962
 H          2.9097088147        1.4853258686        0.7178675713
 H          1.3256953569        2.1418756440        0.3298036735
 H          3.6576435847        1.8137489988       -1.4774219989
 H          2.1756670151        2.7181627440       -1.7738868836
 H          0.9890153902        0.7742140563       -2.4771599218
 H          0.8956106611       -2.4669605206       -1.3547079257
 H          0.9171996224       -2.7081713515       -3.7358262254
 H          1.5027143454       -3.2388074549       -5.5141294683
 H          0.7911780356       -2.1606569434       -6.7176778806
 H          2.2750451706       -3.8355660870       -7.7887275066
 H          3.6233051706       -3.3010701852       -6.7785357637
 H          3.6443125474        0.1700335431       -8.3407558693
 H          3.1406451140        1.8292233016       -6.6519783782
 H          4.3787341167        1.0757121547       -5.6522447451
 H          2.9047367276        2.3660539345       -4.1957970241
 H          1.4762248760        1.5458745041       -4.8411915326
 H          3.7963246002        0.1532502762       -3.4480898319
 H          4.1732769643       -0.2299735886       -0.7272988116
 H          3.6138990932       -1.8600851884       -0.2907866218
 H          3.9964878368       -1.4319990145       -1.9688047780
 H          1.5697446672       -1.5019806944        1.2409245660
  45
    -0.025851 !GC
 C          0.0000000000        0.0000000000        0.0000000000
 C          1.5320684593        0.0000000000        0.0000000000
 C          2.0940203931        1.4430630040        0.0000000000
 C          2.5967711266        1.7534171705       -1.4215353513
 C          2.0601470993        0.5963239720       -2.2601763501
 C          2.1234422646       -0.6069082205       -1.3083684169
 C          1.3915878611       -1.7290997902       -1.9652543644
 C          1.4075620631       -1.8566428752       -3.2977574570
 C          2.0867352526       -0.9481441508       -4.1971731705
 C          2.1732295318       -1.1600904481       -5.5391996981
 C          1.5627658724       -2.3404799228       -6.2519039860
 C          2.4571594316       -2.8285436252       -7.3874211610
 C          2.7816908663       -1.7041631948       -8.3477110170
 O          2.8867738219       -1.8763125651       -9.5463266638
 C          3.0149513318       -0.4234384371       -7.7044582651
 C          2.8093135246       -0.1847268286       -6.3883143659
 C          3.2484782920        1.1296496095       -5.8081528679
 C          2.5113042212        1.4466314789       -4.5170761261
 C          2.7139733549        0.2949670290       -3.5951147948
 C          3.5560778375       -1.0934302959       -1.0313464519
 O          1.9957740054       -0.6389181392        1.1724255665
 H         -0.3855075136        0.4682311067        0.9073357083
 H         -0.3852308311        0.5454612454       -0.8532760267
 H         -0.3681407682       -1.0226724105       -0.0361667116
 H          2.8974840563        1.4916484694        0.7330969028
 H          1.3208389894        2.1440317678        0.3092213886
 H          3.6858552985        1.7789244679       -1.4583271249
 H          2.2277480580        2.7159989490       -1.7724137226
 H          1.0004309367        0.7893062715       -2.4648951693
 H          0.8982032222       -2.4709766399       -1.3535462875
 H          0.8814161584       -2.6906487356       -3.7362546514
 H          1.3821175456       -3.1716431665       -5.5731027825
 H          0.5981360038       -2.0315727004       -6.6695820754
 H          1.9863110414       -3.6494427811       -7.9302283907
 H          3.4061038285       -3.1932044004       -6.9816696424
 H          3.4196950520        0.3534017732       -8.3385968483
 H          3.1059294679        1.9223335538       -6.5448947195
 H          4.3224978849        1.0677718725       -5.6005481251
 H          2.9170851662        2.3525505656       -4.0655287669
 H          1.4516135549        1.6125691467       -4.7247341338
 H          3.7861517197        0.1197681100       -3.4455493842
 H          4.1864250616       -0.3087811269       -0.6226343928
 H          3.5093047180       -1.8954570238       -0.3007612927
 H          4.0107182972       -1.4809410648       -1.9391538160
 H          1.5717143777       -1.5010684296        1.2417136901
  45
    -0.023081 !GC
 C          0.0000000000        0.0000000000        0.0000000000
 C          1.5320457495        0.0000000000        0.0000000000
 C          2.0945227650        1.4431296487        0.0000000000
 C          2.6028422101        1.7517853700       -1.4198858279
 C          2.0619339895        0.5971875835       -2.2590122782
 C          2.1228657189       -0.6071490110       -1.3085277942
 C          1.3896523958       -1.7284589387       -1.9656551901
 C          1.3952913491       -1.8502432271       -3.2986436451
 C          2.0655237631       -0.9361272363       -4.1993117359
 C          2.1266148751       -1.1329535227       -5.5446030996
 C          1.4874600740       -2.2946234596       -6.2622982599
 C          2.3498423209       -2.7650753097       -7.4298030069
 C          2.6630187008       -1.6216928444       -8.3715567531
 O          2.7350365292       -1.7669210507       -9.5761355962
 C          2.9289413469       -0.3591288361       -7.7055304473
 C          2.7534912202       -0.1473173415       -6.3804925038
 C          3.2220091017        1.1462427318       -5.7775283260
 C          2.4955688877        1.4505878800       -4.4770947189
 C          2.7102528486        0.2956029916       -3.5923914859
 C          3.5544750262       -1.0964076095       -1.0310217181
 O          1.9954635362       -0.6392928468        1.1722456372
 H         -0.4190998383        0.4746598332        0.8800527338
 H         -0.3224168231        0.5523269484       -0.8833735054
 H         -0.3956092590       -1.0115171123       -0.0649248905
 H          2.8950985100        1.4927752806        0.7362193136
 H          1.3200328203        2.1447566604        0.3047560433
 H          3.6921691452        1.7717128984       -1.4533704405
 H          2.2396840393        2.7162698586       -1.7717010167
 H          1.0022869695        0.7938840017       -2.4607890797
 H          0.9029893686       -2.4741704974       -1.3532012732
 H          0.8687783974       -2.6840978374       -3.7372555767
 H          1.3184137042       -3.1378567792       -5.5955237909
 H          0.5149701996       -1.9698372143       -6.6485466150
 H          1.8583017750       -3.5688134722       -7.9799127845
 H          3.3046725741       -3.1477316707       -7.0556957551
 H          3.3328113178        0.4256220536       -8.3304481480
 H          3.0913288685        1.9565014293       -6.4971163479
 H          4.2953552739        1.0590388396       -5.5758046050
 H          2.9163851966        2.3422093217       -4.0110665193
 H          1.4374988533        1.6357665487       -4.6768842232
 H          3.7802477575        0.1058940703       -3.4451441518
 H          4.1081600395       -0.2521779776       -0.6280701315
 H          3.5490821075       -1.8641137864       -0.2595452812
 H          4.0785903990       -1.4409283772       -1.9146915914
 H          1.5736520602       -1.5028335503        1.2397464681
  45
    -0.017655 !GC
 C          0.0000000000        0.0000000000        0.0000000000
 C          1.5318669727        0.0000000000        0.0000000000
 C          2.1020140919        1.4307675304        0.0000000000
 C          2.5914703059        1.7477819940       -1.4239548410
 C          2.0545636671        0.5915487727       -2.2640914269
 C          2.1223656004       -0.6142036321       -1.3156327108
 C          1.3952967304       -1.7362354130       -1.9792883415
 C          1.4159281748       -1.8614129760       -3.3122032190
 C          2.0998877616       -0.9527528538       -4.2065814174
 C          2.2142961992       -1.1781893967       -5.5445579660
 C          1.6371801368       -2.3799680919       -6.2493581840
 C          2.5780034271       -2.9031336600       -7.3303683401
 C          2.9351574432       -1.8126364749       -8.3175442682
 O          3.1035583997       -2.0284074821       -9.5015368279
 C          3.1167477940       -0.5055266317       -7.7115337362
 C          2.8621209390       -0.2274697758       -6.4116801072
 C          3.2583178515        1.1154567631       -5.8657521266
 C          2.5182470335        1.4476735396       -4.5804877911
 C          2.7076707064        0.3006737149       -3.6067874641
 C          3.5585721438       -1.0906198887       -1.0386110074
 O          1.9988914055       -0.5386484467        1.2182552712
 H         -0.3721609101        0.3906017967        0.9467768204
 H         -0.3831788043        0.6187877579       -0.8027668692
 H         -0.3821499620       -1.0121997851       -0.1251092153
 H          2.9059251942        1.4548084826        0.7316963153
 H          1.3385204328        2.1314082557        0.3288652803
 H          3.6800853593        1.7804046404       -1.4704121541
 H          2.2131184119        2.7089620321       -1.7680645551
 H          0.9933676942        0.7798164481       -2.4648422750
 H          0.8961078179       -2.4869610780       -1.3800210286
 H          0.8914278031       -2.6950431417       -3.7537331066
 H          1.4255470779       -3.1904509744       -5.5546142385
 H          0.6920956525       -2.0829341121       -6.7177346082
 H          2.1338293117       -3.7460908491       -7.8615619466
 H          3.5115996947       -3.2461560061       -6.8735627531
 H          3.5274840682        0.2587971843       -8.3569617491
 H          3.0883527580        1.8825791235       -6.6234763312
 H          4.3349077912        1.0940911175       -5.6627633340
 H          2.9066886112        2.3720145976       -4.1518449231
 H          1.4544152781        1.5861454042       -4.7869721726
 H          3.7843396063        0.1465258751       -3.4648555539
 H          4.1041215755       -0.2634528585       -0.5879782420
 H          3.5571982256       -1.8919427674       -0.3020151856
 H          4.0983940942       -1.3854664732       -1.9306440241
 H          2.8873199906       -0.8889634780        1.0879378027
  45
    -0.016198 !GC
 C          0.0000000000        0.0000000000        0.0000000000
 C          1.5318324033        0.0000000000        0.0000000000
 C          2.1033419990        1.4306686591        0.0000000000
 C          2.6109589378        1.7397066844       -1.4191035328
 C          2.0638360272        0.5906219659       -2.2617240807
 C          2.1200284951       -0.6172218727       -1.3151207909
 C          1.3843168690       -1.7324110588       -1.9811402884
 C          1.3963293871       -1.8511015792       -3.3147316603
 C          2.0816551710       -0.9428113180       -4.2087127453
 C          2.1757307106       -1.1561584050       -5.5500576685
 C          1.5619302982       -2.3363003399       -6.2605050438
 C          2.4786547057       -2.8716055970       -7.3562374685
 C          2.8510263983       -1.7810068476       -8.3378986768
 O          3.0035384967       -1.9909618314       -9.5249530770
 C          3.0695411858       -0.4836064170       -7.7232296839
 C          2.8350581270       -0.2113094339       -6.4184556246
 C          3.2678081506        1.1164763255       -5.8638053842
 C          2.5434582083        1.4547971317       -4.5710958128
 C          2.7118008434        0.2962714773       -3.6028455045
 C          3.5515328515       -1.1068657434       -1.0365589476
 O          1.9989563051       -0.5379861957        1.2186078072
 H         -0.4180943031        0.4062575241        0.9140485399
 H         -0.3371363479        0.6146175636       -0.8372889342
 H         -0.3809458382       -1.0076506648       -0.1393734085
 H          2.8972083781        1.4590440061        0.7424773383
 H          1.3352917971        2.1333378962        0.3138908515
 H          3.7002705406        1.7554788051       -1.4557597284
 H          2.2504630040        2.7063080322       -1.7670542701
 H          1.0042643405        0.7901776597       -2.4606061054
 H          0.8843018111       -2.4833514472       -1.3829301419
 H          0.8648476805       -2.6795395849       -3.7576184804
 H          1.3360834742       -3.1483712771       -5.5722026024
 H          0.6204852513       -2.0101886252       -6.7170357160
 H          2.0083108634       -3.6985837347       -7.8900985766
 H          3.4084312893       -3.2414145699       -6.9127302690
 H          3.4916825956        0.2763871827       -8.3663865505
 H          3.1123323612        1.8943548260       -6.6136177758
 H          4.3446717612        1.0666551917       -5.6674091380
 H          2.9552949184        2.3667089230       -4.1377458731
 H          1.4817864524        1.6187762222       -4.7697276000
 H          3.7855042042        0.1227744978       -3.4616819859
 H          4.1647532105       -0.3369148567       -0.5774074942
 H          3.5144022731       -1.9477211065       -0.3482295440
 H          4.0270497259       -1.4449642239       -1.9532777080
 H          2.8870187283       -0.8890183853        1.0879580936
  45
    -0.014662 !GC
 C          0.0000000000        0.0000000000        0.0000000000
 C          1.5319132755        0.0000000000        0.0000000000
 C          2.1028920205        1.4306411159        0.0000000000
 C          2.6041968039        1.7433734543       -1.4207211100
 C          2.0584627425        0.5923874004       -2.2618276412
 C          2.1212458161       -0.6152590745       -1.3155615588
 C          1.3894914353       -1.7341443226       -1.9795292377
 C          1.3938367658       -1.8508277019       -3.3132449413
 C          2.0646787434       -0.9349204049       -4.2108541384
 C          2.1358756385       -1.1353929020       -5.5553571186
 C          1.5132029140       -2.3072317959       -6.2713361067
 C          2.3956456192       -2.7925259969       -7.4174468803
 C          2.7173174157       -1.6645516502       -8.3742874153
 O          2.8148423081       -1.8306584844       -9.5741101249
 C          2.9599328805       -0.3878861823       -7.7255400273
 C          2.7679942672       -0.1565183959       -6.4062533159
 C          3.2173725327        1.1524080274       -5.8216204194
 C          2.4961502590        1.4635105640       -4.5200415735
 C          2.7006281777        0.3006711620       -3.6031195490
 C          3.5551614394       -1.0991240370       -1.0390490228
 O          1.9989305819       -0.5385456676        1.2184013778
 H         -0.3709289410        0.3966783199        0.9447216060
 H         -0.3842504801        0.6135322271       -0.8061783704
 H         -0.3822560835       -1.0130299635       -0.1175729006
 H          2.8999493841        1.4577456855        0.7388610121
 H          1.3363036019        2.1320815354        0.3191336940
 H          3.6932559132        1.7642940518       -1.4616018319
 H          2.2380238345        2.7086010869       -1.7666739085
 H          0.9976988139        0.7889673059       -2.4574094161
 H          0.8999682627       -2.4903278318       -1.3791314457
 H          0.8655343155       -2.6826745364       -3.7535688268
 H          1.3335541478       -3.1421782571       -5.5968994876
 H          0.5468884894       -1.9899741227       -6.6789651582
 H          1.9166792255       -3.6082408208       -7.9608330161
 H          3.3463100999       -3.1635240438       -7.0216920559
 H          3.3607600782        0.3914068297       -8.3589713458
 H          3.0687818295        1.9504849365       -6.5511838322
 H          4.2936065984        1.0861268319       -5.6270653538
 H          2.9105831274        2.3645369017       -4.0668100190
 H          1.4348228404        1.6349521759       -4.7142281930
 H          3.7740598996        0.1225197687       -3.4658811805
 H          4.1675728993       -0.3256738399       -0.5852140989
 H          3.5226589884       -1.9369323026       -0.3469284767
 H          4.0293138132       -1.4395954782       -1.9554811094
 H          2.8863420295       -0.8906531658        1.0869457823
  45
    -0.013182 !GC
 C          0.0000000000        0.0000000000        0.0000000000
 C          1.5318163803        0.0000000000        0.0000000000
 C          2.1031402212        1.4308175674        0.0000000000
 C          2.6108303667        1.7404947514       -1.4190568784
 C          2.0615048798        0.5921339634       -2.2611502388
 C          2.1197603709       -0.6163908029       -1.3156570424
 C          1.3858439250       -1.7333036307       -1.9807549076
 C          1.3858277109       -1.8466875805       -3.3146652440
 C          2.0550823922       -0.9292925358       -4.2120537096
 C          2.1150752287       -1.1221778206       -5.5578993510
 C          1.4774092437       -2.2830429862       -6.2781248544
 C          2.3425301687       -2.7554237186       -7.4428172627
 C          2.6587740929       -1.6133080451       -8.3849458863
 O          2.7396104684       -1.7601642539       -9.5885877368
 C          2.9192768806       -0.3493020110       -7.7185599753
 C          2.7417969023       -0.1374545988       -6.3939517603
 C          3.2067300875        1.1576207924       -5.7914991437
 C          2.4870215231        1.4574840395       -4.4863424617
 C          2.7017215251        0.2991049400       -3.6011022290
 C          3.5516435632       -1.1048629046       -1.0374060414
 O          1.9988873538       -0.5386565661        1.2182689225
 H         -0.4181874382        0.4035651989        0.9151847241
 H         -0.3373950185        0.6171420148       -0.8354424763
 H         -0.3808794524       -1.0073086701       -0.1423973550
 H          2.8969213524        1.4592311224        0.7424587509
 H          1.3350476287        2.1332595476        0.3139234486
 H          3.7001539895        1.7553388450       -1.4560495343
 H          2.2510671301        2.7076254870       -1.7663709296
 H          1.0013566789        0.7928590251       -2.4559769471
 H          0.8970102883       -2.4902450913       -1.3807414311
 H          0.8548197723       -2.6764439077       -3.7557705912
 H          1.3052369239       -3.1260706763       -5.6119007363
 H          0.5064563727       -1.9576695124       -6.6676573616
 H          1.8519802757       -3.5594491356       -7.9933448621
 H          3.2961317387       -3.1379418152       -7.0654320543
 H          3.3229723210        0.4360330320       -8.3428598012
 H          3.0677884295        1.9679073425       -6.5094345989
 H          4.2818098999        1.0758044774       -5.5966636821
 H          2.9085225070        2.3490084094       -4.0211454007
 H          1.4273080132        1.6402837840       -4.6791279793
 H          3.7734166425        0.1109804146       -3.4636479383
 H          4.1035462226       -0.2848292523       -0.5818130082
 H          3.5427173702       -1.9097892791       -0.3050157595
 H          4.0911570426       -1.3997505997       -1.9295304040
 H          2.8872225577       -0.8889554146        1.0877213321
  45
    -0.012801 !GC
 C          0.0000000000        0.0000000000        0.0000000000
 C          1.5319184483        0.0000000000        0.0000000000
 C          2.1013275894        1.4309291306        0.0000000000
 C          2.5850194987        1.7501975509       -1.4254553422
 C          2.0515493575        0.5916597423       -2.2649246765
 C          2.1229929549       -0.6134720194       -1.3159997416
 C          1.3981824764       -1.7374125341       -1.9786170134
 C          1.4222561854       -1.8650846352       -3.3113052216
 C          2.1078296753       -0.9576624471       -4.2056127598
 C          2.2322746693       -1.1894746639       -5.5418108598
 C          1.6683231528       -2.4002497528       -6.2422226746
 C          2.6238982437       -2.9351197803       -7.3043602191
 C          2.9879753404       -1.8589737233       -8.3044819182
 O          3.1716633944       -2.0928299826       -9.4827227090
 C          3.1565519444       -0.5417022426       -7.7171810710
 C          2.8889663976       -0.2447101827       -6.4240791797
 C          3.2746388119        1.1090286158       -5.8972204723
 C          2.5347990185        1.4553026642       -4.6156995239
 C          2.7066569325        0.3015966265       -3.6090060780
 C          3.5609312924       -1.0864881259       -1.0413946793
 O          1.9989772123       -0.5388163866        1.2181701799
 H         -0.3722142852        0.3881825940        0.9477392871
 H         -0.3834551004        0.6206495905       -0.8010838271
 H         -0.3820868251       -1.0118561556       -0.1275354036
 H          2.9081075672        1.4538783365        0.7284883298
 H          1.3390932991        2.1307818619        0.3332385429
 H          3.6733832456        1.7882680690       -1.4750257957
 H          2.2011409014        2.7097052000       -1.7682341015
 H          0.9898752593        0.7762985642       -2.4663376972
 H          0.8972790144       -2.4868324283       -1.3792914080
 H          0.8989246570       -2.6996379797       -3.7523118428
 H          1.4475255281       -3.2030070796       -5.5413597557
 H          0.7293128088       -2.1101193427       -6.7269459581
 H          2.1896299895       -3.7880693821       -7.8277243978
 H          3.5534554007       -3.2670902215       -6.8314132058
 H          3.5687411288        0.2147505183       -8.3707264044
 H          3.0972505052        1.8635772835       -6.6658070354
 H          4.3518721894        1.0993899594       -5.6964788202
 H          2.9197591801        2.3870386980       -4.2000985633
 H          1.4700343595        1.5862767987       -4.8222646592
 H          3.7844205142        0.1554696969       -3.4668278302
 H          4.0369710782       -1.3707989741       -1.9744731627
 H          4.1369169933       -0.2486433697       -0.6509415730
 H          3.6182616647       -1.9191822634       -0.3476353285
 H          2.8871752414       -0.8896511291        1.0874986737
  45
    -0.011391 !GC
 C          0.0000000000        0.0000000000        0.0000000000
 C          1.5318349266        0.0000000000        0.0000000000
 C          2.1023213281        1.4308436275        0.0000000000
 C          2.6032714917        1.7435475655       -1.4206801489
 C          2.0627554897        0.5909296186       -2.2630681362
 C          2.1216391278       -0.6158499883       -1.3151761786
 C          1.3886369494       -1.7325700578       -1.9814929879
 C          1.4138757562       -1.8577394576       -3.3144079329
 C          2.1100191906       -0.9554025974       -4.2057363216
 C          2.2353376199       -1.1863570443       -5.5419740650
 C          1.6562061328       -2.3882307197       -6.2454568067
 C          2.6108441353       -2.9423418582       -7.2985132893
 C          3.0005389280       -1.8748398554       -8.2984987513
 O          3.1944150727       -2.1154408040       -9.4737091130
 C          3.1800070900       -0.5580331156       -7.7133942545
 C          2.9070122041       -0.2552361292       -6.4227548931
 C          3.3045653153        1.0951413285       -5.8962050973
 C          2.5664738675        1.4495847652       -4.6159238145
 C          2.7189870592        0.2971183557       -3.6057545502
 C          3.5547527856       -1.1015398681       -1.0375882169
 O          1.9988265390       -0.5377063020        1.2188325914
 H         -0.4179572090        0.4065113410        0.9139361349
 H         -0.3370239522        0.6144073205       -0.8374687222
 H         -0.3811223822       -1.0076336246       -0.1391967335
 H          2.8997147098        1.4579775719        0.7387281318
 H          1.3355985549        2.1323718224        0.3195842526
 H          3.6924153740        1.7672873264       -1.4605006933
 H          2.2347404212        2.7076626215       -1.7672879036
 H          1.0029713600        0.7848678891       -2.4660575138
 H          0.8804397758       -2.4790820976       -1.3847173463
 H          0.8845076234       -2.6869667342       -3.7581403681
 H          1.4142574243       -3.1856447763       -5.5455555097
 H          0.7272649543       -2.0813564658       -6.7394829125
 H          2.1657892881       -3.7888804318       -7.8232385461
 H          3.5307907695       -3.2891192294       -6.8174459600
 H          3.6064272015        0.1921177851       -8.3652702448
 H          3.1360677318        1.8508363167       -6.6657640808
 H          4.3813724428        1.0749786912       -5.6938013518
 H          2.9606547006        2.3774255195       -4.2003245857
 H          1.5034317615        1.5913862794       -4.8239048091
 H          3.7949112345        0.1409517760       -3.4606219661
 H          4.0501875265       -1.4472205273       -1.9424531276
 H          4.1496968973       -0.3168108358       -0.5833995604
 H          3.5182386502       -1.9370011563       -0.3423755403
 H          2.8877570027       -0.8868401123        1.0888052886
  45
    -0.010988 !GC
 C          0.0000000000        0.0000000000        0.0000000000
 C          1.5320244275        0.0000000000        0.0000000000
 C          2.1035603921        1.4307950720        0.0000000000
 C          2.6169669617        1.7374478190       -1.4174636595
 C          2.0665576601        0.5905676645       -2.2606510328
 C          2.1201197708       -0.6178799877       -1.3148016867
 C          1.3837080480       -1.7321321203       -1.9817141920
 C          1.3912366954       -1.8477585648       -3.3155761587
 C          2.0728307723       -0.9368096727       -4.2098904149
 C          2.1534949907       -1.1418212017       -5.5532807325
 C          1.5249584970       -2.3120132624       -6.2669771230
 C          2.4241327004       -2.8362938696       -7.3825156099
 C          2.7878272035       -1.7333602178       -8.3537049516
 O          2.9221585748       -1.9269588329       -9.5457086255
 C          3.0224413670       -0.4459389199       -7.7239285053
 C          2.8051223003       -0.1903619606       -6.4129050253
 C          3.2520174071        1.1263124654       -5.8436425135
 C          2.5333939279        1.4540816415       -4.5448319673
 C          2.7114266637        0.2965689323       -3.6012402164
 C          3.5503937510       -1.1099130198       -1.0349671518
 O          1.9993257140       -0.5374657813        1.2187311411
 H         -0.4039360722        0.5808783588       -0.8262621084
 H         -0.3064650076       -1.0395371799       -0.1272536429
 H         -0.4256095211        0.3776252354        0.9217618003
 H          2.8943878567        1.4606962929        0.7456084297
 H          1.3341428177        2.1340794698        0.3092844366
 H          3.7064313895        1.7479991681       -1.4512827844
 H          2.2618133749        2.7056646469       -1.7663901865
 H          1.0071821358        0.7932998589       -2.4577244384
 H          0.8868705532       -2.4851617308       -1.3835060732
 H          0.8583880977       -2.6750646644       -3.7589103233
 H          1.3077871179       -3.1314182716       -5.5846633768
 H          0.5775627625       -1.9781960460       -6.7051894084
 H          1.9425805002       -3.6536438018       -7.9213011817
 H          3.3583672662       -3.2163338583       -6.9574441960
 H          3.4428682536        0.3197703023       -8.3614100007
 H          3.1018036937        1.9147734520       -6.5834114156
 H          4.3286975057        1.0640488324       -5.6501714201
 H          2.9514667627        2.3584957201       -4.1018297115
 H          1.4723102844        1.6265587140       -4.7390349533
 H          3.7841706569        0.1159539618       -3.4623086583
 H          4.1612290398       -0.3441831407       -0.5657933342
 H          3.5100456063       -1.9572515331       -0.3547797947
 H          4.0300621310       -1.4394186239       -1.9526203740
 H          2.8884800452       -0.8865979818        1.0885747076
  45
    -0.010047 !GC
 C          0.0000000000        0.0000000000        0.0000000000
 C          1.5318491834        0.0000000000        0.0000000000
 C          2.1033838508        1.4306447856        0.0000000000
 C          2.6119233480        1.7403349642       -1.4187111643
 C          2.0634842759        0.5918528926       -2.2612138207
 C          2.1206617090       -0.6163604739       -1.3151850675
 C          1.3860600296       -1.7323842270       -1.9810218792
 C          1.3925252430       -1.8485142676       -3.3147484113
 C          2.0690939678       -0.9349267736       -4.2102676520
 C          2.1453964887       -1.1371239294       -5.5541786622
 C          1.5196406642       -2.3071530239       -6.2703194860
 C          2.4098021318       -2.8061922705       -7.4045708373
 C          2.7511401332       -1.6854540644       -8.3632878290
 O          2.8658122757       -1.8589517540       -9.5605351443
 C          2.9888542082       -0.4065126866       -7.7173645480
 C          2.7836350516       -0.1703281478       -6.4008064795
 C          3.2303002542        1.1395266597       -5.8161034151
 C          2.5051422099        1.4525435904       -4.5172030375
 C          2.7077027781        0.2985211099       -3.6012462274
 C          3.5522573257       -1.1050229695       -1.0358236489
 O          1.9984629170       -0.5383590995        1.2185921015
 H         -0.3714401569        0.4004654442        0.9430043767
 H         -0.3837021899        0.6102779102       -0.8089874638
 H         -0.3820878940       -1.0136562616       -0.1136701845
 H          2.8968152266        1.4593040002        0.7428470761
 H          1.3351556317        2.1331763990        0.3134933828
 H          3.7012500331        1.7552088787       -1.4549660231
 H          2.2522641290        2.7073389437       -1.7664674134
 H          1.0036363380        0.7919834687       -2.4581578054
 H          0.8923920707       -2.4869058037       -1.3818394220
 H          0.8626746900       -2.6785335019       -3.7569951642
 H          1.3247847155       -3.1372097092       -5.5939709898
 H          0.5610372081       -1.9820116815       -6.6901322179
 H          1.9298572863       -3.6207452481       -7.9491955747
 H          3.3530495692       -3.1829257881       -6.9967459538
 H          3.3989486473        0.3698119746       -8.3486522858
 H          3.0839175268        1.9366463743       -6.5471920245
 H          4.3059172912        1.0739333907       -5.6181549068
 H          2.9189777445        2.3535148755       -4.0634940520
 H          1.4445423814        1.6243239610       -4.7146394752
 H          3.7804605648        0.1176591297       -3.4619263729
 H          3.9798981905       -1.4269461930       -1.9857511907
 H          4.1966248987       -0.3322377767       -0.6242378186
 H          3.5509570679       -1.9796939706       -0.3973547626
 H          2.8868738219       -0.8886309269        1.0883874710
  45
    -0.009956 !GC
 C          0.0000000000        0.0000000000        0.0000000000
 C          1.5347579334        0.0000000000        0.0000000000
 C          2.0889334682        1.4458940978        0.0000000000
 C          2.5339969151        1.7748052133       -1.4375028491
 C          2.0396454769        0.5909140580       -2.2667671993
 C          2.1332037140       -0.6002702816       -1.3020592948
 C          1.4352401916       -1.7485465044       -1.9481905627
 C          1.4818069404       -1.8990946430       -3.2778502545
 C          2.1577521100       -0.9891034928       -4.1777975750
 C          2.2949631968       -1.2304176296       -5.5110088556
 C          1.7522681812       -2.4517460773       -6.2098564754
 C          2.7082513536       -2.9489240022       -7.2896182357
 C          3.0359985249       -1.8491841485       -8.2775463155
 O          3.1976804887       -2.0614984166       -9.4634719204
 C          3.1976897888       -0.5395717241       -7.6736638344
 C          2.9311526647       -0.2619873436       -6.3757883247
 C          3.3008831411        1.0882728468       -5.8302262563
 C          2.5225392921        1.4185454082       -4.5671436650
 C          2.7272648765        0.2872190122       -3.5889088546
 C          3.5773319270       -1.0386316797       -1.0112470665
 O          2.0976258034       -0.6636947556        1.1203090294
 H         -0.4060202718        0.5078745561       -0.8740960966
 H         -0.3201506081       -1.0444688693       -0.0498593179
 H         -0.4332561803        0.4388514747        0.8923854489
 H          2.9282254843        1.4666865230        0.6915706011
 H          1.3324115077        2.1459309145        0.3538053820
 H          3.6184363145        1.8565940964       -1.5003829401
 H          2.1059968005        2.7158593512       -1.7809849927
 H          0.9777726653        0.7471962128       -2.4919372825
 H          0.9487772522       -2.4916513402       -1.3328708352
 H          0.9855835504       -2.7531802324       -3.7127641133
 H          1.5667515267       -3.2657472985       -5.5118947320
 H          0.7977476916       -2.1861403264       -6.6778422558
 H          2.2877419262       -3.8042000052       -7.8207180775
 H          3.6508350030       -3.2662629622       -6.8326125187
 H          3.6005045603        0.2290828231       -8.3189886166
 H          3.1434276224        1.8492285971       -6.5968825548
 H          4.3714038781        1.0782305123       -5.5974140712
 H          2.8841020153        2.3526707261       -4.1360279524
 H          1.4624228946        1.5383215301       -4.8033064128
 H          3.8008059887        0.1521300784       -3.4118412213
 H          4.0228678198       -1.5247815234       -1.8736895316
 H          4.1889342652       -0.2006457801       -0.6948924897
 H          3.5441108964       -1.7721780219       -0.2143085049
 H          3.0518480601       -0.6953373272        0.9918164559
  45
    -0.009834 !GC
 C          0.0000000000        0.0000000000        0.0000000000
 C          1.5318504450        0.0000000000        0.0000000000
 C          2.1033975492        1.4305769131        0.0000000000
 C          2.6062731279        1.7425272707       -1.4203345671
 C          2.0597827836        0.5922059558       -2.2617996026
 C          2.1206445140       -0.6155603157       -1.3155264932
 C          1.3882384221       -1.7337010183       -1.9802319774
 C          1.3927812095       -1.8497127120       -3.3139718030
 C          2.0650574301       -0.9340514981       -4.2106452233
 C          2.1372026151       -1.1344598746       -5.5549971006
 C          1.5114236449       -2.3042879702       -6.2713456256
 C          2.3958169553       -2.7937779063       -7.4141546191
 C          2.7267082298       -1.6662372823       -8.3686176545
 O          2.8317702269       -1.8320269136       -9.5678550674
 C          2.9665393436       -0.3905805651       -7.7170896199
 C          2.7685488328       -0.1616839860       -6.3981672461
 C          3.2159615734        1.1457119066       -5.8085752215
 C          2.4917734399        1.4526869583       -4.5076323828
 C          2.7030547057        0.2999506199       -3.6020086393
 C          3.5537928405       -1.1003882843       -1.0372374592
 O          1.9986105176       -0.5387926369        1.2183096342
 H         -0.3415725703        0.6178302959       -0.8329361049
 H         -0.3816095685       -1.0064893412       -0.1453555732
 H         -0.4131007426        0.3986330894        0.9198618939
 H          2.9000065146        1.4575957434        0.7394952390
 H          1.3367352030        2.1327120380        0.3181070838
 H          3.6954201613        1.7619654848       -1.4600523329
 H          2.2415197997        2.7080989762       -1.7668177731
 H          0.9992909920        0.7895905728       -2.4579447358
 H          0.8978608535       -2.4896484937       -1.3801678441
 H          0.8643090953       -2.6809718787       -3.7553478595
 H          1.3257542970       -3.1379891519       -5.5971198273
 H          0.5482647059       -1.9821738932       -6.6826907592
 H          1.9151405294       -3.6068507142       -7.9600205080
 H          3.3432104141       -3.1692607963       -7.0149246411
 H          3.3715007759        0.3898049856       -8.3467554387
 H          3.0686192378        1.9459657852       -6.5359885193
 H          4.2917511144        1.0793121350       -5.6118402455
 H          2.9050676473        2.3523634031       -4.0506585142
 H          1.4307673241        1.6243995911       -4.7034738122
 H          3.7760765954        0.1199202622       -3.4637939063
 H          4.1029311039       -0.2783857361       -0.5815564724
 H          3.5466722692       -1.9051060694       -0.3044571068
 H          4.0942345359       -1.3941757397       -1.9292015991
 H          2.8872440700       -0.8886439385        1.0880454807
  45
    -0.009109 !GC
 C          0.0000000000        0.0000000000        0.0000000000
 C          1.5318976310        0.0000000000        0.0000000000
 C          2.1034618755        1.4305812058        0.0000000000
 C          2.6132212743        1.7401649679       -1.4184379111
 C          2.0628659285        0.5924891753       -2.2607023352
 C          2.1205087186       -0.6161915267       -1.3153125237
 C          1.3857660347       -1.7323662525       -1.9806525329
 C          1.3875854553       -1.8466086387       -3.3144901550
 C          2.0583927805       -0.9302399793       -4.2117299631
 C          2.1216677679       -1.1252357117       -5.5572699045
 C          1.4882279525       -2.2894351838       -6.2763037102
 C          2.3582757364       -2.7667472795       -7.4350589606
 C          2.6760018620       -1.6296588530       -8.3824885628
 O          2.7620666903       -1.7833208222       -9.5847600887
 C          2.9308823592       -0.3610466652       -7.7225614693
 C          2.7503378981       -0.1423775015       -6.3994590526
 C          3.2110153136        1.1575890081       -5.8040249668
 C          2.4930502852        1.4611475542       -4.4988789247
 C          2.7023747086        0.3000369416       -3.6017672417
 C          3.5523013707       -1.1048229923       -1.0363086661
 O          1.9990992990       -0.5384792443        1.2184050771
 H         -0.3710413257        0.4005294723        0.9431207743
 H         -0.3840423827        0.6102411392       -0.8088520761
 H         -0.3823783250       -1.0135161821       -0.1136295189
 H          2.8958309030        1.4594379159        0.7439243820
 H          1.3346416884        2.1326947334        0.3124863140
 H          3.7025073145        1.7529788344       -1.4547091989
 H          2.2555442422        2.7079622974       -1.7660639404
 H          1.0028445941        0.7940381450       -2.4553409701
 H          0.8967987662       -2.4894135015       -1.3808117758
 H          0.8577647228       -2.6771454253       -3.7552948600
 H          1.3139147545       -3.1301138098       -5.6075797244
 H          0.5186413386       -1.9667706264       -6.6718878599
 H          1.8702802709       -3.5743569650       -7.9824114964
 H          3.3107384172       -3.1464354324       -7.0519012734
 H          3.3323361551        0.4222665393       -8.3507360848
 H          3.0674442524        1.9636938581       -6.5257365220
 H          4.2868564817        1.0812557714       -5.6111001890
 H          2.9134625902        2.3556592695       -4.0384606694
 H          1.4326030279        1.6406192082       -4.6904691784
 H          3.7747102505        0.1148023287       -3.4656764697
 H          4.0519312344       -1.4410233532       -1.9425638173
 H          4.1452635308       -0.3252292644       -0.5706337475
 H          3.5123247566       -1.9481055306       -0.3505930856
 H          2.8865845595       -0.8904340508        1.0871787523
  45
    -0.008861 !GC
 C          0.0000000000        0.0000000000        0.0000000000
 C          1.5347663865        0.0000000000        0.0000000000
 C          2.0872266032        1.4461373683        0.0000000000
 C          2.5119072150        1.7827418235       -1.4420528042
 C          2.0303472169        0.5921046201       -2.2700716303
 C          2.1355732023       -0.5972158363       -1.3042573767
 C          1.4466420729       -1.7513629146       -1.9492449380
 C          1.5071734415       -1.9087031959       -3.2776514498
 C          2.1891738840       -1.0013171818       -4.1751502066
 C          2.3639208835       -1.2621496398       -5.5007263367
 C          1.8700258361       -2.5117902747       -6.1860780149
 C          2.8754202014       -3.0289608546       -7.2099994907
 C          3.2223131934       -1.9597964543       -8.2244496183
 O          3.4396385267       -2.2115144351       -9.3937846743
 C          3.3277836817       -0.6261655964       -7.6629156685
 C          3.0108724499       -0.3102388263       -6.3849682295
 C          3.3309732250        1.0688060319       -5.8803440623
 C          2.5381222702        1.4166599433       -4.6314490742
 C          2.7268268294        0.2931111677       -3.5958479339
 C          3.5844828770       -1.0216279455       -1.0164342775
 O          2.0980694937       -0.6639087953        1.1198713467
 H         -0.4065277825        0.5198045901       -0.8667773154
 H         -0.3197448007       -1.0437580005       -0.0643738201
 H         -0.4334532538        0.4256535913        0.8985850750
 H          2.9366993989        1.4628524292        0.6791109891
 H          1.3361318812        2.1438211039        0.3695752621
 H          3.5941593847        1.8832985403       -1.5154752041
 H          2.0646877076        2.7167484139       -1.7803912193
 H          0.9675483285        0.7357390944       -2.4984827517
 H          0.9561553809       -2.4923740765       -1.3346543822
 H          1.0176600228       -2.7664079070       -3.7127790680
 H          1.6649141089       -3.3066791188       -5.4718028027
 H          0.9326158837       -2.2737786909       -6.7011706852
 H          2.4908335708       -3.9099813357       -7.7257535705
 H          3.8047754399       -3.3121020767       -6.7058694533
 H          3.7324085090        0.1304094114       -8.3213696436
 H          3.1519727484        1.7982417709       -6.6726044937
 H          4.4004764626        1.1025876469       -5.6446838075
 H          2.8747184365        2.3718224057       -4.2268277432
 H          1.4763250933        1.5031289751       -4.8749066055
 H          3.8032798550        0.1854718513       -3.4172380154
 H          4.0377646769       -1.4350918970       -1.9122882514
 H          4.1393685327       -0.1253295089       -0.7582797290
 H          3.6600682922       -1.7303408762       -0.2010456567
 H          3.0522576346       -0.6963538408        0.9908305707
  45
    -0.008350 !GC
 C          0.0000000000        0.0000000000        0.0000000000
 C          1.5345646475        0.0000000000        0.0000000000
 C          2.0965082529        1.4338444480        0.0000000000
 C          2.5356082847        1.7668989605       -1.4376456131
 C          2.0388364229        0.5864460463       -2.2704166017
 C          2.1319483953       -0.6082433772       -1.3096868717
 C          1.4348763415       -1.7527152557       -1.9645256498
 C          1.4893448572       -1.9010006901       -3.2944698592
 C          2.1789219375       -0.9953468939       -4.1871274730
 C          2.3544230902       -1.2546163660       -5.5129888804
 C          1.8464959301       -2.4983743288       -6.1992225094
 C          2.8611613951       -3.0554202962       -7.1926584406
 C          3.2531880277       -2.0117376449       -8.2166635110
 O          3.5034078617       -2.2887544806       -9.3732865467
 C          3.3583228991       -0.6688963248       -7.6760705140
 C          3.0256239570       -0.3304373903       -6.4080844591
 C          3.3524556725        1.0536771598       -5.9213613242
 C          2.5754985225        1.4207852428       -4.6682598058
 C          2.7270382351        0.2918781365       -3.6028487791
 C          3.5776524879       -1.0422476321       -1.0189976905
 O          2.1012251883       -0.5664893961        1.1685643267
 H         -0.4342521972        0.4128999238        0.9071926815
 H         -0.3363868097        0.6171173665       -0.8364802467
 H         -0.3882291912       -1.0049640278       -0.1501524245
 H          2.9315919647        1.4327337138        0.6947282332
 H          1.3475685196        2.1330778687        0.3668725547
 H          3.6196516157        1.8503694665       -1.5060702517
 H          2.1043903262        2.7083453330       -1.7753290834
 H          0.9762483528        0.7415949310       -2.4925436662
 H          0.9371580201       -2.5024703636       -1.3633479265
 H          0.9921322450       -2.7524472374       -3.7333769555
 H          1.6003558505       -3.2797868016       -5.4829214527
 H          0.9297692355       -2.2395252457       -6.7413698125
 H          2.4675152229       -3.9361682182       -7.7019661202
 H          3.7726608212       -3.3506252812       -6.6633192903
 H          3.7788938828        0.0740459857       -8.3398659356
 H          3.1670016866        1.7738021247       -6.7206284885
 H          4.4248948476        1.0880009024       -5.6990625157
 H          2.9245356023        2.3767614516       -4.2768908083
 H          1.5119604852        1.5132724477       -4.9009643267
 H          3.8045866419        0.1795575361       -3.4332300732
 H          4.1437819158       -0.1711443737       -0.6995696796
 H          3.6407666920       -1.7971691253       -0.2456507471
 H          4.0423143048       -1.4027740786       -1.9316949656
 H          2.1113642568        0.1109125276        1.8540736311
  45
    -0.008108 !GC
 C          0.0000000000        0.0000000000        0.0000000000
 C          1.5345795351        0.0000000000        0.0000000000
 C          2.0980791058        1.4336497155        0.0000000000
 C          2.5501582249        1.7607856560       -1.4348252519
 C          2.0430500328        0.5849750277       -2.2675499691
 C          2.1303981038       -0.6106495694       -1.3077957086
 C          1.4295678711       -1.7533461967       -1.9619580901
 C          1.4682065418       -1.8950931148       -3.2929835688
 C          2.1433297899       -0.9823874283       -4.1899728296
 C          2.2761581003       -1.2198038379       -5.5243360368
 C          1.7252052987       -2.4380503300       -6.2223327509
 C          2.6878607925       -2.9636000101       -7.2825176639
 C          3.0424287756       -1.8842268644       -8.2830669429
 O          3.2247930206       -2.1176703346       -9.4618350798
 C          3.2009562124       -0.5657602907       -7.6971641959
 C          2.9260316298       -0.2688692225       -6.4053107342
 C          3.2996125396        1.0874810253       -5.8769626684
 C          2.5402618227        1.4314036705       -4.6062064805
 C          2.7194331118        0.2886977592       -3.5971921346
 C          3.5735215973       -1.0513263247       -1.0143885402
 O          2.1010115472       -0.5661749604        1.1685856727
 H         -0.3713564845        0.4323726340        0.9325011695
 H         -0.3436024881        0.6379196213       -0.8150006679
 H         -0.4442124148       -0.9827686479       -0.1042876610
 H          2.9267636295        1.4352426507        0.7023632682
 H          1.3459896252        2.1348917861        0.3565503360
 H          3.6354571410        1.8305688552       -1.4973229103
 H          2.1326853612        2.7071743814       -1.7758659746
 H          0.9806413167        0.7488672341       -2.4843987514
 H          0.9421863071       -2.5081853582       -1.3585770638
 H          0.9667498835       -2.7448847747       -3.7306055382
 H          1.5120382796       -3.2423037366       -5.5210061462
 H          0.7839422755       -2.1582428914       -6.7088522711
 H          2.2631774092       -3.8214783415       -7.8058645145
 H          3.6203038393       -3.2856284680       -6.8084670428
 H          3.6111683422        0.1924556864       -8.3499594821
 H          3.1296066912        1.8399377166       -6.6492997205
 H          4.3736630472        1.0826514526       -5.6604069994
 H          2.9112473650        2.3676750375       -4.1883016016
 H          1.4772751562        1.5526411658       -4.8279785133
 H          3.7951329979        0.1540170640       -3.4328387398
 H          3.9836500564       -1.4358038075       -1.9457057876
 H          4.2079836298       -0.2266805907       -0.7083258610
 H          3.6024391216       -1.8647985082       -0.3002339401
 H          2.1115966695        0.1115573068        1.8538043181
  45
    -0.007227 !GC
 C          0.0000000000        0.0000000000        0.0000000000
 C          1.5345322229        0.0000000000        0.0000000000
 C          2.0973625460        1.4337952093        0.0000000000
 C          2.5428232868        1.7641496208       -1.4362439427
 C          2.0385894299        0.5867119172       -2.2685677172
 C          2.1302524688       -0.6090449445       -1.3092491187
 C          1.4319627165       -1.7534712660       -1.9630834706
 C          1.4690464862       -1.8942829160       -3.2941898725
 C          2.1398593292       -0.9788623051       -4.1918948363
 C          2.2673783498       -1.2119908083       -5.5273608440
 C          1.7192137263       -2.4283996411       -6.2302230954
 C          2.6681033416       -2.9204226529       -7.3187521185
 C          2.9910542911       -1.8155537558       -8.3024024872
 O          3.1486746904       -2.0211463128       -9.4899287997
 C          3.1554373881       -0.5091513388       -7.6914004035
 C          2.8980934749       -0.2393897201       -6.3901232533
 C          3.2721266408        1.1071718856       -5.8386731980
 C          2.5048140695        1.4290643657       -4.5666393125
 C          2.7154351760        0.2918928398       -3.5975373587
 C          3.5747956085       -1.0458040423       -1.0178047664
 O          2.1009212104       -0.5670648570        1.1681942429
 H         -0.4343865611        0.4117463453        0.9076628212
 H         -0.3364334942        0.6182595186       -0.8355280433
 H         -0.3882517437       -1.0047591383       -0.1511966055
 H          2.9292650999        1.4334800133        0.6983387697
 H          1.3471049975        2.1341424949        0.3620312549
 H          3.6275309952        1.8397383757       -1.5020952599
 H          2.1193497562        2.7086634778       -1.7751384735
 H          0.9757158206        0.7477520183       -2.4851167467
 H          0.9473061165       -2.5097506240       -1.3592264792
 H          0.9688210281       -2.7449303336       -3.7315610499
 H          1.5371014272       -3.2464024450       -5.5359962649
 H          0.7620781947       -2.1592475958       -6.6908199978
 H          2.2434886221       -3.7721112617       -7.8523491533
 H          3.6131855304       -3.2411463992       -6.8692782915
 H          3.5546697238        0.2631822507       -8.3345415480
 H          3.1077090888        1.8729719990       -6.5989374334
 H          4.3446591304        1.0961948270       -5.6154321403
 H          2.8709421176        2.3597215459       -4.1323008531
 H          1.4427674473        1.5511049020       -4.7925321111
 H          3.7907341163        0.1553235945       -3.4320978622
 H          4.1246447311       -0.1796956495       -0.6542838502
 H          3.5835737376       -1.7856925838       -0.2231426805
 H          4.0837204820       -1.4320457818       -1.8896831697
 H          2.1135960129        0.1107059110        1.8532631047
  45
    -0.007178 !GC
 C          0.0000000000        0.0000000000        0.0000000000
 C          1.5346273519        0.0000000000        0.0000000000
 C          2.0980502034        1.4336246953        0.0000000000
 C          2.5432157034        1.7643886325       -1.4364018989
 C          2.0371998406        0.5872803872       -2.2679445131
 C          2.1307624009       -0.6084176313       -1.3089870615
 C          1.4335441789       -1.7540968595       -1.9619843286
 C          1.4605226059       -1.8906885005       -3.2937187778
 C          2.1194439893       -0.9690334801       -4.1941091466
 C          2.2222386067       -1.1889133183       -5.5336438004
 C          1.6503683742       -2.3907356321       -6.2421314586
 C          2.5682785004       -2.8609687469       -7.3663552009
 C          2.8717365180       -1.7332732750       -8.3300988894
 O          2.9947282731       -1.9097110325       -9.5264885328
 C          3.0626364410       -0.4433770075       -7.6917577177
 C          2.8363521752       -0.2036008159       -6.3789874614
 C          3.2331389267        1.1246967464       -5.8002615068
 C          2.4742408714        1.4274418526       -4.5182778107
 C          2.7086440566        0.2934870046       -3.5954359689
 C          3.5758640382       -1.0430640026       -1.0169565948
 O          2.1009607049       -0.5671041940        1.1681150599
 H         -0.3786452008        0.3839238797        0.9486288785
 H         -0.3999738424        0.6062026323       -0.8082811064
 H         -0.3815875844       -1.0132029299       -0.1226485048
 H          2.9302578842        1.4329751121        0.6981021093
 H          1.3480547012        2.1340900782        0.3625270727
 H          3.6278914919        1.8393582119       -1.5027088680
 H          2.1200062787        2.7090045341       -1.7752823226
 H          0.9737136616        0.7487092638       -2.4814700043
 H          0.9586760298       -2.5153609903       -1.3564625361
 H          0.9630715983       -2.7437049661       -3.7298827792
 H          1.4876377413       -3.2218457490       -5.5588970165
 H          0.6810423955       -2.1117370235       -6.6697309914
 H          2.1257949463       -3.6976969973       -7.9088804177
 H          3.5231244134       -3.1964428668       -6.9493732270
 H          3.4534780741        0.3410800353       -8.3253145941
 H          3.0772747336        1.9100220333       -6.5421198778
 H          4.3060139361        1.0925664391       -5.5808170678
 H          2.8499886422        2.3458946062       -4.0663666986
 H          1.4124476997        1.5633067128       -4.7375119661
 H          3.7829364498        0.1460307829       -3.4330576002
 H          3.9844917988       -1.4304815078       -1.9477839686
 H          4.2079345196       -0.2144309822       -0.7166659643
 H          3.6091515894       -1.8528551370       -0.2986601381
 H          2.1135472473        0.1105586050        1.8532373356
  45
    -0.006792 !GC
 C          0.0000000000        0.0000000000        0.0000000000
 C          1.5318525898        0.0000000000        0.0000000000
 C          2.1035941886        1.4307137288        0.0000000000
 C          2.6169710437        1.7380263918       -1.4174128426
 C          2.0666349070        0.5910702301       -2.2606135527
 C          2.1198901234       -0.6176254285       -1.3149699830
 C          1.3833363053       -1.7317690386       -1.9819119594
 C          1.3890002292       -1.8462827044       -3.3158365931
 C          2.0686091929       -0.9340403360       -4.2104030993
 C          2.1445421549       -1.1354090925       -5.5544762801
 C          1.5124643080       -2.3019484163       -6.2709044713
 C          2.4033130392       -2.8137974969       -7.3988759617
 C          2.7560898164       -1.7018213214       -8.3638616758
 O          2.8744428541       -1.8842964561       -9.5593055787
 C          3.0016446408       -0.4204581770       -7.7258648368
 C          2.7946101144       -0.1736699057       -6.4115248554
 C          3.2491911000        1.1371110100       -5.8349959249
 C          2.5287916630        1.4617634016       -4.5363435903
 C          2.7108306179        0.2967891814       -3.6002075904
 C          3.5500145321       -1.1099967352       -1.0344895936
 O          1.9987429882       -0.5376787889        1.2187481952
 H         -0.4036885477        0.5812086067       -0.8262176148
 H         -0.3062191782       -1.0396407649       -0.1274836972
 H         -0.4254201819        0.3773975544        0.9219628921
 H          2.8943046019        1.4601726296        0.7457788602
 H          1.3343061942        2.1339883756        0.3095454465
 H          3.7064353775        1.7487651951       -1.4509552706
 H          2.2617692584        2.7062596941       -1.7663327756
 H          1.0073505203        0.7939661633       -2.4578987263
 H          0.8870263341       -2.4852151946       -1.3836630439
 H          0.8553644304       -2.6732358802       -3.7590445277
 H          1.3052170593       -3.1276820681       -5.5931837974
 H          0.5597434985       -1.9684831734       -6.6973084148
 H          1.9193286450       -3.6279352764       -7.9405488404
 H          3.3421792678       -3.1951489869       -6.9852997738
 H          3.4196558863        0.3481722199       -8.3610983244
 H          3.1054000871        1.9306768206       -6.5704839036
 H          4.3249979122        1.0669916700       -5.6391462312
 H          2.9493824031        2.3625980154       -4.0884719111
 H          1.4687600950        1.6391973595       -4.7321800996
 H          3.7828905913        0.1125228625       -3.4605023183
 H          4.0505515305       -1.4453727816       -1.9405044308
 H          4.1434526111       -0.3322282488       -0.5665591138
 H          3.5074052689       -1.9542686418       -0.3503518893
 H          2.8875981213       -0.8870962958        1.0889026358
  45
    -0.006259 !GC
 C          0.0000000000        0.0000000000        0.0000000000
 C          1.5347767320        0.0000000000        0.0000000000
 C          2.0879198384        1.4459623504        0.0000000000
 C          2.5193703985        1.7798011297       -1.4406669638
 C          2.0321354543        0.5915821824       -2.2685716725
 C          2.1348514660       -0.5981653961       -1.3030540465
 C          1.4434100815       -1.7513098196       -1.9468552411
 C          1.4917157950       -1.9041367938       -3.2762399054
 C          2.1643315909       -0.9926695765       -4.1768744540
 C          2.3111004855       -1.2404024074       -5.5081229055
 C          1.7829251976       -2.4723748551       -6.1998549736
 C          2.7571665583       -2.9850855056       -7.2557680855
 C          3.0966387346       -1.9021444206       -8.2578162239
 O          3.2829743746       -2.1351642870       -9.4363013958
 C          3.2351802408       -0.5804341019       -7.6748645562
 C          2.9498325366       -0.2840575282       -6.3850009568
 C          3.3015626241        1.0790113166       -5.8587928467
 C          2.5238089268        1.4179819570       -4.5978766949
 C          2.7213306325        0.2913066802       -3.5926373540
 C          3.5823476865       -1.0261963663       -1.0137875085
 O          2.0980482228       -0.6642713262        1.1197134874
 H         -0.3929005306        0.4502969297        0.9150924445
 H         -0.4013278106        0.5433887699       -0.8512472720
 H         -0.3677219483       -1.0229674643       -0.0470568201
 H          2.9339111063        1.4641468927        0.6834668741
 H          1.3351011509        2.1443672558        0.3645330583
 H          3.6024292331        1.8733821592       -1.5107572588
 H          2.0789994979        2.7163630115       -1.7807522311
 H          0.9691668323        0.7399724939       -2.4935288454
 H          0.9604491823       -2.4956926054       -1.3302939407
 H          1.0013200301       -2.7622608133       -3.7097325807
 H          1.5840654530       -3.2763628915       -5.4939439512
 H          0.8372394967       -2.2130658388       -6.6890421039
 H          2.3478196093       -3.8510856318       -7.7781039720
 H          3.6935201786       -3.2907319022       -6.7782932942
 H          3.6378386691        0.1817528028       -8.3278607924
 H          3.1309160039        1.8263432883       -6.6359557343
 H          4.3730774770        1.0875763724       -5.6305122942
 H          2.8773615358        2.3613251551       -4.1804112411
 H          1.4617756772        1.5238302676       -4.8320885029
 H          3.7966854076        0.1686825704       -3.4174950172
 H          4.1279031560       -0.1368440691       -0.7082220973
 H          3.5998140094       -1.7231692311       -0.1811525357
 H          4.0776878376       -1.4612383756       -1.8707682972
 H          3.0522354359       -0.6958210333        0.9916863856
  45
    -0.005852 !GC
 C          0.0000000000        0.0000000000        0.0000000000
 C          1.5319063364        0.0000000000        0.0000000000
 C          2.1036936466        1.4306900260        0.0000000000
 C          2.6123911658        1.7394370817       -1.4189989284
 C          2.0626024388        0.5910499761       -2.2606101126
 C          2.1215254344       -0.6164302257       -1.3139318077
 C          1.3885500647       -1.7338276319       -1.9792925453
 C          1.3901967576       -1.8479422799       -3.3131964090
 C          2.0644269878       -0.9311529936       -4.2075655576
 C          2.1356414931       -1.1253485523       -5.5528817214
 C          1.5018530090       -2.2909253535       -6.2697774945
 C          2.3940547753       -2.8186237580       -7.3889226866
 C          2.7605123230       -1.7179376141       -8.3613374388
 O          2.8876870477       -1.9121548197       -9.5539466508
 C          3.0023313316       -0.4312970723       -7.7332360599
 C          2.7911563734       -0.1720684751       -6.4217325367
 C          3.2449269284        1.1467286486       -5.8618766787
 C          2.5453238322        1.4834966657       -4.5554520340
 C          2.7017130252        0.3007690590       -3.5947405378
 C          3.5538236238       -1.1012361112       -1.0321401123
 O          1.9993118131       -0.5381864117        1.2182137894
 H         -0.4213610885        0.6080910504       -0.7959552187
 H         -0.3663538871       -1.0168395869       -0.1195084131
 H         -0.3491719701        0.3900035616        0.9543517995
 H          2.8966941319        1.4598594970        0.7433766980
 H          1.3352946163        2.1334846277        0.3125832981
 H          3.7017133246        1.7527486273       -1.4556272285
 H          2.2535752843        2.7067380329       -1.7668521753
 H          1.0021158733        0.7909740079       -2.4540719489
 H          0.9000839926       -2.4913014692       -1.3796268647
 H          0.8612831868       -2.6787689149       -3.7546954536
 H          1.2796145274       -3.1104748338       -5.5890995874
 H          0.5553491590       -1.9505588534       -6.7046960232
 H          1.9065524598       -3.6333717369       -7.9261201898
 H          3.3277284391       -3.2040007136       -6.9674712061
 H          3.4209359096        0.3327761622       -8.3739713969
 H          3.0859716253        1.9323537307       -6.6029586769
 H          4.3241657114        1.0845312030       -5.6831749129
 H          2.9757108601        2.3860840902       -4.1201696669
 H          1.4827000130        1.6624349639       -4.7354817239
 H          3.7754119744        0.1232762951       -3.4590371392
 H          4.0752244024       -1.4101509514       -1.9359659815
 H          4.1301256472       -0.3304210304       -0.5329760780
 H          3.5065555664       -1.9641035384       -0.3713602193
 H          2.8850098793       -0.8944922754        1.0859283397
  45
    -0.005506 !GC
 C          0.0000000000        0.0000000000        0.0000000000
 C          1.5347615922        0.0000000000        0.0000000000
 C          2.0886761190        1.4460543657        0.0000000000
 C          2.5345907146        1.7748949039       -1.4372726424
 C          2.0390741547        0.5914138291       -2.2663739468
 C          2.1334077577       -0.5999199300       -1.3019929925
 C          1.4360297476       -1.7487580599       -1.9476919844
 C          1.4790251559       -1.8979601573       -3.2775363831
 C          2.1507514163       -0.9857752567       -4.1785148611
 C          2.2795282516       -1.2229177579       -5.5132195897
 C          1.7301551782       -2.4403983040       -6.2133711852
 C          2.6765331746       -2.9305754597       -7.3049195639
 C          2.9958735231       -1.8245976525       -8.2886338300
 O          3.1447088806       -2.0291481567       -9.4776550446
 C          3.1652678680       -0.5192376189       -7.6778107966
 C          2.9098765207       -0.2493236083       -6.3760242183
 C          3.2870323621        1.0961415598       -5.8239886501
 C          2.5127894321        1.4216403277       -4.5570282958
 C          2.7240709076        0.2883665686       -3.5885512217
 C          3.5777665890       -1.0372966666       -1.0112982519
 O          2.0977288064       -0.6636892532        1.1201633157
 H         -0.4352966515        0.4822091940        0.8718949436
 H         -0.3214466660        0.5534292602       -0.8835320836
 H         -0.4029746443       -1.0095420085       -0.0738519963
 H          2.9273698097        1.4674286239        0.6921964989
 H          1.3316258341        2.1458773605        0.3530123118
 H          3.6190985624        1.8555671697       -1.4998215209
 H          2.1076827813        2.7164308972       -1.7808350815
 H          0.9769365340        0.7481680596       -2.4897849284
 H          0.9532038086       -2.4936015332       -1.3315155793
 H          0.9835707206       -2.7527352799       -3.7121343334
 H          1.5514770826       -3.2584041367       -5.5182462363
 H          0.7711848289       -2.1721773082       -6.6707459051
 H          2.2511982916       -3.7822531818       -7.8380081536
 H          3.6231809060       -3.2511086985       -6.8586297512
 H          3.5644150605        0.2525616333       -8.3216424749
 H          3.1305832729        1.8622062607       -6.5857341610
 H          4.3579713910        1.0804486512       -5.5936759150
 H          2.8778250746        2.3525470452       -4.1218795376
 H          1.4523971439        1.5453879541       -4.7899739370
 H          3.7975623034        0.1506730153       -3.4133616834
 H          4.1277886277       -0.1519623285       -0.7025457357
 H          3.5901377521       -1.7366907005       -0.1807017712
 H          4.0722023890       -1.4721509185       -1.8687000618
 H          3.0519220881       -0.6959349409        0.9912406249
  45
    -0.005056 !GC
 C          0.0000000000        0.0000000000        0.0000000000
 C          1.5348348944        0.0000000000        0.0000000000
 C          2.0888015435        1.4457626958        0.0000000000
 C          2.5302565904        1.7757890679       -1.4383947747
 C          2.0384443621        0.5894658512       -2.2658612204
 C          2.1332629119       -0.6002920199       -1.2994368597
 C          1.4343636904       -1.7484468685       -1.9443365553
 C          1.4801805992       -1.8999043229       -3.2740298203
 C          2.1591431149       -0.9926812418       -4.1742182126
 C          2.3035127496       -1.2407019874       -5.5056444174
 C          1.7629455501       -2.4681296841       -6.1960389193
 C          2.7303320750       -2.9925740270       -7.2526357495
 C          3.0766838760       -1.9154015201       -8.2582380821
 O          3.2588508340       -2.1518071388       -9.4366419903
 C          3.2301290805       -0.5945481078       -7.6767175265
 C          2.9522403617       -0.2945784387       -6.3860387734
 C          3.3222894001        1.0642883224       -5.8618355918
 C          2.5507597335        1.4156328754       -4.6005224967
 C          2.7274446625        0.2853758135       -3.5881065405
 C          3.5775171163       -1.0364935794       -1.0071074154
 O          2.0984733564       -0.6636202981        1.1196816677
 H         -0.4101157006        0.5107237943       -0.8701948983
 H         -0.3198399894       -1.0443088950       -0.0542291888
 H         -0.4295602821        0.4318085860        0.8977593333
 H          2.9290975662        1.4659946570        0.6903190761
 H          1.3331194728        2.1458102070        0.3558611066
 H          3.6142791278        1.8621417291       -1.5034469365
 H          2.0974497991        2.7149161272       -1.7814091638
 H          0.9763976401        0.7437861835       -2.4917541264
 H          0.9460880454       -2.4906316426       -1.3292670970
 H          0.9839307637       -2.7543585556       -3.7082731115
 H          1.5569543552       -3.2687791144       -5.4882763095
 H          0.8192572362       -2.1998888616       -6.6843930617
 H          2.3121605028       -3.8564051570       -7.7715922954
 H          3.6647081379       -3.3048433732       -6.7758190241
 H          3.6394003674        0.1628648918       -8.3312270064
 H          3.1610174630        1.8128834404       -6.6398391911
 H          4.3941081449        1.0585568491       -5.6344222626
 H          2.9164812881        2.3554836938       -4.1854950061
 H          1.4896307463        1.5337663087       -4.8329827329
 H          3.8013667456        0.1518586513       -3.4124728784
 H          4.1335761929       -0.1539586781       -0.7000639943
 H          3.5864368666       -1.7370758335       -0.1780049010
 H          4.0683875973       -1.4732083767       -1.8657625474
 H          3.0530368580       -0.6925667655        0.9930619935
  45
    -0.004593 !GC
 C          0.0000000000        0.0000000000        0.0000000000
 C          1.5346894254        0.0000000000        0.0000000000
 C          2.0872838001        1.4458494757        0.0000000000
 C          2.5211159582        1.7803054553       -1.4393879845
 C          2.0389533436        0.5921863497       -2.2704447613
 C          2.1347343748       -0.5985585153       -1.3052177578
 C          1.4399339106       -1.7473343537       -1.9534119626
 C          1.5130824990       -1.9085432291       -3.2809368586
 C          2.2109668722       -1.0116942721       -4.1762500297
 C          2.4110140031       -1.2912272054       -5.4946713025
 C          1.9331084283       -2.5507406121       -6.1731588205
 C          2.9658294372       -3.0786863169       -7.1644109552
 C          3.3337082696       -2.0226662006       -8.1849280057
 O          3.5832412576       -2.2899543982       -9.3442988802
 C          3.4160723734       -0.6799965537       -7.6403873390
 C          3.0688561724       -0.3515674330       -6.3737321986
 C          3.3685263683        1.0334774025       -5.8735500243
 C          2.5465666764        1.3805422629       -4.6430322773
 C          2.7455074124        0.2876752909       -3.6045574648
 C          3.5803053815       -1.0352699757       -1.0181539994
 O          2.0986254375       -0.6636840310        1.1200972594
 H         -0.3947069252        0.4633187718        0.9076209762
 H         -0.4044555328        0.5294752602       -0.8583898738
 H         -0.3625094723       -1.0253643420       -0.0336807737
 H          2.9323346044        1.4643873450        0.6845220373
 H          1.3336410146        2.1440950542        0.3631694838
 H          3.6043343249        1.8751775215       -1.5068334751
 H          2.0804533927        2.7164665630       -1.7801017433
 H          0.9780964610        0.7398100434       -2.5054799335
 H          0.9365473373       -2.4821924745       -1.3420562679
 H          1.0181726026       -2.7617317974       -3.7189333710
 H          1.7126183945       -3.3367384025       -5.4535034772
 H          1.0089504495       -2.3215211783       -6.7157134600
 H          2.5975663133       -3.9688564463       -7.6764746707
 H          3.8830206991       -3.3504398014       -6.6326123225
 H          3.8293433529        0.0710729926       -8.2996043304
 H          3.1981389438        1.7563326902       -6.6736376106
 H          4.4328281128        1.0785614629       -5.6168145304
 H          2.8618801882        2.3441196936       -4.2415243315
 H          1.4892086143        1.4494470411       -4.9086937150
 H          3.8210905202        0.1807455819       -3.4199940764
 H          4.1725511378       -0.1522906963       -0.7904752280
 H          3.6620201944       -1.7260137289       -0.1886938397
 H          3.9891745615       -1.4723902143       -1.9221598776
 H          3.0532980400       -0.6889658129        0.9935465911
  45
    -0.004388 !GC
 C          0.0000000000        0.0000000000        0.0000000000
 C          1.5347758489        0.0000000000        0.0000000000
 C          2.0875555319        1.4459998859        0.0000000000
 C          2.5131661929        1.7820103584       -1.4419024338
 C          2.0311897632        0.5916522739       -2.2700174027
 C          2.1352767798       -0.5976696018       -1.3040957264
 C          1.4455097552       -1.7511802366       -1.9493461805
 C          1.5070113302       -1.9089023270       -3.2777181743
 C          2.1904275375       -1.0023726556       -4.1749756251
 C          2.3668510934       -1.2638426707       -5.5002341169
 C          1.8743119294       -2.5138477655       -6.1858896394
 C          2.8802140880       -3.0297474006       -7.2098349401
 C          3.2263193312       -1.9596122094       -8.2234546686
 O          3.4434750311       -2.2103552796       -9.3929467422
 C          3.3319511532       -0.6262554066       -7.6610938413
 C          3.0143609954       -0.3109605387       -6.3832640921
 C          3.3334975838        1.0681158719       -5.8780950832
 C          2.5394047504        1.4155632814       -4.6299063953
 C          2.7281387738        0.2920330252       -3.5956457551
 C          3.5836469390       -1.0236342119       -1.0157917512
 O          2.0980419665       -0.6639186353        1.1199195959
 H         -0.4067293269        0.5166740027       -0.8685129811
 H         -0.3196093639       -1.0440744993       -0.0607279701
 H         -0.4333122164        0.4286869534        0.8971903658
 H          2.9366702680        1.4626430478        0.6796280417
 H          1.3363904237        2.1439974943        0.3688831674
 H          3.5955429272        1.8817032132       -1.5147788294
 H          2.0668027091        2.7162487556       -1.7806473399
 H          0.9685331118        0.7359153253       -2.4989594499
 H          0.9533541419       -2.4914168657       -1.3352031833
 H          1.0167002956       -2.7661505819       -3.7128078328
 H          1.6704918406       -3.3091345322       -5.4716966690
 H          0.9365554568       -2.2772054457       -6.7008552176
 H          2.4964913823       -3.9108765761       -7.7259119572
 H          3.8096407815       -3.3123331069       -6.7055468767
 H          3.7366276183        0.1306694460       -8.3190649295
 H          3.1550860795        1.7976745072       -6.6703792038
 H          4.4028252917        1.1021145270       -5.6415193428
 H          2.8754010574        2.3706498303       -4.2246139790
 H          1.4778284727        1.5019433333       -4.8743387528
 H          3.8044822868        0.1839971871       -3.4164883023
 H          4.1994838550       -0.1794809915       -0.7279658188
 H          3.5764048004       -1.7470337097       -0.2059298508
 H          4.0202576645       -1.4780361219       -1.8981564401
 H          3.0523006294       -0.6956085060        0.9913552883
  45
    -0.003845 !GC
 C          0.0000000000        0.0000000000        0.0000000000
 C          1.5347530129        0.0000000000        0.0000000000
 C          2.0975863262        1.4339143928        0.0000000000
 C          2.5504476794        1.7608523684       -1.4345818472
 C          2.0425346689        0.5855873960       -2.2674234250
 C          2.1303562997       -0.6103696519       -1.3080604567
 C          1.4297314992       -1.7529636652       -1.9626355236
 C          1.4657624537       -1.8930550629       -3.2939077491
 C          2.1391059681       -0.9791262828       -4.1911542223
 C          2.2659205953       -1.2129023324       -5.5266960599
 C          1.7096553610       -2.4270428839       -6.2272859970
 C          2.6623327423       -2.9403427964       -7.3025968117
 C          3.0062540462       -1.8483449894       -8.2934954952
 O          3.1778197885       -2.0673019469       -9.4766345864
 C          3.1701947495       -0.5369324495       -7.6932451504
 C          2.9056540453       -0.2554358555       -6.3958861550
 C          3.2831831846        1.0939945742       -5.8535153613
 C          2.5232286097        1.4253560567       -4.5795083808
 C          2.7182734269        0.2898825820       -3.5968997289
 C          3.5734931290       -1.0504653393       -1.0151644164
 O          2.1017696020       -0.5661907620        1.1683272201
 H         -0.4203370545        0.5716624958       -0.8286705663
 H         -0.3058365380       -1.0399086258       -0.1299442559
 H         -0.4327707255        0.3671866335        0.9244215154
 H          2.9257422320        1.4356546075        0.7027375368
 H          1.3451028723        2.1349983115        0.3560254768
 H          3.6357819068        1.8299521679       -1.4967342910
 H          2.1335417411        2.7075307986       -1.7754467076
 H          0.9799664289        0.7500995218       -2.4831792093
 H          0.9441967121       -2.5087489064       -1.3589540385
 H          0.9647221597       -2.7429206513       -3.7317382208
 H          1.5078894881       -3.2373669506       -5.5294755179
 H          0.7616633729       -2.1468606838       -6.7004156351
 H          2.2324933659       -3.7920167408       -7.8321181198
 H          3.5995635202       -3.2676864265       -6.8416783768
 H          3.5766017989        0.2286697796       -8.3399226472
 H          3.1162108677        1.8550970934       -6.6180159608
 H          4.3568352344        1.0831565072       -5.6357179474
 H          2.8942923207        2.3571374325       -4.1517630775
 H          1.4605300306        1.5494148947       -4.8008616845
 H          3.7935506514        0.1514610768       -3.4331919860
 H          4.0466762557       -1.3981428146       -1.9282820508
 H          4.1320887135       -0.1809159485       -0.6791664185
 H          3.6343779393       -1.8141390036       -0.2497745411
 H          2.1126145830        0.1115306394        1.8538521615
  45
    -0.003390 !GC
 C          0.0000000000        0.0000000000        0.0000000000
 C          1.5346033804        0.0000000000        0.0000000000
 C          2.0974381134        1.4338677529        0.0000000000
 C          2.5454007232        1.7628427470       -1.4357179417
 C          2.0391272157        0.5862204922       -2.2679483924
 C          2.1304765914       -0.6094621583       -1.3086374448
 C          1.4319447549       -1.7539192423       -1.9620665603
 C          1.4674209124       -1.8944490731       -3.2932582348
 C          2.1371700411       -0.9787498763       -4.1913804746
 C          2.2630349946       -1.2124438870       -5.5270326776
 C          1.7096310356       -2.4287948409       -6.2261865919
 C          2.6637303041       -2.9427932015       -7.2998918846
 C          3.0042490035       -1.8546714231       -8.2961468903
 O          3.1730224468       -2.0786880715       -9.4788087446
 C          3.1679654725       -0.5404190182       -7.7023176232
 C          2.9044364836       -0.2525778436       -6.4060837450
 C          3.2809832260        1.1002236862       -5.8713643995
 C          2.5235084899        1.4371812299       -4.5974931910
 C          2.7136563368        0.2919567071       -3.5981257290
 C          3.5750751997       -1.0461896763       -1.0169138098
 O          2.1012665545       -0.5666754298        1.1682086278
 H         -0.4201842929        0.5741516076       -0.8270235451
 H         -0.3056758571       -1.0396790753       -0.1324862153
 H         -0.4324988516        0.3648161886        0.9254334224
 H          2.9280016005        1.4343939605        0.6999651776
 H          1.3462885756        2.1344208390        0.3597168950
 H          3.6303632986        1.8354718673       -1.5004921782
 H          2.1247579086        2.7083431664       -1.7753179540
 H          0.9760702016        0.7482267175       -2.4828974444
 H          0.9490053353       -2.5109258298       -1.3577497272
 H          0.9689581766       -2.7462933324       -3.7302569337
 H          1.5083453885       -3.2382178081       -5.5271443001
 H          0.7615840211       -2.1509163733       -6.7006533160
 H          2.2370055623       -3.7983208000       -7.8256249795
 H          3.6021200625       -3.2649582941       -6.8376571929
 H          3.5721115446        0.2224904161       -8.3535635782
 H          3.1105825353        1.8573225126       -6.6390628440
 H          4.3552713268        1.0924255838       -5.6564039443
 H          2.8947119201        2.3715416155       -4.1755183768
 H          1.4601244970        1.5592132798       -4.8171093395
 H          3.7896367198        0.1569586609       -3.4357689781
 H          4.1219614543       -0.1820540235       -0.6442595051
 H          3.5832815557       -1.7928749568       -0.2285565807
 H          4.0874507011       -1.4236466638       -1.8906678879
 H          2.1131380788        0.1111582195        1.8533118470
  45
    -0.002763 !GC
 C          0.0000000000        0.0000000000        0.0000000000
 C          1.5345516524        0.0000000000        0.0000000000
 C          2.0981594553        1.4335300328        0.0000000000
 C          2.5456419332        1.7628573217       -1.4358530534
 C          2.0384849011        0.5864743082       -2.2677959523
 C          2.1298026866       -0.6094431658       -1.3087684901
 C          1.4308186308       -1.7540007194       -1.9615322287
 C          1.4574376621       -1.8905607935       -3.2933103826
 C          2.1190336239       -0.9707064546       -4.1934853490
 C          2.2224914137       -1.1919200458       -5.5328294790
 C          1.6461406612       -2.3927878588       -6.2397384320
 C          2.5672826367       -2.8773558386       -7.3551771342
 C          2.8830876298       -1.7597942090       -8.3266539533
 O          3.0143687821       -1.9473308513       -9.5203110722
 C          3.0762000651       -0.4655052476       -7.6979365194
 C          2.8456160869       -0.2142808604       -6.3880984519
 C          3.2461317969        1.1170849800       -5.8189353895
 C          2.4911477826        1.4306205440       -4.5373387685
 C          2.7098051696        0.2912866937       -3.5955079278
 C          3.5739100906       -1.0471046530       -1.0166642563
 O          2.1008716300       -0.5674350152        1.1680776362
 H         -0.4230532953        0.6139471975       -0.7925507866
 H         -0.3859034412       -1.0145146377       -0.1039704915
 H         -0.3509106889        0.3948324173        0.9521565925
 H          2.9290665383        1.4333044693        0.6996704577
 H          1.3477897407        2.1343825388        0.3609039149
 H          3.6305611979        1.8356851297       -1.5008365026
 H          2.1246793401        2.7082399087       -1.7753079575
 H          0.9753242927        0.7497366758       -2.4815660670
 H          0.9536043018       -2.5138974036       -1.3562641109
 H          0.9569744741       -2.7417308701       -3.7294589356
 H          1.4705273201       -3.2190157544       -5.5537151459
 H          0.6826377642       -2.1069414873       -6.6763584952
 H          2.1219791517       -3.7152162983       -7.8936710494
 H          3.5175096577       -3.2160147848       -6.9303397540
 H          3.4740046894        0.3119070617       -8.3357575047
 H          3.0899177524        1.8974684238       -6.5658787013
 H          4.3195560390        1.0846474090       -5.6023024353
 H          2.8715228443        2.3504766133       -4.0923500193
 H          1.4294234022        1.5691212812       -4.7550470476
 H          3.7838975349        0.1428532744       -3.4330553087
 H          4.1235777140       -0.1819617777       -0.6505157742
 H          3.5816438307       -1.7887657431       -0.2235911260
 H          4.0836640177       -1.4317964289       -1.8887648374
 H          2.1123896142        0.1094766618        1.8538376075
