  45
        -61.06954893
 C          4.0243858006        0.7881567951       -1.5968981855
 C          3.8184037637        0.3098318929       -0.1560822370
 C          4.0433929791       -1.2172735907       -0.0344869361
 C          2.6624950715       -1.8906812198        0.0639446670
 C          1.6803803844       -0.7686959598       -0.2644916275
 C          2.3449199750        0.4852146893        0.3219203751
 C          1.5732824802        1.6637813900       -0.1698002691
 C          0.2513069263        1.5708508880       -0.3599792030
 C         -0.5224379595        0.3680187225       -0.1387743250
 C         -1.8817559023        0.3376251552       -0.2141303837
 C         -2.7339385102        1.5356827817       -0.5504829093
 C         -4.0082562770        1.5729448778        0.2872695857
 C         -4.7971820183        0.2893722957        0.1399623877
 O         -6.0121895849        0.2622330777        0.1443409642
 C         -3.9736960784       -0.9031011127        0.0551984236
 C         -2.6226810158       -0.8903273657       -0.0275497120
 C         -1.8781020424       -2.1921931466        0.0682702880
 C         -0.4678203622       -2.0822686621       -0.4873107535
 C          0.2337414045       -0.9056417222        0.1879170159
 C          2.3194118505        0.5276628516        1.8593919827
 O          4.7587235631        0.9491774260        0.6833414368
 H          3.8254510976        1.8551656816       -1.6836158586
 H          5.0587111388        0.6087502009       -1.8839728329
 H          3.3748939631        0.2601978005       -2.2878807299
 H          4.6456718054       -1.3984054445        0.8542965061
 H          4.6033668135       -1.5819018211       -0.8938692861
 H          2.4816935970       -2.2743057345        1.0681776362
 H          2.5758937117       -2.7233592289       -0.6325120340
 H          1.6590885707       -0.6424853563       -1.3533034584
 H          2.0790241923        2.6077958207       -0.3143373257
 H         -0.2782107228        2.4487961539       -0.6968912385
 H         -2.1941773728        2.4686773205       -0.4005057634
 H         -3.0102627127        1.4737552507       -1.6090648857
 H         -4.6350564913        2.4211308345        0.0083048002
 H         -3.7516906670        1.6772198292        1.3461832603
 H         -4.5024770865       -1.8447474930        0.1120274328
 H         -2.4405039141       -2.9737234418       -0.4460918555
 H         -1.8246674275       -2.4743507943        1.1256862459
 H          0.0813355161       -3.0062255177       -0.3030101533
 H         -0.5035454031       -1.9142710021       -1.5662555979
 H          0.2051578289       -1.0734252873        1.2713430594
 H          2.8709227375        1.3981224303        2.2072814251
 H          1.2994444199        0.6071922413        2.2252019751
 H          2.7898537751       -0.3542163213        2.2812322018
 H          4.7021165811        1.9004168388        0.5415802076
