  45

 C          2.0851851800        3.7963820500        0.1784713800
 C          2.9111680000        2.5109052900        0.0666963400
 C          3.1323364200        2.0926007800       -1.4108285100
 C          2.2424965600        0.8677430200       -1.6992847900
 C          1.2742510600        0.8758445700       -0.5224236900
 C          2.1646416000        1.2787833100        0.6663579600
 C          1.3083258800        1.4685723900        1.8772185000
 C          0.0971055100        0.9113648100        1.9801617000
 C         -0.5390211200        0.1923650300        0.8888243600
 C         -1.8860982900        0.0802521600        0.7692596600
 C         -2.8225346900        0.4267934100        1.9047495100
 C         -4.2836161400        0.5576079000        1.4864485100
 C         -4.7153368900       -0.5647754100        0.5629993800
 O         -5.7731365800       -1.1472271400        0.6796187100
 C         -3.7743873200       -0.7787770900       -0.5254284900
 C         -2.4773896700       -0.4127806600       -0.4531276000
 C         -1.5861732700       -0.4499887100       -1.6580277800
 C         -0.2495267000       -1.0809135600       -1.2984243600
 C          0.4281168300       -0.3418973100       -0.1454072400
 C          3.2216079000        0.2253137800        1.0488990200
 O          4.1839337300        2.7317363800        0.6396046100
 H          1.8918493300        4.0350073900        1.2234832000
 H          2.6438520400        4.6175339400       -0.2666420200
 H          1.1319714000        3.7072346600       -0.3329597700
 H          4.1889725200        1.8669150300       -1.5442061700
 H          2.8834219800        2.9217675800       -2.0711687000
 H          2.8243024700       -0.0531708000       -1.7219091300
 H          1.7298684600        0.9672613800       -2.6550278400
 H          0.5744345000        1.7019902600       -0.6941330800
 H          1.7302143800        2.0075112600        2.7150040400
 H         -0.4662106700        1.0455863000        2.8916118200
 H         -2.7412305900       -0.3671825700        2.6555076000
 H         -2.5153396100        1.3608938600        2.3770925000
 H         -4.4273275900        1.4891689000        0.9302442500
 H         -4.9321632000        0.5839849800        2.3630580400
 H         -4.1712648300       -1.2224795700       -1.4274115200
 H         -1.4252410900        0.5791486800       -1.9940005200
 H         -2.0647821000       -0.9980337300       -2.4703341800
 H         -0.4302441600       -2.1154271800       -0.9962212800
 H          0.4111224500       -1.0983975100       -2.1654717700
 H          1.0774695000       -1.0655464900        0.3568705800
 H          3.8217492800        0.6051608200        1.8723852800
 H          2.7594514300       -0.7017475300        1.3770414900
 H          3.8904353800        0.0209451100        0.2201203200
 H          4.0661287200        3.0978021900        1.5229516500
