  45
  -61.069548930000003        2.7587461402776698E-002 !
 C          4.0243858006        0.7881567951       -1.5968981855
 C          3.8184037637        0.3098318929       -0.1560822370
 C          4.0433929791       -1.2172735907       -0.0344869361
 C          2.6624950715       -1.8906812198        0.0639446670
 C          1.6803803844       -0.7686959598       -0.2644916275
 C          2.3449199750        0.4852146893        0.3219203751
 C          1.5732824802        1.6637813900       -0.1698002691
 C          0.2513069263        1.5708508880       -0.3599792030
 C         -0.5224379595        0.3680187225       -0.1387743250
 C         -1.8817559023        0.3376251552       -0.2141303837
 C         -2.7339385102        1.5356827817       -0.5504829093
 C         -4.0082562770        1.5729448778        0.2872695857
 C         -4.7971820183        0.2893722957        0.1399623877
 O         -6.0121895849        0.2622330777        0.1443409642
 C         -3.9736960784       -0.9031011127        0.0551984236
 C         -2.6226810158       -0.8903273657       -0.0275497120
 C         -1.8781020424       -2.1921931466        0.0682702880
 C         -0.4678203622       -2.0822686621       -0.4873107535
 C          0.2337414045       -0.9056417222        0.1879170159
 C          2.3194118505        0.5276628516        1.8593919827
 O          4.7587235631        0.9491774260        0.6833414368
 H          3.8254510976        1.8551656816       -1.6836158586
 H          5.0587111388        0.6087502009       -1.8839728329
 H          3.3748939631        0.2601978005       -2.2878807299
 H          4.6456718054       -1.3984054445        0.8542965061
 H          4.6033668135       -1.5819018211       -0.8938692861
 H          2.4816935970       -2.2743057345        1.0681776362
 H          2.5758937117       -2.7233592289       -0.6325120340
 H          1.6590885707       -0.6424853563       -1.3533034584
 H          2.0790241923        2.6077958207       -0.3143373257
 H         -0.2782107228        2.4487961539       -0.6968912385
 H         -2.1941773728        2.4686773205       -0.4005057634
 H         -3.0102627127        1.4737552507       -1.6090648857
 H         -4.6350564913        2.4211308345        0.0083048002
 H         -3.7516906670        1.6772198292        1.3461832603
 H         -4.5024770865       -1.8447474930        0.1120274328
 H         -2.4405039141       -2.9737234418       -0.4460918555
 H         -1.8246674275       -2.4743507943        1.1256862459
 H          0.0813355161       -3.0062255177       -0.3030101533
 H         -0.5035454031       -1.9142710021       -1.5662555979
 H          0.2051578289       -1.0734252873        1.2713430594
 H          2.8709227375        1.3981224303        2.2072814251
 H          1.2994444199        0.6071922413        2.2252019751
 H          2.7898537751       -0.3542163213        2.2812322018
 H          4.7021165811        1.9004168388        0.5415802076
  45
  -61.069548820000001        2.7584250369578425E-002 !
 C          4.0250397641        0.7904724337       -1.5946109810
 C          3.8181857804        0.3101323460       -0.1546077034
 C          4.0430204612       -1.2171809315       -0.0349167559
 C          2.6622134566       -1.8905983715        0.0641626470
 C          1.6802939887       -0.7686006493       -0.2645855419
 C          2.3443823345        0.4851875179        0.3226151511
 C          1.5730185663        1.6638125071       -0.1693538864
 C          0.2513224668        1.5707378654       -0.3614208665
 C         -0.5226104001        0.3677884925       -0.1414313961
 C         -1.8817839309        0.3369023220       -0.2184465629
 C         -2.7347499778        1.5333412077       -0.5581373522
 C         -4.0065642819        1.5742112400        0.2832473913
 C         -4.7960696432        0.2900960829        0.1436452509
 O         -6.0110477433        0.2630461293        0.1548080846
 C         -3.9733287603       -0.9028355078        0.0575896357
 C         -2.6225879118       -0.8907711628       -0.0293131624
 C         -1.8781777887       -2.1927871590        0.0657637604
 C         -0.4675783346       -2.0824926746       -0.4889334674
 C          0.2333142084       -0.9056722463        0.1867000846
 C          2.3179944725        0.5272996455        1.8600637480
 O          4.7581424137        0.9481326351        0.6862344019
 H          5.0591003004        0.6100621270       -1.8819933212
 H          3.3747074363        0.2646822129       -2.2864569356
 H          3.8276990147        1.8579226655       -1.6795391118
 H          4.6462346807       -1.3994142170        0.8529904451
 H          4.6019590307       -1.5809427189       -0.8953367285
 H          2.4816223806       -2.2737331224        1.0686227808
 H          2.5755225330       -2.7235876010       -0.6319172572
 H          1.6598956300       -0.6421702188       -1.3534008040
 H          2.0786763949        2.6081187878       -0.3123331186
 H         -0.2780174079        2.4490694510       -0.6976333391
 H         -2.1946602469        2.4671362330       -0.4146995788
 H         -3.0142028825        1.4658765530       -1.6155624720
 H         -4.6342983802        2.4211616731        0.0026146902
 H         -3.7468535666        1.6829450906        1.3409645149
 H         -4.5022742901       -1.8441943564        0.1178623559
 H         -2.4404413221       -2.9737105091       -0.4496669425
 H         -1.8254546912       -2.4760802692        1.1228920024
 H          0.0816617600       -3.0063171746       -0.3042903202
 H         -0.5025911941       -1.9145391363       -1.5679101319
 H          0.2037991986       -1.0731498621        1.2701422569
 H          1.2977789664        0.6060410759        2.2253496145
 H          2.7888803353       -0.3543372395        2.2819351758
 H          2.8687081187        1.3980630529        2.2084517634
 H          4.7018307954        1.8995851677        0.5458167624
  45
  -61.069548820000001        2.7584250369578425E-002 !
 C          4.0205212824        0.7903101560       -1.5996591562
 C          3.8182842166        0.3098621764       -0.1590182215
 C          4.0433316509       -1.2174643275       -0.0402482425
 C          2.6625899985       -1.8907765246        0.0610026196
 C          1.6799483650       -0.7681363381       -0.2635419463
 C          2.3460818864        0.4847903355        0.3230695438
 C          1.5735537209        1.6641935074       -0.1651048792
 C          0.2513336602        1.5715922867       -0.3538918767
 C         -0.5224155156        0.3684103823       -0.1342390527
 C         -1.8817510241        0.3380337080       -0.2104854043
 C         -2.7332993605        1.5361932116       -0.5482522626
 C         -4.0106086706        1.5726490561        0.2849695823
 C         -4.7985695911        0.2889344949        0.1340363293
 O         -6.0135681357        0.2613850692        0.1330353224
 C         -3.9742059606       -0.9032388801        0.0535746172
 C         -2.6229188988       -0.8899267898       -0.0248214123
 C         -1.8780548344       -2.1912626512        0.0749966847
 C         -0.4680424580       -2.0825181322       -0.4814541140
 C          0.2342010603       -0.9052002666        0.1917784647
 C          2.3245828579        0.5250485770        1.8606698769
 O          4.7609202262        0.9478485146        0.6788122146
 H          3.8212063218        1.8574036487       -1.6843187235
 H          5.0541009963        0.6114478956       -1.8897345032
 H          3.3692861846        0.2633301269       -2.2897188150
 H          4.6480635171       -1.3999824891        0.8465759518
 H          4.6008027573       -1.5809765560       -0.9017169642
 H          2.4844073381       -2.2756005689        1.0652400141
 H          2.5740458899       -2.7225811731       -0.6362541427
 H          1.6563166659       -0.6404950149       -1.3521447605
 H          2.0789304301        2.6087368038       -0.3077721646
 H         -0.2784883988        2.4504804681       -0.6877650227
 H         -2.1943070948        2.4691548643       -0.3954404099
 H         -3.0056762516        1.4753505943       -1.6079023592
 H         -4.6366037745        2.4207860089        0.0041740758
 H         -3.7579289859        1.6764226199        1.3448663370
 H         -4.5027253833       -1.8450735995        0.1097077125
 H         -2.4403868078       -2.9746930148       -0.4365066457
 H         -1.8241070095       -2.4698074600        1.1333369298
 H          0.0810046351       -3.0063620984       -0.2961431194
 H         -0.5043730432       -1.9159835737       -1.5606240456
 H          0.2076876182       -1.0722856291        1.2753767601
 H          1.3055839404        0.6050890955        2.2291978577
 H          2.7952491426       -0.3579658295        2.2800150048
 H          2.8779293924        1.3944809220        2.2083467600
 H          4.7043786427        1.8992814939        0.5382800913
  45
  -61.069548800000000        2.7583666585478773E-002 !
 C          4.0239082566        0.7877121195       -1.5976995237
 C          3.8184361876        0.3096789710       -0.1567251032
 C          4.0434311785       -1.2174193815       -0.0348921409
 C          2.6625413696       -1.8907076982        0.0642357474
 C          1.6804331346       -0.7687249718       -0.2642056528
 C          2.3451411229        0.4853030209        0.3217587798
 C          1.5733645166        1.6637813265       -0.1698723913
 C          0.2512869022        1.5708969825       -0.3594072662
 C         -0.5223917881        0.3680920015       -0.1377566311
 C         -1.8817642904        0.3378521885       -0.2125340706
 C         -2.7336100079        1.5364671428       -0.5477312737
 C         -4.0089287154        1.5724737435        0.2886098801
 C         -4.7976178374        0.2890975334        0.1384481598
 O         -6.0126285510        0.2619442368        0.1404849011
 C         -3.9738614818       -0.9032242640        0.0542560368
 C         -2.6227412123       -0.8901810767       -0.0269738269
 C         -1.8781006433       -2.1919709738        0.0691224828
 C         -0.4678635118       -2.0821708224       -0.4865891671
 C          0.2338979593       -0.9056171084        0.1885301988
 C          2.3202526572        0.5279914998        1.8592178764
 O          4.7590962939        0.9491671904        0.6821804757
 H          3.8250786634        1.8547310330       -1.6846037108
 H          5.0581078837        0.6080999448       -1.8851626426
 H          3.3740742212        0.2596619570       -2.2882857770
 H          4.6460411933       -1.3984055617        0.8537060759
 H          4.6030239347       -1.5823247729       -0.8943980607
 H          2.4821072388       -2.2739455141        1.0686749503
 H          2.5757222549       -2.7236359915       -0.6319016236
 H          1.6589498630       -0.6427796351       -1.3530424813
 H          2.0790799536        2.6077575500       -0.3148996216
 H         -0.2784376428        2.4488374320       -0.6960300641
 H         -2.1937956487        2.4690440454       -0.3953074736
 H         -3.0085407790        1.4764969353       -1.6067686827
 H         -4.6354250711        2.4210608942        0.0101759483
 H         -3.7536069637        1.6750917018        1.3479925546
 H         -4.5025378082       -1.8449837420        0.1100741311
 H         -2.4405523899       -2.9736662284       -0.4449039876
 H         -1.8245361112       -2.4737968434        1.1266205435
 H          0.0812581005       -3.0061718995       -0.3023982613
 H         -0.5037296891       -1.9141528293       -1.5655243157
 H          0.2055936593       -1.0735146750        1.2719531700
 H          2.7912621832       -0.3535875541        2.2810427949
 H          2.8714699463        1.3987917052        2.2066980273
 H          1.3003698606        0.6071416724        2.2253399299
 H          4.7025454769        1.9003837056        0.5402374305
  45
  -61.069548550000000        2.7576370327225107E-002 !
 C          4.0196447590        0.7898438301       -1.6006360423
 C          3.8182906855        0.3098310010       -0.1597288602
 C          4.0433957455       -1.2174579475       -0.0407752063
 C          2.6626713289       -1.8907851538        0.0609168864
 C          1.6798986307       -0.7681174084       -0.2631923806
 C          2.3463690442        0.4847171524        0.3231983961
 C          1.5735600097        1.6642749414       -0.1640835746
 C          0.2512967645        1.5717418959       -0.3524669897
 C         -0.5224209142        0.3684919384       -0.1331145381
 C         -1.8817629387        0.3381818527       -0.2094798925
 C         -2.7331351224        1.5365603434       -0.5469717164
 C         -4.0111626075        1.5724502269        0.2851500095
 C         -4.7988799523        0.2887786847        0.1327765091
 O         -6.0138679725        0.2611814004        0.1302340361
 C         -3.9743199450       -0.9032786880        0.0528168784
 C         -2.6229827813       -0.8898224132       -0.0244358196
 C         -1.8780750205       -2.1910841075        0.0759061356
 C         -0.4680880751       -2.0824691929       -0.4805989465
 C          0.2342780482       -0.9051779671        0.1925416681
 C          2.3257416551        0.5248295088        1.8607916769
 O          4.7613811705        0.9480985546        0.6773925485
 H          5.0534936165        0.6124002461       -1.8906017603
 H          3.3692193831        0.2614589283       -2.2904084972
 H          3.8187247480        1.8565795655       -1.6858453782
 H          4.6482898447       -1.3998181720        0.8459711999
 H          4.6007494263       -1.5810507869       -0.9022924712
 H          2.4848011871       -2.2757063749        1.0651778011
 H          2.5738681695       -2.7225133163       -0.6363937709
 H          1.6558289273       -0.6403631927       -1.3517657611
 H          2.0788865928        2.6088228583       -0.3067182670
 H         -0.2785267140        2.4506494401       -0.6863353395
 H         -2.1943253061        2.4694197881       -0.3928084719
 H         -3.0046301323        1.4766181176       -1.6069381129
 H         -4.6369679719        2.4207602342        0.0043312637
 H         -3.7593872855        1.6755144678        1.3453362796
 H         -4.5028040883       -1.8451816001        0.1082207893
 H         -2.4403335788       -2.9747270092       -0.4353383826
 H         -1.8240561510       -2.4692501465        1.1343549669
 H          0.0808816738       -3.0063390642       -0.2953111853
 H         -0.5044456989       -1.9160323180       -1.5597605619
 H          0.2080482063       -1.0723649602        1.2761236349
 H          2.7975039937       -0.3577194685        2.2797470289
 H          2.8784367735        1.3947310235        2.2081937294
 H          1.3069558372        0.6038655892        2.2300054759
 H          4.7045244125        1.8994946519        0.5367747639
  45
  -61.069548240000003        2.7567325647320905E-002 !
 C          4.0185060330        0.7949427189       -1.5990018332
 C          3.8180282802        0.3102588551       -0.1595356434
 C          4.0428376883       -1.2175192495       -0.0453276281
 C          2.6623363528       -1.8906542601        0.0597201017
 C          1.6794763335       -0.7677042462       -0.2626766533
 C          2.3463471345        0.4844398249        0.3247332327
 C          1.5732196112        1.6645486773       -0.1607691546
 C          0.2511843420        1.5719829705       -0.3508262290
 C         -0.5226890589        0.3683851134       -0.1340184273
 C         -1.8818016303        0.3374032197       -0.2132912715
 C         -2.7338393626        1.5336141057       -0.5564090495
 C         -4.0100707433        1.5739701166        0.2782582287
 C         -4.7981937886        0.2895218415        0.1344436032
 O         -6.0131721579        0.2618203926        0.1376425366
 C         -3.9741509731       -0.9029646998        0.0553167344
 C         -2.6230006377       -0.8901945277       -0.0250649868
 C         -1.8782142721       -2.1914180888        0.0766160690
 C         -0.4679739099       -2.0829847350       -0.4792531838
 C          0.2338808843       -0.9049568250        0.1931325214
 C          2.3269531691        0.5229299257        1.8623762081
 O          4.7619336297        0.9453985792        0.6790015973
 H          3.3648788309        0.2714871607       -2.2895055554
 H          3.8210327499        1.8626962318       -1.6797682123
 H          5.0511981433        0.6150934604       -1.8916231056
 H          4.6511338280       -1.4026017894        0.8385068061
 H          4.5965314331       -1.5790990356       -0.9100380143
 H          2.4865656218       -2.2750588449        1.0645378451
 H          2.5718811358       -2.7226217515       -0.6370865687
 H          1.6552253272       -0.6388970463       -1.3511429299
 H          2.0782439681        2.6096854517       -0.3006056603
 H         -0.2785382468        2.4517294156       -0.6826760456
 H         -2.1949930474        2.4676552958       -0.4099839395
 H         -3.0076744457        1.4664381838       -1.6153368051
 H         -4.6366249230        2.4206325767       -0.0058318804
 H         -3.7561066184        1.6828754681        1.3373486624
 H         -4.5028314317       -1.8445228113        0.1146207523
 H         -2.4402186031       -2.9753484589       -0.4344891339
 H         -1.8248210042       -2.4690161429        1.1352364595
 H          0.0811016915       -3.0065709225       -0.2928659577
 H         -0.5037960025       -1.9174828199       -1.5585796358
 H          0.2075046911       -1.0713141746        1.2768194489
 H          2.8784830344        1.3933764825        2.2102988504
 H          1.3083751245        0.5999105194        2.2326118940
 H          2.8005945433       -0.3592889893        2.2799421658
 H          4.7054576340        1.8972743952        0.5416344570
  45
  -61.069547970000002        2.7559450439883396E-002 !
 C          4.0317259797        0.7843926919       -1.5917346341
 C          3.8186312141        0.3097338815       -0.1507391817
 C          4.0434032852       -1.2169928847       -0.0242229286
 C          2.6622383208       -1.8905797380        0.0687020019
 C          1.6811954490       -0.7696584993       -0.2665885680
 C          2.3428292660        0.4859768263        0.3196163031
 C          1.5731071276        1.6629678697       -0.1788831476
 C          0.2515091067        1.5695201757       -0.3714321837
 C         -0.5224125902        0.3674322211       -0.1469248461
 C         -1.8817934157        0.3370473643       -0.2201041599
 C         -2.7351557126        1.5350010809       -0.5534345089
 C         -4.0043511131        1.5732902945        0.2921658884
 C         -4.7948328489        0.2900448862        0.1498670329
 O         -6.0098190392        0.2635324060        0.1633103616
 C         -3.9727751966       -0.9029514095        0.0584007837
 C         -2.6222573473       -0.8909318374       -0.0319313967
 C         -1.8780253238       -2.1935853403        0.0569050232
 C         -0.4674115090       -2.0817970985       -0.4975784875
 C          0.2330679254       -0.9063241648        0.1808902165
 C          2.3096800939        0.5323437793        1.8568190865
 O          4.7546659213        0.9513553232        0.6917592546
 H          3.3849954513        0.2552338851       -2.2844484922
 H          3.8341566229        1.8513837182       -1.6820015719
 H          5.0672598824        0.6034752146       -1.8734950602
 H          4.6410723960       -1.3957297983        0.8681383748
 H          4.6080457521       -1.5835749287       -0.8796915853
 H          2.4767178924       -2.2723440659        1.0727961834
 H          2.5793640830       -2.7246623423       -0.6265364543
 H          1.6641326270       -0.6460681924       -1.3557697308
 H          2.0795860480        2.6060607730       -0.3267677464
 H         -0.2775005640        2.4458848440       -0.7132365619
 H         -2.1940122386        2.4678439788       -0.4075226581
 H         -3.0177155870        1.4718763237       -1.6103197599
 H         -4.6325309477        2.4217030304        0.0168750947
 H         -3.7412905193        1.6776172585        1.3495368817
 H         -4.5018889575       -1.8443234967        0.1168451426
 H         -2.4407348888       -2.9719533748       -0.4618863359
 H         -1.8252676415       -2.4816798514        1.1127219047
 H          0.0819370238       -3.0059727375       -0.3150287567
 H         -0.5022671182       -1.9112975814       -1.5761506899
 H          0.2010793915       -1.0751824235        1.2640509523
 H          1.2878656029        0.6126925677        2.2172952251
 H          2.7781332640       -0.3484164047        2.2832330673
 H          2.8593611829        1.4037772201        2.2051991632
 H          4.6982597595        1.9022796113        0.5477305461
  45
  -61.069547849999999        2.7555951069791935E-002 !
 C          4.0320806753        0.7845939542       -1.5899020827
 C          3.8182831936        0.3101519221       -0.1489536065
 C          4.0431782843       -1.2164977110       -0.0222254324
 C          2.6620503877       -1.8905654164        0.0682622210
 C          1.6811559918       -0.7694779765       -0.2670219283
 C          2.3421490402        0.4858737366        0.3204355020
 C          1.5727796609        1.6631498800       -0.1779010202
 C          0.2515065066        1.5695754883       -0.3724802591
 C         -0.5225102477        0.3672178006       -0.1497738122
 C         -1.8817157641        0.3363031541       -0.2248551123
 C         -2.7359726007        1.5325869844       -0.5615423886
 C         -4.0023267041        1.5746692506        0.2880519630
 C         -4.7934526341        0.2908698968        0.1542849647
 O         -6.0083303772        0.2644850296        0.1749794995
 C         -3.9722589006       -0.9025877682        0.0608584937
 C         -2.6220483300       -0.8914029958       -0.0340644866
 C         -1.8781049766       -2.1943069152        0.0535002424
 C         -0.4671493261       -2.0819067109       -0.4999792656
 C          0.2326618749       -0.9064371225        0.1792443349
 C          2.3078979410        0.5311659039        1.8576424204
 O          4.7536423722        0.9521873273        0.6939708609
 H          3.3872839499        0.2538559866       -2.2831429870
 H          3.8324150511        1.8510995454       -1.6808680364
 H          5.0682858666        0.6055971275       -1.8703777498
 H          4.6392504300       -1.3950676098        0.8712382693
 H          4.6094999888       -1.5828788444       -0.8766729260
 H          2.4753697389       -2.2735580850        1.0716706952
 H          2.5801675054       -2.7238435718       -0.6280654247
 H          1.6648808645       -0.6451663208       -1.3561310748
 H          2.0791607866        2.6066333979       -0.3236355433
 H         -0.2772549691        2.4463549451       -0.7135966622
 H         -2.1946997744        2.4664103184       -0.4229072782
 H         -3.0222240859        1.4635104263       -1.6170234682
 H         -4.6314853992        2.4217659826        0.0110886706
 H         -3.7357325386        1.6838512321        1.3440115963
 H         -4.5016690634       -1.8436027146        0.1223643455
 H         -2.4407097002       -2.9718030887       -0.4667683488
 H         -1.8260534074       -2.4839723286        1.1089121496
 H          0.0823336028       -3.0060027374       -0.3173967364
 H         -0.5013770453       -1.9110258781       -1.5785208229
 H          0.1996504326       -1.0752712033        1.2623658004
 H          2.7753619239       -0.3502471750        2.2837620211
 H          2.8579767773        1.4019223517        2.2070379536
 H          1.2858847614        0.6119820623        2.2174188782
 H          4.6970694368        1.9030443247        0.5496483940
  45
  -61.069547300000004        2.7539917975154971E-002 !
 C          4.0347909724        0.7833934361       -1.5884897533
 C          3.8184842994        0.3100229147       -0.1475664556
 C          4.0433815006       -1.2165136548       -0.0194173316
 C          2.6621080236       -1.8903984790        0.0690316020
 C          1.6814109312       -0.7697359279       -0.2681215574
 C          2.3415724611        0.4861690017        0.3192057512
 C          1.5727133264        1.6628495088       -0.1814189718
 C          0.2514664108        1.5690985316       -0.3760965066
 C         -0.5224743705        0.3670211567       -0.1516582321
 C         -1.8817317198        0.3363100169       -0.2251881472
 C         -2.7359328462        1.5332369826       -0.5596995306
 C         -4.0016296795        1.5743375984        0.2909019309
 C         -4.7930998476        0.2908486123        0.1560390835
 O         -6.0079904661        0.2646648242        0.1769917312
 C         -3.9721079160       -0.9026580010        0.0615061459
 C         -2.6219628508       -0.8914737044       -0.0344177179
 C         -1.8780179204       -2.1944935645        0.0516984742
 C         -0.4672882339       -2.0818774180       -0.5024291921
 C          0.2326132592       -0.9067200926        0.1771822546
 C          2.3049620621        0.5329154910        1.8562932704
 O          4.7524407963        0.9525276373        0.6965873099
 H          5.0713752502        0.6037357222       -1.8671513216
 H          3.3908707154        0.2524882720       -2.2824316109
 H          3.8358296380        1.8499346347       -1.6804704023
 H          4.6378145820       -1.3945608241        0.8752564122
 H          4.6111130194       -1.5836237467       -0.8726217435
 H          2.4738714218       -2.2729015824        1.0723355640
 H          2.5814120034       -2.7240055479       -0.6270704866
 H          1.6663165554       -0.6463530340       -1.3573448631
 H          2.0793095192        2.6059310240       -0.3288876804
 H         -0.2772880640        2.4451527595       -0.7191388518
 H         -2.1941790352        2.4667287678       -0.4203592691
 H         -3.0233568866        1.4655950706       -1.6149251527
 H         -4.6308219047        2.4220310704        0.0158045454
 H         -3.7338269907        1.6820007395        1.3466990603
 H         -4.5015402973       -1.8436684463        0.1228975062
 H         -2.4410099647       -2.9715586321       -0.4687858206
 H         -1.8253959308       -2.4849027210        1.1068737667
 H          0.0823366945       -3.0060466981       -0.3205894820
 H         -0.5018712774       -1.9102413098       -1.5808295730
 H          0.1989521622       -1.0759288767        1.2602118878
 H          2.8548160842        1.4038029347        2.2058182602
 H          1.2823714205        0.6144627636        2.2142433980
 H          2.7713219734       -0.3483860212        2.2839147444
 H          4.6960848831        1.9033074385        0.5516754415
  45
  -61.069354480000001        2.2456843160249866E-002 !
 C          4.0232190467        0.7811305636       -1.5959967456
 C          3.8134413803        0.3074655089       -0.1539396130
 C          4.0436147093       -1.2273217471       -0.0374432568
 C          2.6613657915       -1.9021537276        0.0456659796
 C          1.6799541068       -0.7764785523       -0.2732863612
 C          2.3463735686        0.4729220281        0.3201948689
 C          1.5821485167        1.6561067226       -0.1693583351
 C          0.2596821979        1.5679251695       -0.3577986847
 C         -0.5177265753        0.3666937403       -0.1383743621
 C         -1.8774387607        0.3395432675       -0.2113766023
 C         -2.7262647139        1.5404136076       -0.5470291318
 C         -4.0012570674        1.5807848428        0.2894146991
 C         -4.7934419990        0.2993519292        0.1412173896
 O         -6.0087674714        0.2754765626        0.1446206256
 C         -3.9732171640       -0.8950252596        0.0581755993
 C         -2.6219208208       -0.8855788767       -0.0235544955
 C         -1.8810944219       -2.1893439589        0.0758787567
 C         -0.4724690919       -2.0853358573       -0.4848001807
 C          0.2353710594       -0.9098266032        0.1857334609
 C          2.3158077927        0.5131067062        1.8573235261
 O          4.6767213005        1.0348920456        0.6990872627
 H          3.8878089609        1.8581915954       -1.6583671390
 H          5.0379204695        0.5449225617       -1.9166992556
 H          3.3288164873        0.3017481524       -2.2785743614
 H          4.6312760136       -1.4271295168        0.8589608013
 H          4.6082727623       -1.5925364475       -0.8953732948
 H          2.4772157682       -2.2972683944        1.0448421951
 H          2.5774494693       -2.7271574521       -0.6605689050
 H          1.6538577112       -0.6455033927       -1.3614146702
 H          2.1004525486        2.5922420347       -0.3072267724
 H         -0.2679925935        2.4483425650       -0.6908161563
 H         -2.1835465891        2.4713208216       -0.3953475664
 H         -3.0016256463        1.4806050458       -1.6060170421
 H         -4.6255576322        2.4307355273        0.0101667068
 H         -3.7451838547        1.6841227362        1.3485527591
 H         -4.5042876773       -1.8353597560        0.1161718012
 H         -2.4473097426       -2.9716564245       -0.4331201034
 H         -1.8247928673       -2.4667315783        1.1344011646
 H          0.0741498116       -3.0110817510       -0.3010755164
 H         -0.5117086975       -1.9190913123       -1.5639179250
 H          0.2123119164       -1.0753128116        1.2695587669
 H          2.7389279786       -0.3911847260        2.2821631408
 H          2.9120556363        1.3562877425        2.1939579258
 H          1.2989483918        0.6427586230        2.2173965079
 H          5.5708827184        0.9749626350        0.3466005036
  45
  -61.069354140000002        2.2448764950258333E-002 !
 C          4.0273648823        0.7789498719       -1.5927562718
 C          3.8134388140        0.3073697232       -0.1506335103
 C          4.0436158907       -1.2271908648       -0.0311615036
 C          2.6612577219       -1.9020406824        0.0495118003
 C          1.6804699307       -0.7771588343       -0.2741332223
 C          2.3450161576        0.4734186061        0.3190527007
 C          1.5819173346        1.6556286548       -0.1746428387
 C          0.2597303186        1.5671002956       -0.3647582250
 C         -0.5177405086        0.3662937977       -0.1435364940
 C         -1.8774417093        0.3390718048       -0.2156794718
 C         -2.7270665622        1.5397078516       -0.5498676535
 C         -3.9984820590        1.5810835397        0.2920429025
 C         -4.7918306264        0.2998682391        0.1480109348
 O         -6.0071496122        0.2764910052        0.1577156125
 C         -3.9726481615       -0.8948781727        0.0600186492
 C         -2.6216558274       -0.8860507196       -0.0268367219
 C         -1.8811677058       -2.1904239648        0.0677929572
 C         -0.4720779819       -2.0850062710       -0.4915239351
 C          0.2348177500       -0.9102758215        0.1814801201
 C          2.3100808904        0.5162491098        1.8560008365
 O          4.6741078358        1.0361593144        0.7038513939
 H          5.0427487062        0.5415865280       -1.9104229194
 H          3.3343976549        0.2991082904       -2.2764732104
 H          3.8929259428        1.8560276577       -1.6569624621
 H          4.6290909662       -1.4255644778        0.8669889576
 H          4.6104677269       -1.5935835920       -0.8871377314
 H          2.4744808497       -2.2952673802        1.0489450390
 H          2.5793901398       -2.7284255237       -0.6553358585
 H          1.6572892927       -0.6480021528       -1.3625463966
 H          2.1005933340        2.5912866480       -0.3142653625
 H         -0.2675597157        2.4464726912       -0.7011584819
 H         -2.1834608902        2.4706423862       -0.4016603023
 H         -3.0068574515        1.4784533968       -1.6075970372
 H         -4.6237252869        2.4310668060        0.0150174654
 H         -3.7379274242        1.6849139838        1.3500308016
 H         -4.5040470555       -1.8349742692        0.1187721861
 H         -2.4474139673       -2.9704009327       -0.4447811608
 H         -1.8258056401       -2.4722003821        1.1251955964
 H          0.0746135313       -3.0109145023       -0.3088286203
 H         -0.5103414213       -1.9169913211       -1.5704103233
 H          0.2091855496       -1.0764921777        1.2651359287
 H          2.7330841100       -0.3867659592        2.2836633440
 H          2.9043547061        1.3607357146        2.1928596074
 H          1.2920476189        0.6453052638        2.2129230625
 H          5.5693234612        0.9757280241        0.3541349736
  45
  -61.069354030000000        2.2446152033887990E-002 !
 C          4.0225704051        0.7777527222       -1.5991771092
 C          3.8137821386        0.3069140831       -0.1560636501
 C          4.0440851857       -1.2275995538       -0.0367760966
 C          2.6617386318       -1.9022511281        0.0466815028
 C          1.6801626323       -0.7768310366       -0.2728943141
 C          2.3470869245        0.4731109158        0.3188818158
 C          1.5825754535        1.6558308292       -0.1712619730
 C          0.2596752785        1.5678104529       -0.3567582850
 C         -0.5174588071        0.3669368569       -0.1345823219
 C         -1.8774265158        0.3406452000       -0.2044520910
 C         -2.7248454276        1.5442956741       -0.5341101572
 C         -4.0038136701        1.5785744428        0.2966204175
 C         -4.7951037550        0.2981981866        0.1357051144
 O         -6.0104262425        0.2743223513        0.1287576398
 C         -3.9738224803       -0.8955101288        0.0542159483
 C         -2.6221106602       -0.8849329849       -0.0210959710
 C         -1.8809956331       -2.1884885154        0.0787100275
 C         -0.4727429290       -2.0848816900       -0.4830295014
 C          0.2359778168       -0.9098808659        0.1874268131
 C          2.3175286484        0.5148557617        1.8559776110
 O          4.6775380336        1.0360386168        0.6949900913
 H          3.3283529311        0.2962603216       -2.2804491400
 H          3.8863115959        1.8545688472       -1.6639056857
 H          5.0373532669        0.5416480948       -1.9197105858
 H          4.6311822797       -1.4257848896        0.8603626380
 H          4.6094082932       -1.5941875531       -0.8936848004
 H          2.4775091167       -2.2968527092        1.0460464435
 H          2.5777522589       -2.7276286561       -0.6590919432
 H          1.6532824054       -0.6469494576       -1.3611224905
 H          2.1010434719        2.5914192322       -0.3121206912
 H         -0.2684387763        2.4474913038       -0.6910310100
 H         -2.1822832702        2.4734802570       -0.3712782033
 H         -2.9949984942        1.4939904400       -1.5949261606
 H         -4.6267389245        2.4304831201        0.0203098422
 H         -3.7528016960        1.6743304746        1.3576693657
 H         -4.5046174823       -1.8363089361        0.1065333150
 H         -2.4474333417       -2.9713416166       -0.4291768050
 H         -1.8238568924       -2.4648353079        1.1374771167
 H          0.0736757468       -3.0109111023       -0.3000591282
 H         -0.5127658562       -1.9182722217       -1.5620697774
 H          0.2139353995       -1.0758791403        1.2712157407
 H          2.7408736907       -0.3889974280        2.2815159771
 H          2.9140098772        1.3583811518        2.1913475301
 H          1.3008997435        0.6449151905        2.2165415847
 H          5.5715238203        0.9753059584        0.3422004842
  45
  -61.069353839999998        2.2441639531066770E-002 !
 C          4.0174731051        0.7837405710       -1.6011994985
 C          3.8134553562        0.3072421879       -0.1592462061
 C          4.0436429239       -1.2278619227       -0.0465560007
 C          2.6615408488       -1.9022442038        0.0425471049
 C          1.6793431171       -0.7759198685       -0.2714690520
 C          2.3483735342        0.4724437650        0.3211796580
 C          1.5825241070        1.6565499521       -0.1635515844
 C          0.2595412396        1.5688311837       -0.3486328575
 C         -0.5176525854        0.3672573253       -0.1302003225
 C         -1.8774502407        0.3405009243       -0.2033107518
 C         -2.7247058086        1.5427124012       -0.5385486708
 C         -4.0056221391        1.5794715100        0.2889878188
 C         -4.7960371823        0.2982250490        0.1307532630
 O         -6.0113208675        0.2738533243        0.1216340467
 C         -3.9741786569       -0.8954306335        0.0540303801
 C         -2.6223616471       -0.8847926324       -0.0186242932
 C         -1.8810763765       -2.1877386296        0.0868345393
 C         -0.4729643178       -2.0856166398       -0.4754003188
 C          0.2361937813       -0.9092676261        0.1921411610
 C          2.3241665646        0.5105743082        1.8584757816
 O          4.6804829334        1.0327066760        0.6916312902
 H          3.8827622560        1.8610578041       -1.6607531028
 H          5.0305720018        0.5473073323       -1.9267605038
 H          3.3196839358        0.3064140672       -2.2817550619
 H          4.6359471654       -1.4294933349        0.8463802102
 H          4.6036194613       -1.5917070566       -0.9081400261
 H          2.4816607940       -2.2977729478        1.0423368168
 H          2.5740947985       -2.7268511850       -0.6637051627
 H          1.6496010048       -0.6436766242       -1.3593544626
 H          2.1003698237        2.5930553719       -0.3006732987
 H         -0.2687113267        2.4500121562       -0.6786915709
 H         -2.1830656670        2.4728226297       -0.3781776407
 H         -2.9924009342        1.4884026767       -1.5998056990
 H         -4.6281842152        2.4301907665        0.0081628281
 H         -3.7572563711        1.6790544184        1.3503056953
 H         -4.5048009809       -1.8362306723        0.1081760893
 H         -2.4471634660       -2.9729263522       -0.4178008722
 H         -1.8237747774       -2.4596132105        1.1467544190
 H          0.0733768323       -3.0112820724       -0.2904050175
 H         -0.5133068823       -1.9214891250       -1.5548057973
 H          0.2164514781       -1.0739283121        1.2761676369
 H          1.3088447579        0.6398192061        2.2229928325
 H          2.7490298097       -0.3942431049        2.2804231886
 H          2.9218269649        1.3532759447        2.1937623433
 H          5.5731263755        0.9732737931        0.3352326834
  45
  -61.069353589999999        2.2435703409516471E-002 !
 C          4.0316038472        0.7768070384       -1.5901269638
 C          3.8137206584        0.3072641938       -0.1479386803
 C          4.0438030076       -1.2270845530       -0.0257676740
 C          2.6612789510       -1.9020025087        0.0516682489
 C          1.6810050041       -0.7776874274       -0.2754744722
 C          2.3439929967        0.4738815254        0.3175068960
 C          1.5818808248        1.6551693547       -0.1800419907
 C          0.2598436154        1.5663384251       -0.3710485805
 C         -0.5176525079        0.3660219297       -0.1473967468
 C         -1.8774364573        0.3389701842       -0.2176248952
 C         -2.7274054814        1.5400368857       -0.5492692174
 C         -3.9968422660        1.5808448185        0.2956859051
 C         -4.7909735682        0.3000335289        0.1523553222
 O         -6.0063199187        0.2769742041        0.1650035737
 C         -3.9722956766       -0.8948512277        0.0612922614
 C         -2.6214474735       -0.8862470837       -0.0284973083
 C         -1.8810780366       -2.1909923097        0.0629122407
 C         -0.4721102405       -2.0846899507       -0.4965952348
 C          0.2346476683       -0.9106282284        0.1778053048
 C          2.3046514006        0.5188033285        1.8542939064
 O          4.6721230675        1.0372235792        0.7078524765
 H          3.3401618535        0.2964680333       -2.2750202093
 H          3.8979906960        1.8538770558       -1.6561258154
 H          5.0476827382        0.5384313884       -1.9047945423
 H          4.6265117982       -1.4241722536        0.8744857975
 H          4.6133139501       -1.5945884091       -0.8795244929
 H          2.4716586149       -2.2944664822        1.0508586482
 H          2.5813408169       -2.7289518836       -0.6527442563
 H          1.6598717628       -0.6499442380       -1.3640909558
 H          2.1009304833        2.5902463989       -0.3220100402
 H         -0.2672804160        2.4446911690       -0.7103768149
 H         -2.1830875539        2.4706316317       -0.4013907122
 H         -3.0097556422        1.4797508630       -1.6063638119
 H         -4.6226219206        2.4311496649        0.0209206901
 H         -3.7337137365        1.6836426342        1.3531408510
 H         -4.5038626467       -1.8348733698        0.1199196685
 H         -2.4476626876       -2.9696665911       -0.4513094393
 H         -1.8253774379       -2.4752231449        1.1196681149
 H          0.0746916621       -3.0107417190       -0.3150091891
 H         -0.5105028235       -1.9154820991       -1.5753024203
 H          0.2076031622       -1.0774039823        1.2613443244
 H          1.2856494843        0.6486003863        2.2081594038
 H          2.7262447392       -0.3837251785        2.2843790039
 H          2.8981427511        1.3636297338        2.1916560940
 H          5.5683405863        0.9758955653        0.3609066027
  45
  -61.069353530000001        2.2434278974050904E-002 !
 C          4.0319544791        0.7761156967       -1.5900519778
 C          3.8136155534        0.3072998521       -0.1476968681
 C          4.0436578669       -1.2269940741       -0.0249409086
 C          2.6611714336       -1.9020418541        0.0519984214
 C          1.6809900079       -0.7777463746       -0.2755597603
 C          2.3438266345        0.4738871618        0.3174766236
 C          1.5818714463        1.6551017455       -0.1804350122
 C          0.2598350552        1.5663056029       -0.3714527458
 C         -0.5176837985        0.3659994878       -0.1477583148
 C         -1.8774566177        0.3389536214       -0.2179428642
 C         -2.7274665483        1.5400311661       -0.5494048433
 C         -3.9966157141        1.5809376395        0.2959889209
 C         -4.7907219844        0.3000487394        0.1529608442
 O         -6.0060292863        0.2770127256        0.1661589225
 C         -3.9721935343       -0.8948608264        0.0612228934
 C         -2.6214049586       -0.8862767189       -0.0288770827
 C         -1.8810240534       -2.1910325168        0.0620023824
 C         -0.4719390987       -2.0847137621       -0.4972623226
 C          0.2345530631       -0.9106926811        0.1774776672
 C          2.3043751139        0.5190910336        1.8542502376
 O          4.6716813145        1.0376833081        0.7080598984
 H          5.0483863265        0.5384042953       -1.9041541687
 H          3.3411231038        0.2949096738       -2.2749770929
 H          3.8975478555        1.8530159904       -1.6566566776
 H          4.6259554537       -1.4236982992        0.8756421428
 H          4.6136923842       -1.5946841481       -0.8782527442
 H          2.4713163653       -2.2944588743        1.0511711007
 H          2.5816062657       -2.7290562619       -0.6523831203
 H          1.6600970401       -0.6501379969       -1.3641956464
 H          2.1009507376        2.5901844065       -0.3223352249
 H         -0.2672964245        2.4447053555       -0.7106568392
 H         -2.1831022296        2.4706418995       -0.4017670469
 H         -3.0101059754        1.4796422745       -1.6064349923
 H         -4.6223956430        2.4313351921        0.0214242545
 H         -3.7331300619        1.6837389231        1.3533676612
 H         -4.5037119616       -1.8348944234        0.1199988945
 H         -2.4475750036       -2.9694783771       -0.4525529797
 H         -1.8256434100       -2.4757177642        1.1186184539
 H          0.0748897053       -3.0107950219       -0.3157945536
 H         -0.5101653530       -1.9152232871       -1.5759213327
 H          0.2072396017       -1.0776021754        1.2609879811
 H          2.8977539441        1.3640515916        2.1915220983
 H          1.2852992872        0.6488112958        2.2079610182
 H          2.7260308572       -0.3833306514        2.2845133509
 H          5.5680224670        0.9763542341        0.3613903722
  45
  -61.069353430000000        2.2431905115797332E-002 !
 C          4.0314295491        0.7760919939       -1.5897539200
 C          3.8134879894        0.3073744819       -0.1473013775
 C          4.0437234862       -1.2268433419       -0.0241684028
 C          2.6611977596       -1.9020105066        0.0514276774
 C          1.6809364238       -0.7775904539       -0.2755983116
 C          2.3437331941        0.4737766730        0.3179588088
 C          1.5817745762        1.6552966601       -0.1791630741
 C          0.2598581263        1.5664869165       -0.3709603311
 C         -0.5177258414        0.3660183423       -0.1483795276
 C         -1.8774324603        0.3387008416       -0.2196866394
 C         -2.7278657099        1.5390133958       -0.5527983225
 C         -3.9960025542        1.5815063870        0.2939910430
 C         -4.7902851571        0.3003544737        0.1542310799
 O         -6.0055541912        0.2773094986        0.1700221970
 C         -3.9720156823       -0.8947138468        0.0621593633
 C         -2.6213496949       -0.8864221389       -0.0295482436
 C         -1.8811076609       -2.1912843618        0.0610024330
 C         -0.4718448570       -2.0847038009       -0.4977411684
 C          0.2344174571       -0.9106477296        0.1771909785
 C          2.3042655748        0.5182424957        1.8547525227
 O          4.6714580686        1.0381562914        0.7081983443
 H          3.8958488755        1.8528455777       -1.6568434877
 H          5.0481499084        0.5393122794       -1.9035612920
 H          3.3413596021        0.2937909944       -2.2746552407
 H          4.6250735330       -1.4233152921        0.8770827257
 H          4.6147524669       -1.5945504241       -0.8768014932
 H          2.4709137775       -2.2954715369        1.0501136341
 H          2.5820631870       -2.7283299563       -0.6538143506
 H          1.6600341288       -0.6494574692       -1.3641650133
 H          2.1008780536        2.5904993205       -0.3201807591
 H         -0.2669643783        2.4449302650       -0.7104698931
 H         -2.1836451818        2.4701205974       -0.4080497721
 H         -3.0117697859        1.4761208647       -1.6093335001
 H         -4.6221717135        2.4313507530        0.0186239274
 H         -3.7312784675        1.6863025045        1.3508632867
 H         -4.5036433104       -1.8346036902        0.1220881825
 H         -2.4475491833       -2.9694491573       -0.4541307547
 H         -1.8260851784       -2.4765100212        1.1174793384
 H          0.0750376057       -3.0107271515       -0.3161765687
 H         -0.5097225501       -1.9151818763       -1.5764039992
 H          0.2068492816       -1.0775590284        1.2606836767
 H          2.8981916668        1.3626115106        2.1925103775
 H          1.2852626996        0.6484313046        2.2084991240
 H          2.7252593236       -0.3847086285        2.2845271774
 H          5.5677286341        0.9771806886        0.3613097858
  45
  -61.069353149999998        2.2425259648951944E-002 !
 C          4.0333521152        0.7744882946       -1.5889071863
 C          3.8136316820        0.3072425595       -0.1462519069
 C          4.0437968437       -1.2268284344       -0.0213724487
 C          2.6611736295       -1.9020073176        0.0524689954
 C          1.6811980615       -0.7778301820       -0.2762943460
 C          2.3432972407        0.4740714364        0.3169762662
 C          1.5817548154        1.6550518677       -0.1821344174
 C          0.2598115218        1.5661378834       -0.3738215085
 C         -0.5176705262        0.3658870297       -0.1497532373
 C         -1.8774320188        0.3387739276       -0.2195838736
 C         -2.7277245819        1.5397382323       -0.5506137163
 C         -3.9955179216        1.5810980011        0.2968070631
 C         -4.7900257489        0.3002738769        0.1553839783
 O         -6.0053063682        0.2773776870        0.1712371133
 C         -3.9718845586       -0.8947841990        0.0622246848
 C         -2.6212421109       -0.8864309069       -0.0299084817
 C         -1.8810393544       -2.1914294017        0.0591016629
 C         -0.4718995486       -2.0845265974       -0.4999266178
 C          0.2344234695       -0.9108498019        0.1756111802
 C          2.3020931929        0.5196504576        1.8536983221
 O          4.6704820542        1.0389160361        0.7096118849
 H          3.3444005344        0.2912308287       -2.2742615982
 H          3.8975902011        1.8511307059       -1.6573866491
 H          5.0505830265        0.5376337510       -1.9010007758
 H          4.6235830157       -1.4223722047        0.8810838670
 H          4.6164133249       -1.5952492573       -0.8726332820
 H          2.4694823115       -2.2951751026        1.0510017031
 H          2.5830513272       -2.7285660437       -0.6526090933
 H          1.6611444677       -0.6504513841       -1.3649596432
 H          2.1010073876        2.5899723471       -0.3244321331
 H         -0.2672216577        2.4442126049       -0.7140528686
 H         -2.1829906640        2.4703651745       -0.4044677623
 H         -3.0120333304        1.4786609679       -1.6071406965
 H         -4.6216910838        2.4314346480        0.0230028669
 H         -3.7303397146        1.6842217994        1.3537295561
 H         -4.5035386858       -1.8347093043        0.1214832589
 H         -2.4477410376       -2.9690587145       -0.4565515081
 H         -1.8257499574       -2.4776211449        1.1153107056
 H          0.0750349405       -3.0106402937       -0.3190216667
 H         -0.5099988628       -1.9143332925       -1.5784734145
 H          0.2063280606       -1.0781013513        1.2590412179
 H          2.8957353848        1.3642064447        2.1915021880
 H          1.2826869965        0.6502721803        2.2060966914
 H          2.7224031181       -0.3830298447        2.2847256344
 H          5.5672481744        0.9774167402        0.3640801681
  45
  -61.069352940000002        2.2420276840951350E-002 !
 C          4.0333860314        0.7733322542       -1.5897986965
 C          3.8137518908        0.3070647185       -0.1468161884
 C          4.0438452070       -1.2269385376       -0.0209188607
 C          2.6612414104       -1.9020071040        0.0537345985
 C          1.6812699077       -0.7780733977       -0.2758456935
 C          2.3435018688        0.4741436069        0.3166060784
 C          1.5819301530        1.6548698343       -0.1830155768
 C          0.2599029057        1.5659790732       -0.3739831568
 C         -0.5175897508        0.3659136430       -0.1490093839
 C         -1.8774208451        0.3390863736       -0.2179888305
 C         -2.7274363050        1.5409338452       -0.5467617378
 C         -3.9961206063        1.5804316830        0.2994629044
 C         -4.7904949263        0.2999479358        0.1542055340
 O         -6.0058158849        0.2770719332        0.1675402690
 C         -3.9720527032       -0.8949461355        0.0608938027
 C         -2.6213041923       -0.8863035843       -0.0297747080
 C         -1.8810949585       -2.1913239123        0.0588886790
 C         -0.4718749517       -2.0843656946       -0.4998918039
 C          0.2344737710       -0.9109226847        0.1760176156
 C          2.3024224356        0.5207940002        1.8532617509
 O          4.6707173923        1.0392765577        0.7084584267
 H          5.0504738874        0.5360106197       -1.9020103506
 H          3.3441238274        0.2898067459       -2.2746526347
 H          3.8979171600        1.8499633285       -1.6589190562
 H          4.6238234201       -1.4219760797        0.8815135391
 H          4.6161905884       -1.5959874337       -0.8720835538
 H          2.4696833645       -2.2941885243        1.0526743313
 H          2.5830436252       -2.7292325856       -0.6505384023
 H          1.6613812066       -0.6513841394       -1.3645882452
 H          2.1012776496        2.5895573749       -0.3264549647
 H         -0.2671004550        2.4437684362       -0.7149518784
 H         -2.1828513813        2.4711390627       -0.3972543225
 H         -3.0105026981        1.4828253893       -1.6038182771
 H         -4.6218519216        2.4315422775        0.0270581694
 H         -3.7321140833        1.6811002255        1.3569170861
 H         -4.5036202981       -1.8350121707        0.1185671268
 H         -2.4477707084       -2.9687557429       -0.4571016349
 H         -1.8258991286       -2.4777318096        1.1150448850
 H          0.0749046742       -3.0106303113       -0.3191975039
 H         -0.5098512779       -1.9137763972       -1.5783716062
 H          0.2063077472       -1.0784552208        1.2594126332
 H          1.2829556878        0.6508536276        2.2056814098
 H          2.7234790687       -0.3812970524        2.2847628495
 H          2.8954745459        1.3660649719        2.1903499587
 H          5.5674033763        0.9776967224        0.3627413981
  45
  -61.069195319999999        1.8975963410143792E-002 !
 C          3.6650324074        1.0515161711       -1.7357066041
 C          3.7455758430        0.3419397742       -0.3804024644
 C          3.9453200690       -1.1853463220       -0.5492647282
 C          2.6032814036       -1.8752833962       -0.2411095369
 C          1.6079008754       -0.7194738841       -0.2166556268
 C          2.4044834980        0.4324201019        0.4111854469
 C          1.5852335562        1.6736075055        0.2941904550
 C          0.2481730250        1.6158191688        0.2540592472
 C         -0.5249717379        0.3903735202        0.2731070384
 C         -1.8792673714        0.3742307565        0.1338654950
 C         -2.7025366699        1.6247339070       -0.0579022078
 C         -3.9425768129        1.3794583316       -0.9119725418
 C         -4.7727568211        0.2391707654       -0.3628558004
 O         -5.9874865760        0.2499678543       -0.3608374379
 C         -3.9781275492       -0.8901949009        0.0860765499
 C         -2.6357614026       -0.8535574898        0.2456903360
 C         -1.8922203442       -2.1097894110        0.5905101662
 C         -0.5223950371       -2.0914440216       -0.0732000292
 C          0.2558171485       -0.8954884004        0.4627999986
 C          2.7026273145        0.2380161553        1.9087408488
 O          4.8557943532        0.8412727387        0.3372142896
 H          2.8806633684        0.6338447295       -2.3588414065
 H          3.4687447391        2.1144310153       -1.6024532487
 H          4.6168143943        0.9391203318       -2.2514314669
 H          4.7295212074       -1.5003740191        0.1371343685
 H          4.2807768854       -1.4071410873       -1.5609248819
 H          2.6304584466       -2.3808979356        0.7239775950
 H          2.3509764195       -2.6146843614       -0.9996247410
 H          1.3984506627       -0.4394455420       -1.2558607660
 H          2.0854581213        2.6317633599        0.3254496606
 H         -0.2987799597        2.5457723578        0.2252037690
 H         -3.0188786161        1.9824181433        0.9286085804
 H         -2.1168521539        2.4138711254       -0.5274035283
 H         -3.6420302959        1.1000214753       -1.9265804821
 H         -4.5534641960        2.2809904999       -0.9769500042
 H         -4.5194049501       -1.8086757389        0.2670295679
 H         -2.4689669164       -2.9819709559        0.2792780107
 H         -1.7644361496       -2.1651404384        1.6766336716
 H          0.0163071201       -3.0157363158        0.1390977358
 H         -0.6392071353       -2.0040549337       -1.1558772477
 H          0.4070572522       -1.0535800012        1.5375834632
 H          3.2279366560       -0.6945614744        2.0846980162
 H          3.3382007818        1.0486132323        2.2576406306
 H          1.7868385699        0.2563358849        2.4934329437
 H          4.8062831256        1.8032893059        0.3522882369
  45
  -61.069195149999999        1.8972550071853174E-002 !
 C          3.6605594540        1.0533732951       -1.7378553497
 C          3.7440464646        0.3419616115       -0.3836970789
 C          3.9426422275       -1.1852449927       -0.5550118213
 C          2.6016252182       -1.8751050311       -0.2423874004
 C          1.6065612913       -0.7191307750       -0.2152281710
 C          2.4049070194        0.4322708882        0.4112811387
 C          1.5855018959        1.6736604259        0.2972555179
 C          0.2483662041        1.6162043243        0.2597038715
 C         -0.5251592379        0.3909591915        0.2785223032
 C         -1.8794448585        0.3750258833        0.1397658167
 C         -2.7037287188        1.6250397760       -0.0501769028
 C         -3.9388452447        1.3808476304       -0.9116746893
 C         -4.7706878899        0.2380255444       -0.3703545389
 O         -5.9854349405        0.2466507473       -0.3768929081
 C         -3.9774592541       -0.8905583342        0.0831100736
 C         -2.6359126918       -0.8530904461        0.2491333864
 C         -1.8927182001       -2.1085758141        0.5970703931
 C         -0.5231245695       -2.0914046143       -0.0672705652
 C          0.2557856964       -0.8950614889        0.4668422511
 C          2.7070249643        0.2370639184        1.9079654535
 O          4.8562927545        0.8396875210        0.3318934715
 H          4.6106718900        0.9404357785       -2.2565227227
 H          2.8737848544        0.6375886750       -2.3592270710
 H          3.4660998200        2.1163738306       -1.6026432742
 H          4.7295105697       -1.5013009407        0.1278495542
 H          4.2739174793       -1.4060286637       -1.5682727684
 H          2.6318206883       -2.3803182545        0.7228126284
 H          2.3469613648       -2.6147773064       -0.9998378792
 H          1.3950492320       -0.4385375138       -1.2538668498
 H          2.0859449299        2.6317180520        0.3283593908
 H         -0.2983197736        2.5463406322        0.2323643889
 H         -3.0260067822        1.9770898577        0.9364432024
 H         -2.1174245377        2.4177678859       -0.5127094006
 H         -3.6324729557        1.1048143828       -1.9254767146
 H         -4.5505464661        2.2817795497       -0.9773298382
 H         -4.5190611299       -1.8093852207        0.2613669701
 H         -2.4694735925       -2.9815369760        0.2880674571
 H         -1.7644825194       -2.1611799205        1.6832670546
 H          0.0155149120       -3.0155306164        0.1459066667
 H         -0.6404950767       -2.0053709949       -1.1499895017
 H          0.4090416926       -1.0527646637        1.5413935588
 H          3.2352159995       -0.6943201923        2.0816659132
 H          3.3412842125        1.0489246479        2.2563321136
 H          1.7926526594        0.2523738863        2.4949632650
 H          4.8072591724        1.8017029658        0.3486215136
  45
  -61.069194719999999        1.8963919074170860E-002 !
 C          3.6567024501        1.0564413321       -1.7378805652
 C          3.7427636419        0.3426694457       -0.3851298570
 C          3.9410462825       -1.1842732660       -0.5593018503
 C          2.6009065765       -1.8747664304       -0.2442870038
 C          1.6058284327       -0.7189216927       -0.2141419910
 C          2.4050993890        0.4317447390        0.4125214380
 C          1.5854891674        1.6732807741        0.3014900889
 C          0.2483501868        1.6159370461        0.2640547481
 C         -0.5250977893        0.3905973101        0.2809082751
 C         -1.8791092998        0.3747506854        0.1398404417
 C         -2.7024587597        1.6248448486       -0.0536493419
 C         -3.9369645197        1.3793080127       -0.9157035701
 C         -4.7697469556        0.2381485039       -0.3723278193
 O         -5.9844782092        0.2476311839       -0.3791702044
 C         -3.9773591488       -0.8903099657        0.0829159633
 C         -2.6359397874       -0.8530293097        0.2498474253
 C         -1.8931954382       -2.1080766093        0.6001995949
 C         -0.5232638755       -2.0920017133       -0.0634796393
 C          0.2558665226       -0.8953099957        0.4695310356
 C          2.7098610124        0.2345650719        1.9083693388
 O          4.8563750568        0.8391047268        0.3292049400
 H          2.8681710460        0.6423228061       -2.3581328769
 H          3.4632628238        2.1193246148       -1.6002904351
 H          4.6055112723        0.9438087090       -2.2589909559
 H          4.7298093782       -1.5014002356        0.1208746913
 H          4.2695191394       -1.4033059339       -1.5738555120
 H          2.6333302153       -2.3807926669        0.7204229289
 H          2.3447303255       -2.6138650999       -1.0018056732
 H          1.3929341036       -0.4372029268       -1.2522186136
 H          2.0859606250        2.6312472049        0.3348113323
 H         -0.2985358996        2.5460848919        0.2392161381
 H         -3.0252445224        1.9798127163        0.9317390929
 H         -2.1150805385        2.4158099918       -0.5178400814
 H         -3.6298507160        1.1007151944       -1.9285795422
 H         -4.5481681212        2.2803886500       -0.9840336495
 H         -4.5194480750       -1.8086717878        0.2620524604
 H         -2.4698817311       -2.9814346543        0.2922080526
 H         -1.7655158493       -2.1589698033        1.6865418094
 H          0.0150049370       -3.0160510952        0.1509424017
 H         -0.6401715216       -2.0071452275       -1.1463540040
 H          0.4101734614       -1.0524302511        1.5440110722
 H          3.3452441172        1.0456782433        2.2563646257
 H          1.7965801771        0.2497321060        2.4970368060
 H          3.2378514744       -0.6973069385        2.0800155997
 H          4.8076103112        1.8010893728        0.3473990817
  45
  -61.069194660000001        1.8962715061156321E-002 !
 C          3.6545911974        1.0542982329       -1.7403269201
 C          3.7421625736        0.3423944493       -0.3866817700
 C          3.9406439227       -1.1846737747       -0.5590552349
 C          2.6000434662       -1.8748488821       -0.2450858321
 C          1.6052477071       -0.7186940417       -0.2140110244
 C          2.4052272708        0.4317906287        0.4120351720
 C          1.5857715884        1.6734879274        0.3019402289
 C          0.2485744231        1.6163688362        0.2664425764
 C         -0.5251459530        0.3911706556        0.2838118476
 C         -1.8793007392        0.3754638458        0.1442460182
 C         -2.7038471471        1.6252553795       -0.0457949915
 C         -3.9351109518        1.3815116847       -0.9129352081
 C         -4.7685186404        0.2374429961       -0.3766324219
 O         -5.9832153735        0.2447728861       -0.3899060557
 C         -3.9767700662       -0.8906785469        0.0806142283
 C         -2.6359304653       -0.8527439918        0.2518555585
 C         -1.8932595286       -2.1076021218        0.6029272792
 C         -0.5236560044       -2.0916607012       -0.0614967042
 C          0.2559178435       -0.8949917562        0.4709147812
 C          2.7112244821        0.2344367353        1.9076399344
 O          4.8561360248        0.8403651181        0.3260253367
 H          3.4585832652        2.1168995126       -1.6041654269
 H          4.6038197216        0.9431375948       -2.2609847864
 H          2.8672923867        0.6374542624       -2.3603090363
 H          4.7283449620       -1.5009822198        0.1227310339
 H          4.2707985916       -1.4048629270       -1.5728058262
 H          2.6320201734       -2.3818942744        0.7191065111
 H          2.3436945610       -2.6130720205       -1.0034045337
 H          1.3912553894       -0.4368490478       -1.2518040772
 H          2.0864843220        2.6313712238        0.3342250234
 H         -0.2980157087        2.5466783579        0.2420188474
 H         -3.0305833894        1.9744697693        0.9403644554
 H         -2.1166263839        2.4197961778       -0.5039553744
 H         -3.6242151527        1.1070613313       -1.9257914788
 H         -4.5471556036        2.2821091538       -0.9800374694
 H         -4.5188035908       -1.8096266660        0.2568601193
 H         -2.4699695947       -2.9812205066        0.2957504522
 H         -1.7650088521       -2.1577291065        1.6892281168
 H          0.0146928116       -3.0157283635        0.1526867610
 H         -0.6411801347       -2.0069349116       -1.1443050029
 H          0.4113215693       -1.0524198425        1.5451927910
 H          3.2371717547       -0.6986171857        2.0790692849
 H          3.3488872152        1.0441595864        2.2547565601
 H          1.7985655348        0.2518693760        2.4972412456
 H          4.8070520935        1.8023661042        0.3425770016
  45
  -61.069194639999999        1.8962313740424723E-002 !
 C          3.6560446600        1.0569295260       -1.7380325110
 C          3.7425605686        0.3427203726       -0.3855383228
 C          3.9405816244       -1.1842036385       -0.5603186217
 C          2.6007936598       -1.8747937459       -0.2440970407
 C          1.6057046675       -0.7189994504       -0.2137821335
 C          2.4051641973        0.4316950142        0.4126050028
 C          1.5854777767        1.6732284908        0.3020394927
 C          0.2483325701        1.6159074276        0.2648357104
 C         -0.5251331799        0.3905821857        0.2815393085
 C         -1.8791247802        0.3747681634        0.1403423958
 C         -2.7024697088        1.6248630275       -0.0531320595
 C         -3.9365441201        1.3793978250       -0.9158291421
 C         -4.7695416187        0.2380226755       -0.3732457673
 O         -5.9842698197        0.2474707386       -0.3806466336
 C         -3.9773505993       -0.8903153902        0.0826432107
 C         -2.6360100426       -0.8530071908        0.2501511875
 C         -1.8932803284       -2.1080110517        0.6007675522
 C         -0.5233003082       -2.0920762073       -0.0628773327
 C          0.2558240568       -0.8953432615        0.4700304360
 C          2.7106244412        0.2346658424        1.9083305975
 O          4.8565097393        0.8388185601        0.3285096332
 H          4.6046049378        0.9442560277       -2.2595826576
 H          2.8671542916        0.6431579270       -2.3580708848
 H          3.4628871654        2.1198168167       -1.6000172926
 H          4.7300274169       -1.5015063852        0.1189587137
 H          4.2679469866       -1.4030489421       -1.5752706176
 H          2.6338290515       -2.3803434880        0.7208336492
 H          2.3442214695       -2.6142430288       -1.0011275888
 H          1.3925924482       -0.4373570263       -1.2518252552
 H          2.0859596564        2.6311945737        0.3352997227
 H         -0.2985399786        2.5460617669        0.2400976577
 H         -3.0257476787        1.9794372415        0.9322486666
 H         -2.1149352404        2.4160382505       -0.5167803284
 H         -3.6289414912        1.1011283978       -1.9286569286
 H         -4.5477814189        2.2804322589       -0.9841815646
 H         -4.5194817574       -1.8086784170        0.2615955314
 H         -2.4699554322       -2.9814222178        0.2929049692
 H         -1.7656770175       -2.1587214222        1.6871210608
 H          0.0149573272       -3.0161082426        0.1517132895
 H         -0.6401232294       -2.0073992692       -1.1457758823
 H          0.4102517371       -1.0525099963        1.5444752341
 H          1.7974712414        0.2482762687        2.4972691966
 H          3.2400080948       -0.6964888594        2.0795079547
 H          3.3449085874        1.0465940112        2.2564597714
 H          4.8077725657        1.8008151567        0.3471708047
  45
  -61.069194369999998        1.8956896742196045E-002 !
 C          3.6537034567        1.0568641177       -1.7394634187
 C          3.7417295021        0.3427460167       -0.3870135977
 C          3.9397870505       -1.1841430453       -0.5619333475
 C          2.5999958536       -1.8745838658       -0.2453479358
 C          1.6050353082       -0.7186541591       -0.2133794053
 C          2.4052936750        0.4316129334        0.4126972247
 C          1.5856267575        1.6732758730        0.3036766497
 C          0.2484461682        1.6161461050        0.2676974422
 C         -0.5251757588        0.3908791267        0.2841954947
 C         -1.8791726331        0.3751845060        0.1432552587
 C         -2.7030308221        1.6250498005       -0.0493669132
 C         -3.9345746241        1.3800055417       -0.9157786024
 C         -4.7684073135        0.2376389055       -0.3764859928
 O         -5.9831151757        0.2459532777       -0.3883072406
 C         -3.9769113224       -0.8905015816        0.0811272460
 C         -2.6359830383       -0.8527894765        0.2517852562
 C         -1.8934632223       -2.1074325867        0.6038794452
 C         -0.5236916625       -2.0919844590       -0.0602093731
 C          0.2558916106       -0.8951379337        0.4718602479
 C          2.7122179560        0.2335531094        1.9080113135
 O          4.8564172231        0.8390142531        0.3257129868
 H          3.4591061116        2.1194567655       -1.6013843811
 H          4.6021282408        0.9453320102       -2.2615051272
 H          2.8649395372        0.6421905446       -2.3590343902
 H          4.7293237287       -1.5015241411        0.1172317402
 H          4.2669606403       -1.4029162561       -1.5769377773
 H          2.6336274240       -2.3810187173        0.7191025773
 H          2.3427064307       -2.6133338395       -1.0028183234
 H          1.3907850603       -0.4364509786       -1.2510276555
 H          2.0862415137        2.6311578808        0.3372543806
 H         -0.2982848478        2.5463969346        0.2440313905
 H         -3.0294380738        1.9768220547        0.9359991184
 H         -2.1152712213        2.4180777274       -0.5095220487
 H         -3.6239362174        1.1030331704       -1.9280191379
 H         -4.5461377368        2.2807699416       -0.9848549863
 H         -4.5191971141       -1.8090787922        0.2585029851
 H         -2.4701374468       -2.9812085707        0.2970788868
 H         -1.7655113227       -2.1568927127        1.6902449487
 H          0.0144608683       -3.0160287846        0.1545971240
 H         -0.6409440991       -2.0078338321       -1.1431067979
 H          0.4113959761       -1.0522392827        1.5461722538
 H          3.3479006179        1.0445995389        2.2555758232
 H          1.7998086637        0.2480346189        2.4980960312
 H          3.2407758346       -0.6982361043        2.0782530694
 H          4.8075998112        1.8010158279        0.3442005557
  45
  -61.069194260000003        1.8954690260782080E-002 !
 C          3.6516733926        1.0567446053       -1.7404689673
 C          3.7411650387        0.3428673495       -0.3879749459
 C          3.9391960606       -1.1840176604       -0.5627539725
 C          2.5994247059       -1.8746073247       -0.2462233970
 C          1.6046141476       -0.7185879039       -0.2130272569
 C          2.4053852813        0.4314434734        0.4128335610
 C          1.5857672996        1.6732224141        0.3049878625
 C          0.2485659117        1.6162123753        0.2698601113
 C         -0.5251725932        0.3909843229        0.2859840637
 C         -1.8791459120        0.3753592662        0.1449381823
 C         -2.7031554608        1.6251579962       -0.0472841298
 C         -3.9334424903        1.3805956945       -0.9156026700
 C         -4.7676910453        0.2373791262       -0.3787839390
 O         -5.9824241209        0.2451277802       -0.3930091510
 C         -3.9766700938       -0.8905777134        0.0801525754
 C         -2.6360040600       -0.8526775629        0.2526500443
 C         -1.8936116860       -2.1071422089        0.6056523317
 C         -0.5238161985       -2.0920601441       -0.0584454322
 C          0.2559220236       -0.8951296868        0.4731386151
 C          2.7136897969        0.2328555713        1.9077869518
 O          4.8563417340        0.8395905491        0.3237111171
 H          3.4569799359        2.1193462697       -1.6023958900
 H          4.5997238060        0.9454548899       -2.2632551538
 H          2.8626859482        0.6416047219       -2.3594594863
 H          4.7286928349       -1.5011996373        0.1165382273
 H          4.2666144894       -1.4029271548       -1.5776716873
 H          2.6333753152       -2.3817980335        0.7178158467
 H          2.3417292859       -2.6127365269       -1.0041645425
 H          1.3895377640       -0.4360550451       -1.2504181594
 H          2.0865025285        2.6310423519        0.3388352559
 H         -0.2981042732        2.5465168532        0.2471990415
 H         -3.0310021860        1.9756365738        0.9380498038
 H         -2.1151505416        2.4189637403       -0.5057512851
 H         -3.6213522604        1.1047724969       -1.9277166299
 H         -4.5452007027        2.2812351866       -0.9845868282
 H         -4.5190846913       -1.8092374607        0.2567461349
 H         -2.4702719929       -2.9811096107        0.2993884131
 H         -1.7656652006       -2.1558768441        1.6920493902
 H          0.0142960921       -3.0160561072        0.1566300904
 H         -0.6411278022       -2.0082327597       -1.1413515849
 H          0.4121702559       -1.0521278341        1.5473488004
 H          1.8018432508        0.2482916848        2.4986901787
 H          3.2412454325       -0.6996239733        2.0773931087
 H          3.3506573418        1.0431134304        2.2549333554
 H          4.8074582811        1.8015912987        0.3418331390
  45
  -61.069194179999997        1.8953085708130979E-002 !
 C          3.6541013775        1.0581180064       -1.7385879875
 C          3.7419166457        0.3428231966       -0.3867571621
 C          3.9394173971       -1.1840694201       -0.5628174736
 C          2.6002919661       -1.8747185066       -0.2439379725
 C          1.6052400802       -0.7189186328       -0.2129592578
 C          2.4053380527        0.4316869513        0.4128216296
 C          1.5854553440        1.6732056635        0.3033976490
 C          0.2482986764        1.6159338526        0.2669403186
 C         -0.5252057406        0.3906261873        0.2833656757
 C         -1.8791157568        0.3748818091        0.1419555441
 C         -2.7025602992        1.6248837967       -0.0513050782
 C         -3.9351412904        1.3796504526       -0.9162001376
 C         -4.7687840049        0.2378223596       -0.3754868562
 O         -5.9835004448        0.2467787628       -0.3853622305
 C         -3.9771127824       -0.8904639089        0.0815334779
 C         -2.6360275478       -0.8529635742        0.2510262097
 C         -1.8935555426       -2.1077893196        0.6027368562
 C         -0.5236079806       -2.0921709875       -0.0609566763
 C          0.2557189478       -0.8953737132        0.4715970932
 C          2.7125363848        0.2344494915        1.9081759499
 O          4.8567266344        0.8380578988        0.3265581957
 H          4.6019327238        0.9452621609       -2.2613802841
 H          2.8641382734        0.6452981572       -2.3579302579
 H          3.4618550864        2.1210392634       -1.5995476651
 H          4.7305379014       -1.5018593228        0.1143073618
 H          4.2642563458       -1.4023404026       -1.5787020915
 H          2.6350785228       -2.3794655253        0.7213389011
 H          2.3426321790       -2.6148484565       -0.9999274354
 H          1.3915512771       -0.4372618811       -1.2509080783
 H          2.0859296584        2.6311710402        0.3369792236
 H         -0.2985766943        2.5461244870        0.2430408986
 H         -3.0277512629        1.9779444814        0.9339752747
 H         -2.1146294921        2.4169768795       -0.5129199385
 H         -3.6256362635        1.1019497305       -1.9285794002
 H         -4.5464783258        2.2805711930       -0.9851952707
 H         -4.5193580782       -1.8090295904        0.2592505552
 H         -2.4701425010       -2.9813961030        0.2953229098
 H         -1.7660474693       -2.1577939859        1.6891404898
 H          0.0144434877       -3.0162137633        0.1540375773
 H         -0.6404190753       -2.0078935679       -1.1439056356
 H          0.4105377297       -1.0523869986        1.5460216138
 H          3.3441925162        1.0482957579        2.2565522577
 H          1.7999266139        0.2442652487        2.4979551830
 H          3.2454722635       -0.6948547941        2.0780881716
 H          4.8080077725        1.8000213481        0.3465433255
  45
  -61.069193540000001        1.8940254176925658E-002 !
 C          3.6802660812        1.0429186909       -1.7317683638
 C          3.7505489553        0.3404725596       -0.3721998489
 C          3.9524464615       -1.1873740933       -0.5319149963
 C          2.6070912231       -1.8761120389       -0.2357499119
 C          1.6113485214       -0.7202862864       -0.2212802894
 C          2.4033570116        0.4337415511        0.4084813663
 C          1.5847134678        1.6743253480        0.2807489524
 C          0.2477896585        1.6157558680        0.2361170825
 C         -0.5248319660        0.3901802766        0.2595407745
 C         -1.8796209535        0.3735141207        0.1241728009
 C         -2.7032045461        1.6245078750       -0.0636183335
 C         -3.9520622492        1.3799506235       -0.9048166439
 C         -4.7776207505        0.2407830975       -0.3466708804
 O         -5.9922006276        0.2533085563       -0.3304886794
 C         -3.9792070009       -0.8901274809        0.0913064920
 C         -2.6353793778       -0.8544004005        0.2389148380
 C         -1.8905261098       -2.1125679520        0.5742479865
 C         -0.5210483731       -2.0902663853       -0.0898447794
 C          0.2557120425       -0.8955756765        0.4510384757
 C          2.6895418516        0.2443369672        1.9090402602
 O          4.8547579763        0.8444119284        0.3514786007
 H          2.9025267447        0.6200290941       -2.3596452883
 H          3.4803759375        2.1060470076       -1.6058060413
 H          4.6368204186        0.9300593014       -2.2384679793
 H          4.7287691092       -1.4988565123        0.1649716874
 H          4.2997916197       -1.4137456004       -1.5385171832
 H          2.6252486516       -2.3810026181        0.7299743998
 H          2.3615657011       -2.6160497835       -0.9960065607
 H          1.4079876213       -0.4431648125       -1.2624316859
 H          2.0845156943        2.6328236928        0.3076858847
 H         -0.2992667269        2.5453480980        0.1993143532
 H         -3.0091062558        1.9856561572        0.9249331341
 H         -2.1207759517        2.4113314183       -0.5410202140
 H         -3.6622128040        1.0996488636       -1.9222938561
 H         -4.5626239462        2.2820968742       -0.9638925000
 H         -4.5190304629       -1.8089483828        0.2748728589
 H         -2.4675211046       -2.9827482804        0.2577438377
 H         -1.7621362383       -2.1752576483        1.6599441495
 H          0.0185610617       -3.0148979263        0.1187425685
 H         -0.6379679828       -1.9985238769       -1.1721592327
 H          0.4018629675       -1.0551470089        1.5263293417
 H          1.7694136555        0.2690298552        2.4866600853
 H          3.2092955093       -0.6898315432        2.0928029146
 H          3.3261254144        1.0535945303        2.2592996852
 H          4.8042805189        1.8064586460        0.3611993326
  45
  -61.069096109999997        1.7084806920140475E-002 !
 C          4.0240618191        0.8021688350       -1.5764479078
 C          3.8189754611        0.3058014443       -0.1443872328
 C          4.0396470461       -1.2319301062       -0.0482715689
 C          2.6588727901       -1.9000284676        0.0823973383
 C          1.6805427332       -0.7778224893       -0.2535879684
 C          2.3439032565        0.4755857410        0.3347098703
 C          1.5797350178        1.6559926979       -0.1654128071
 C          0.2592384476        1.5657205251       -0.3645794354
 C         -0.5198434922        0.3655496373       -0.1455590545
 C         -1.8787858668        0.3381474833       -0.2257570906
 C         -2.7280706212        1.5379307234       -0.5623801793
 C         -3.9973010537        1.5816294618        0.2828513559
 C         -4.7916060371        0.3002554761        0.1450702552
 O         -6.0065790646        0.2767859685        0.1655237937
 C         -3.9739001188       -0.8954108249        0.0491937620
 C         -2.6234612229       -0.8878596949       -0.0421782198
 C         -1.8841023428       -2.1938922734        0.0407051102
 C         -0.4700149966       -2.0824744600       -0.5049443341
 C          0.2292792569       -0.9121727932        0.1840218738
 C          2.2975804745        0.5289680996        1.8725255468
 O          4.7563011706        1.0284469016        0.6219489883
 H          5.0406316544        0.5723030293       -1.8852189827
 H          3.3266475456        0.3367127349       -2.2647981853
 H          3.8992568734        1.8802262733       -1.6121450618
 H          4.6723082299       -1.4593227659        0.8115427263
 H          4.5638333044       -1.5862325292       -0.9344561847
 H          2.4891692000       -2.2642722286        1.0965601376
 H          2.5596747277       -2.7460397601       -0.5958209309
 H          1.6708862741       -0.6538593688       -1.3424215683
 H          2.1000012958        2.5906200236       -0.3067935338
 H         -0.2658027889        2.4435204386       -0.7082709804
 H         -2.1840322787        2.4694267212       -0.4193196362
 H         -3.0106846087        1.4724989942       -1.6190209570
 H         -4.6233620494        2.4306734396        0.0049448274
 H         -3.7342285920        1.6889808654        1.3399130516
 H         -4.5063802277       -1.8350381157        0.1054897419
 H         -2.4463098606       -2.9659590961       -0.4879817713
 H         -1.8387710118       -2.4912389706        1.0943491129
 H          0.0754542192       -3.0094990845       -0.3244261802
 H         -0.4980506325       -1.9056376987       -1.5825921359
 H          0.1868225605       -1.0869999495        1.2661751792
 H          1.2689743269        0.5785167913        2.2189195305
 H          2.7762928637       -0.3384726876        2.3208808579
 H          2.7999632236        1.4317490000        2.2159984307
 H          4.7522401678        0.6955647131        1.5256101309
  45
  -61.069095959999999        1.7082095277204602E-002 !
 C          4.0247134553        0.8032617038       -1.5754466361
 C          3.8190146635        0.3059073785       -0.1438075386
 C          4.0394570784       -1.2319389289       -0.0486461428
 C          2.6587768974       -1.8999811534        0.0828764721
 C          1.6805518738       -0.7779046652       -0.2536454369
 C          2.3437091317        0.4755901660        0.3347184680
 C          1.5796940786        1.6558446380       -0.1659942170
 C          0.2592831121        1.5654981742       -0.3657235325
 C         -0.5198767338        0.3653834537       -0.1466195695
 C         -1.8787974680        0.3378857840       -0.2270776014
 C         -2.7283256910        1.5372928521       -0.5642806205
 C         -3.9967291740        1.5819492546        0.2821628326
 C         -4.7912683516        0.3004963904        0.1464124902
 O         -6.0062169173        0.2771386379        0.1687535588
 C         -3.9738339882       -0.8953180853        0.0499250766
 C         -2.6234718141       -0.8880163859       -0.0427590684
 C         -1.8841686014       -2.1941113752        0.0397791185
 C         -0.4699565929       -2.0826325455       -0.5055791767
 C          0.2291477730       -0.9122655340        0.1834721910
 C          2.2967248275        0.5293293632        1.8724950488
 O          4.7560910114        1.0278972408        0.6234703826
 H          3.9013968644        1.8815217632       -1.6100323682
 H          5.0409313676        0.5723633509       -1.8845981309
 H          3.3265544792        0.3394683185       -2.2641807709
 H          4.6729561671       -1.4599414531        0.8103839600
 H          4.5626144757       -1.5858928254       -0.9355768596
 H          2.4893293036       -2.2634768725        1.0973577812
 H          2.5593336149       -2.7464429474       -0.5947526274
 H          1.6713346196       -0.6541512888       -1.3425135090
 H          2.0999648990        2.5904751060       -0.3072854293
 H         -0.2656531885        2.4432463485       -0.7097331595
 H         -2.1841201226        2.4689436539       -0.4229470982
 H         -3.0119992488        1.4705659517       -1.6205506967
 H         -4.6230537910        2.4307753714        0.0041336193
 H         -3.7325682470        1.6902519793        1.3388528690
 H         -4.5063978171       -1.8348342147        0.1072376878
 H         -2.4463526576       -2.9658968544       -0.4893517588
 H         -1.8390963268       -2.4919095446        1.0933130716
 H          0.0755802942       -3.0095850285       -0.3249237378
 H         -0.4977284449       -1.9058064969       -1.5832309471
 H          0.1863142888       -1.0869402450        1.2656278467
 H          2.7751293178       -0.3380711208        2.3212382496
 H          2.7991597687        1.4320791499        2.2159535940
 H          1.2679813757        0.5791105365        2.2184689842
 H          4.7517748575        0.6941667598        1.5268173104
  45
  -61.069095910000001        1.7081191491912791E-002 !
 C          4.0217771744        0.8046937701       -1.5776665931
 C          3.8189354827        0.3059214829       -0.1461213553
 C          4.0393488609       -1.2320680998       -0.0528872651
 C          2.6588816473       -1.9000761938        0.0813332539
 C          1.6802449107       -0.7776235161       -0.2526794584
 C          2.3445918956        0.4752949082        0.3355121339
 C          1.5797740018        1.6561569850       -0.1625288137
 C          0.2591827848        1.5660048350       -0.3611382600
 C         -0.5198883416        0.3656347550       -0.1430954872
 C         -1.8787943601        0.3381821141       -0.2242612871
 C         -2.7277588132        1.5377797730       -0.5623574780
 C         -3.9983914654        1.5816849249        0.2807293665
 C         -4.7922752357        0.3001766355        0.1421192219
 O         -6.0072821368        0.2765802521        0.1602563076
 C         -3.9741900675       -0.8954013433        0.0484591334
 C         -2.6236363175       -0.8877346706       -0.0408678702
 C         -1.8841829114       -2.1935153603        0.0443125425
 C         -0.4701062221       -2.0827966959       -0.5014362303
 C          0.2294236419       -0.9120139742        0.1864293209
 C          2.3007079173        0.5276808339        1.8734252327
 O          4.7576885063        1.0270397068        0.6199183776
 H          5.0373240185        0.5739903178       -1.8891009581
 H          3.3221852988        0.3416460304       -2.2654279462
 H          3.8984516885        1.8830040562       -1.6108859553
 H          4.6748897630       -1.4609106796        0.8043973341
 H          4.5603536470       -1.5852571667       -0.9413945048
 H          2.4915181247       -2.2639282454        1.0960290931
 H          2.5579097312       -2.7462572195       -0.5964182800
 H          1.6693625021       -0.6530981951       -1.3414362210
 H          2.0997877075        2.5910768883       -0.3028495511
 H         -0.2659560119        2.4442527586       -0.7035123639
 H         -2.1840398808        2.4693852350       -0.4187609042
 H         -3.0086859476        1.4720445592       -1.6194549399
 H         -4.6240677651        2.4306032087        0.0015197332
 H         -3.7371259771        1.6894132849        1.3381566373
 H         -4.5065838806       -1.8350542550        0.1048248058
 H         -2.4462202302       -2.9665102446       -0.4831410805
 H         -1.8388997412       -2.4890500066        1.0984744528
 H          0.0752610955       -3.0097305201       -0.3201268090
 H         -0.4981162687       -1.9069066505       -1.5792337103
 H          0.1879600119       -1.0862855203        1.2687053382
 H          2.7800516059       -0.3400868375        2.3204313840
 H          2.8037553392        1.4301610369        2.2167139714
 H          1.2726477133        0.5770956512        2.2214475884
 H          4.7550891504        0.6925126727        1.5230573447
  45
  -61.069095820000001        1.7079564798783892E-002 !
 C          4.0195862277        0.8030106580       -1.5804274254
 C          3.8189801463        0.3058110809       -0.1480129193
 C          4.0396173163       -1.2320232450       -0.0535985726
 C          2.6591026030       -1.9001757945        0.0798363299
 C          1.6801629298       -0.7773368813       -0.2522348281
 C          2.3453961763        0.4751626335        0.3357707362
 C          1.5800346690        1.6564291741       -0.1603812017
 C          0.2592009780        1.5665137212       -0.3575064484
 C         -0.5197814318        0.3659807913       -0.1398544416
 C         -1.8787703816        0.3387494666       -0.2207353542
 C         -2.7271115797        1.5391805711       -0.5576903491
 C         -4.0001952018        1.5809375814        0.2818403689
 C         -4.7934278421        0.2996173272        0.1380937539
 O         -6.0084706830        0.2757880573        0.1509399711
 C         -3.9746265618       -0.8955950049        0.0463191603
 C         -2.6237944284       -0.8873519526       -0.0392656882
 C         -1.8841364188       -2.1929032355        0.0477028091
 C         -0.4702633865       -2.0826307789       -0.4986685193
 C          0.2298317265       -0.9118078500        0.1885107237
 C          2.3037238155        0.5265347218        1.8737922035
 O          4.7587317755        1.0279294605        0.6158387775
 H          3.3210879854        0.3368637135       -2.2671955162
 H          3.8931826052        1.8809022942       -1.6154300057
 H          5.0356511771        0.5745972192       -1.8918991343
 H          4.6742417427       -1.4601007781        0.8045800746
 H          4.5617401035       -1.5857310734       -0.9412342380
 H          2.4919961937       -2.2656582508        1.0939886336
 H          2.5579939553       -2.7452773921       -0.5992471777
 H          1.6677837513       -0.6521289901       -1.3408910996
 H          2.0999419023        2.5914519023       -0.3005320902
 H         -0.2661586744        2.4450454453       -0.6987965724
 H         -2.1838608982        2.4703900733       -0.4096465767
 H         -3.0048733171        1.4765895651       -1.6158091440
 H         -4.6251936762        2.4303456620        0.0026180532
 H         -3.7420066463        1.6863084103        1.3403061218
 H         -4.5068304817       -1.8354921689        0.1005274884
 H         -2.4461538738       -2.9669065442       -0.4783256511
 H         -1.8383320265       -2.4867378732        1.1023294024
 H          0.0750824143       -3.0095711357       -0.3173613305
 H         -0.4988371428       -1.9071035573       -1.5765055426
 H          0.1895830086       -1.0862395417        1.2708131910
 H          1.2761733640        0.5754843308        2.2234197176
 H          2.7839277812       -0.3414287472        2.3195080103
 H          2.8070404875        1.4289229935        2.2169312230
 H          4.7573510481        0.6945843842        1.5193421859
  45
  -61.069095519999998        1.7074143607058175E-002 !
 C          4.0194658402        0.8053621605       -1.5804207691
 C          3.8191342175        0.3056842379       -0.1488258787
 C          4.0394378787       -1.2323853144       -0.0567728623
 C          2.6591070595       -1.9001859149        0.0795619148
 C          1.6800901065       -0.7773705053       -0.2521190727
 C          2.3457197388        0.4750621445        0.3356469561
 C          1.5802094132        1.6562330259       -0.1605297317
 C          0.2592727764        1.5663787864       -0.3570348919
 C         -0.5197361326        0.3659544068       -0.1389161544
 C         -1.8787800430        0.3388904091       -0.2192495737
 C         -2.7268407185        1.5396799373       -0.5557788179
 C         -4.0011687854        1.5807495739        0.2818523476
 C         -4.7940019371        0.2993804884        0.1363550703
 O         -6.0090873588        0.2754214179        0.1466766335
 C         -3.9748290730       -0.8956589726        0.0458281726
 C         -2.6238720172       -0.8871625316       -0.0379664130
 C         -1.8841102218       -2.1925373048        0.0503511286
 C         -0.4704612324       -2.0828353988       -0.4967275041
 C          0.2300116843       -0.9117087335        0.1894923462
 C          2.3047225697        0.5267870106        1.8736767139
 O          4.7593242098        1.0261997952        0.6160056683
 H          5.0342709930        0.5742499442       -1.8939982697
 H          3.3182591733        0.3431970591       -2.2671368941
 H          3.8967351082        1.8837741488       -1.6127292847
 H          4.6765030406       -1.4619302918        0.7992007454
 H          4.5586802765       -1.5851838203       -0.9464537215
 H          2.4935651220       -2.2646219325        1.0943521201
 H          2.5567717989       -2.7459414536       -0.5985152497
 H          1.6672953473       -0.6522512094       -1.3408131768
 H          2.1000938657        2.5911711997       -0.3013001343
 H         -0.2662012340        2.4449711233       -0.6979770702
 H         -2.1838067382        2.4706764886       -0.4057501531
 H         -3.0030255780        1.4785130245       -1.6143752946
 H         -4.6258033321        2.4302693304        0.0021453479
 H         -3.7445406988        1.6855781539        1.3407495807
 H         -4.5069364051       -1.8356781852        0.0989049251
 H         -2.4462744152       -2.9672520747       -0.4744526470
 H         -1.8378812846       -2.4849733162        1.1053562938
 H          0.0748277480       -3.0097315692       -0.3149959229
 H         -0.4994432887       -1.9079715135       -1.5746666647
 H          0.1903860268       -1.0856843749        1.2719039501
 H          2.8088306379        1.4288810103        2.2164211627
 H          1.2773498581        0.5764791959        2.2237128916
 H          2.7845382674       -0.3413975008        2.3193872486
 H          4.7586067979        0.6908534187        1.5187666781
  45
  -61.069095140000002        1.7067279234493422E-002 !
 C          4.0169900368        0.8061140983       -1.5826028022
 C          3.8191497913        0.3056647029       -0.1509255765
 C          4.0394109591       -1.2324992903       -0.0602893509
 C          2.6592767075       -1.9002694141        0.0783905714
 C          1.6798685249       -0.7771949129       -0.2512134174
 C          2.3465363636        0.4748749184        0.3360882401
 C          1.5803118688        1.6564402484       -0.1580178526
 C          0.2591639790        1.5667661263       -0.3532425088
 C         -0.5197378219        0.3661833889       -0.1355572649
 C         -1.8788066236        0.3392514644       -0.2160723356
 C         -2.7262073922        1.5405776005       -0.5524980962
 C         -4.0027479155        1.5801674761        0.2818286572
 C         -4.7950232064        0.2989896533        0.1320792766
 O         -6.0101022139        0.2749091003        0.1374952134
 C         -3.9752310439       -0.8958084440        0.0441394964
 C         -2.6240822546       -0.8868820086       -0.0361302279
 C         -1.8841857962       -2.1919950186        0.0545064099
 C         -0.4706770371       -2.0829380205       -0.4930294064
 C          0.2303015280       -0.9115084456        0.1921279104
 C          2.3081607249        0.5256433562        1.8742034462
 O          4.7607805690        1.0256675722        0.6126340983
 H          3.8943710605        1.8845592309       -1.6140185084
 H          5.0311684053        0.5750562262       -1.8981806003
 H          3.3145046262        0.3445173603       -2.2683862064
 H          4.6781927339       -1.4625220506        0.7942661988
 H          4.5568700521       -1.5847907005       -0.9512170310
 H          2.4954615200       -2.2649155068        1.0933879983
 H          2.5556665751       -2.7458563671       -0.5997090736
 H          1.6655980260       -0.6515353004       -1.3398181155
 H          2.0999845166        2.5915808508       -0.2982598125
 H         -0.2665189336        2.4456360072       -0.6931120198
 H         -2.1835631999        2.4713002609       -0.3992388008
 H         -2.9995583673        1.4814340247       -1.6119457602
 H         -4.6266335133        2.4301444086        0.0018378793
 H         -3.7489233815        1.6832242160        1.3415825775
 H         -4.5071505992       -1.8359937179        0.0962215927
 H         -2.4462709577       -2.9678364541       -0.4686911023
 H         -1.8376399998       -2.4823585034        1.1100676532
 H          0.0745024733       -3.0098070569       -0.3108229004
 H         -0.5000125387       -1.9088569359       -1.5710810435
 H          0.1919399473       -1.0852208922        1.2746272670
 H          2.8126989843        1.4276416897        2.2165526457
 H          1.2813901954        0.5749828490        2.2260480648
 H          2.7889023212       -0.3427201801        2.3185933023
 H          4.7615342902        0.6898997763        1.5152328021
  45
  -61.069094849999999        1.7062042491018132E-002 !
 C          4.0157279417        0.8059868279       -1.5838433407
 C          3.8191633082        0.3055993833       -0.1519623272
 C          4.0395141314       -1.2325563335       -0.0615063971
 C          2.6593842782       -1.9002470341        0.0776725413
 C          1.6797839709       -0.7770303869       -0.2508960115
 C          2.3469670663        0.4748021698        0.3362739192
 C          1.5804000487        1.6565674114       -0.1567235617
 C          0.2591678141        1.5669707076       -0.3512576912
 C         -0.5197011237        0.3663341369       -0.1337599490
 C         -1.8788010962        0.3394815626       -0.2143002869
 C         -2.7259346782        1.5410697363       -0.5506566013
 C         -4.0036045624        1.5798196045        0.2819662122
 C         -4.7956058697        0.2987642887        0.1299764062
 O         -6.0107211541        0.2746165663        0.1327669445
 C         -3.9754697044       -0.8958710407        0.0431990608
 C         -2.6241728602       -0.8867107911       -0.0352100469
 C         -1.8841474436       -2.1916562215        0.0564908053
 C         -0.4707256929       -2.0829630365       -0.4913270425
 C          0.2304874002       -0.9113965188        0.1933411772
 C          2.3098341739        0.5250785642        1.8744209493
 O          4.7614389034        1.0256284757        0.6107739847
 H          3.3132697561        0.3437190160       -2.2691904749
 H          3.8922527334        1.8843216730       -1.6154190133
 H          5.0299121011        0.5756763214       -1.8999236546
 H          4.6785687271       -1.4626382573        0.7928478032
 H          4.5566564235       -1.5848204684       -0.9526388498
 H          2.4961318321       -2.2653287406        1.0925988172
 H          2.5553422766       -2.7455243649       -0.6007481309
 H          1.6647883040       -0.6510909082       -1.3394602942
 H          2.0999898810        2.5917765117       -0.2968687917
 H         -0.2666034439        2.4459558548       -0.6907133453
 H         -2.1835527634        2.4716337393       -0.3955330749
 H         -2.9977849851        1.4831557553       -1.6105791063
 H         -4.6271315165        2.4299687572        0.0017683933
 H         -3.7513088569        1.6819619637        1.3421511829
 H         -4.5073020367       -1.8361257434        0.0944200062
 H         -2.4462120607       -2.9680233479       -0.4659431288
 H         -1.8374543359       -2.4810281025        1.1123239201
 H          0.0743799371       -3.0098507726       -0.3089791457
 H         -0.5002663922       -1.9092046881       -1.5694277691
 H          0.1927691412       -1.0850046049        1.2758785198
 H          2.8146577843        1.4269644457        2.2166332589
 H          1.2833429144        0.5742604794        2.2271261798
 H          2.7909571619       -0.3434118899        2.3181177028
 H          4.7629206794        0.6899371375        1.5134045424
  45
  -61.069094790000001        1.7060959227525312E-002 !
 C          4.0157593995        0.8083446220       -1.5823368462
 C          3.8190370945        0.3058828793       -0.1512252320
 C          4.0391695034       -1.2324566287       -0.0627127278
 C          2.6591700888       -1.9003171617        0.0770526945
 C          1.6796393296       -0.7769188157       -0.2510048568
 C          2.3467330975        0.4745914163        0.3369693850
 C          1.5802501277        1.6566044118       -0.1555997759
 C          0.2591909742        1.5669854576       -0.3513829560
 C         -0.5198034463        0.3661694113       -0.1352428266
 C         -1.8787729920        0.3389761962       -0.2172270088
 C         -2.7263441320        1.5393477676       -0.5565277990
 C         -4.0027072659        1.5809772156        0.2779213925
 C         -4.7949241963        0.2993053109        0.1318888950
 O         -6.0100466430        0.2750193037        0.1397281560
 C         -3.9752120035       -0.8956382480        0.0449808079
 C         -2.6240994740       -0.8869741242       -0.0360863063
 C         -1.8842352174       -2.1919922617        0.0558177454
 C         -0.4706819967       -2.0832226907       -0.4916212170
 C          0.2302412652       -0.9114086340        0.1929014471
 C          2.3094458916        0.5240559662        1.8751591772
 O          4.7612353361        1.0249098572        0.6125618710
 H          3.3125660825        0.3479558548       -2.2681247165
 H          3.8933739280        1.8867741281       -1.6122287537
 H          5.0295771095        0.5775137431       -1.8991198892
 H          4.6791701759       -1.4636321021        0.7906286352
 H          4.5552752350       -1.5837477871       -0.9548263100
 H          2.4963568395       -2.2654787132        1.0920520766
 H          2.5547183153       -2.7455177979       -0.6014458473
 H          1.6648317820       -0.6503507907       -1.3395099606
 H          2.0997178014        2.5921190017       -0.2941397542
 H         -0.2664755404        2.4464553313       -0.6897362078
 H         -2.1838686418        2.4706071765       -0.4061382498
 H         -2.9999678554        1.4771833041       -1.6157464102
 H         -4.6268560491        2.4300160843       -0.0043005818
 H         -3.7487242170        1.6871230996        1.3373172023
 H         -4.5071657650       -1.8357035813        0.0988861331
 H         -2.4462312479       -2.9682402309       -0.4668813526
 H         -1.8378521980       -2.4815419442        1.1116165935
 H          0.0744872338       -3.0099751577       -0.3088305552
 H         -0.4999007050       -1.9097447538       -1.5697715756
 H          0.1921543826       -1.0846868638        1.2754710617
 H          2.7903711570       -0.3446703623        2.3184839254
 H          2.8144677404        1.4255684935        2.2179720663
 H          1.2829940975        0.5732054299        2.2278847817
 H          4.7627263138        0.6878561511        1.5146880976
  45
  -61.069094430000000        1.7054461090456063E-002 !
 C          4.0340846225        0.7947222136       -1.5704198815
 C          3.8193512863        0.3054447433       -0.1373365885
 C          4.0399010721       -1.2317059444       -0.0322908029
 C          2.6584367765       -1.8997992046        0.0906349427
 C          1.6817742197       -0.7793773488       -0.2561164057
 C          2.3410760791        0.4768602942        0.3310022069
 C          1.5796100209        1.6547019625       -0.1793539140
 C          0.2595168847        1.5637281334       -0.3807623585
 C         -0.5196897531        0.3647567473       -0.1560068823
 C         -1.8787938898        0.3377261695       -0.2319827053
 C         -2.7292519807        1.5385369655       -0.5615421112
 C         -3.9923457100        1.5811417657        0.2930511373
 C         -4.7886189193        0.3006595978        0.1578895768
 O         -6.0034508004        0.2781101898        0.1875874338
 C         -3.9727536883       -0.8954142120        0.0517026737
 C         -2.6229031891       -0.8885474356       -0.0481860188
 C         -1.8841289580       -2.1956866764        0.0241344468
 C         -0.4694677664       -2.0814548694       -0.5196868276
 C          0.2284415706       -0.9132665769        0.1744365465
 C          2.2841159944        0.5368412361        1.8682027958
 O          4.7511822952        1.0322446405        0.6318097252
 H          3.9102340105        1.8726897387       -1.6121940726
 H          5.0525502060        0.5627508238       -1.8713277851
 H          3.3409552360        0.3262606879       -2.2610809425
 H          4.6657513393       -1.4546994078        0.8336600213
 H          4.5713054998       -1.5900129016       -0.9125602442
 H          2.4815960520       -2.2605744841        1.1048416029
 H          2.5643340179       -2.7482272155       -0.5853063792
 H          1.6782176034       -0.6598934349       -1.3454814070
 H          2.1010097734        2.5877552956       -0.3265844582
 H         -0.2649335878        2.4389424679       -0.7319543042
 H         -2.1834053616        2.4692744343       -0.4203835347
 H         -3.0193730861        1.4752144330       -1.6162436386
 H         -4.6198603462        2.4313223188        0.0219596307
 H         -3.7214428880        1.6855569294        1.3484468240
 H         -4.5056871227       -1.8347925753        0.1079526301
 H         -2.4467045166       -2.9628897579       -0.5112863900
 H         -1.8398633745       -2.5018614742        1.0752796576
 H          0.0762708393       -3.0088815359       -0.3421195328
 H         -0.4962035382       -1.9004656656       -1.5966771991
 H          0.1810691696       -1.0900860253        1.2560726455
 H          1.2530380686        0.5869723530        2.2071118801
 H          2.7603952840       -0.3282880384        2.3235515243
 H          2.7833953002        1.4415327502        2.2112440799
 H          4.7405364048        0.7042880213        1.5372379599
  45
  -61.068996400000003        1.5373987790063211E-002 !
 C          3.6772207670        1.0363932110       -1.7361638440
 C          3.7452969217        0.3369651700       -0.3746840754
 C          3.9494003766       -1.1977839427       -0.5442613708
 C          2.6009669802       -1.8853936475       -0.2550698743
 C          1.6080196508       -0.7270856878       -0.2308284740
 C          2.4048932472        0.4220721770        0.4014134787
 C          1.5943873528        1.6673207635        0.2753816994
 C          0.2571612867        1.6135635891        0.2393150855
 C         -0.5199357101        0.3903749772        0.2656382972
 C         -1.8753706439        0.3769392333        0.1353755589
 C         -2.6979079165        1.6293173509       -0.0478833234
 C         -3.9416289689        1.3889235341       -0.8978906333
 C         -4.7715980280        0.2476506757       -0.3503222191
 O         -5.9866099238        0.2586636209       -0.3485134416
 C         -3.9776238604       -0.8825970626        0.0960893036
 C         -2.6343160131       -0.8486682674        0.2501929935
 C         -1.8926567333       -2.1072457109        0.5907241035
 C         -0.5265592812       -2.0921886358       -0.0804891857
 C          0.2574641847       -0.8984053367        0.4520971679
 C          2.6870149943        0.2328315921        1.9025880372
 O          4.7814802530        0.9228580119        0.3901869126
 H          2.8527882594        0.6647403631       -2.3362039973
 H          3.5519468897        2.1075462558       -1.5964930515
 H          4.6040854320        0.8673556919       -2.2844293553
 H          4.7171066338       -1.5305389096        0.1547469839
 H          4.2947290182       -1.4236430676       -1.5532382582
 H          2.6185191964       -2.3976659202        0.7067627829
 H          2.3531511391       -2.6193440525       -1.0206878556
 H          1.3980564303       -0.4469817356       -1.2698809549
 H          2.1084494738        2.6162722634        0.2983812827
 H         -0.2871210930        2.5448097997        0.2058061900
 H         -3.0097240267        1.9830336615        0.9414617697
 H         -2.1132013069        2.4198783365       -0.5159885948
 H         -3.6455345102        1.1130286515       -1.9148183706
 H         -4.5516152524        2.2914795847       -0.9571822174
 H         -4.5198479123       -1.8002406095        0.2786569847
 H         -2.4735599801       -2.9777734612        0.2823957818
 H         -1.7588906489       -2.1630688929        1.6760849984
 H          0.0108234608       -3.0182255889        0.1282063179
 H         -0.6492264073       -2.0039041541       -1.1625064633
 H          0.4130563054       -1.0557795556        1.5262878002
 H          3.1548609501       -0.7262734091        2.0978520858
 H          3.3693500442        1.0136784318        2.2256461985
 H          1.7715467095        0.3154841130        2.4822714033
 H          5.5842847828        0.9268051533       -0.1416497158
  45
  -61.068996020000000        1.5367806936463840E-002 !
 C          3.6657590772        1.0410702739       -1.7406454574
 C          3.7415316124        0.3374782066       -0.3817174524
 C          3.9438333567       -1.1969347598       -0.5569912340
 C          2.5973678859       -1.8847802276       -0.2593498247
 C          1.6049744635       -0.7262600711       -0.2276339722
 C          2.4057301386        0.4213244050        0.4024933074
 C          1.5949157640        1.6671216983        0.2841315056
 C          0.2575615114        1.6141341341        0.2530746922
 C         -0.5201754031        0.3912068614        0.2774909876
 C         -1.8754164963        0.3782070780        0.1463865710
 C         -2.6991298985        1.6298072667       -0.0360767113
 C         -3.9335176144        1.3905828732       -0.8999305955
 C         -4.7670773930        0.2457584732       -0.3652899020
 O         -5.9820600447        0.2532026873       -0.3799136979
 C         -3.9762869561       -0.8830871718        0.0904082762
 C         -2.6345575370       -0.8477865785        0.2569774978
 C         -1.8938374558       -2.1047030825        0.6049699275
 C         -0.5279192755       -2.0925688247       -0.0668700712
 C          0.2575231516       -0.8978171361        0.4614309015
 C          2.6969080117        0.2289109950        1.9015212799
 O          4.7826143914        0.9205547201        0.3786277725
 H          4.5889030905        0.8724861311       -2.2952886648
 H          2.8370336538        0.6722587699       -2.3365299702
 H          3.5427354162        2.1119679034       -1.5969567806
 H          4.7168265908       -1.5319328236        0.1350599194
 H          4.2811693908       -1.4201269794       -1.5692544263
 H          2.6212595827       -2.3978595343        0.7018989789
 H          2.3444176756       -2.6180471178       -1.0239253436
 H          1.3900098688       -0.4442430005       -1.2651628399
 H          2.1094527009        2.6157918005        0.3085795015
 H         -0.2863386402        2.5457901513        0.2249073272
 H         -3.0220501554        1.9754302512        0.9525540201
 H         -2.1125419918        2.4255458445       -0.4927198083
 H         -3.6263407415        1.1193243262       -1.9148241319
 H         -4.5446661793        2.2921543587       -0.9620772132
 H         -4.5194560990       -1.8010622339        0.2684199794
 H         -2.4746303745       -2.9769184482        0.3013475974
 H         -1.7597243588       -2.1544398955        1.6905578951
 H          0.0090001112       -3.0183160081        0.1442998082
 H         -0.6512628149       -2.0075889497       -1.1490754769
 H          0.4177591130       -1.0542049556        1.5350782847
 H          3.1666717836       -0.7302259980        2.0919007028
 H          3.3805084867        1.0095576023        2.2223645855
 H          1.7848707441        0.3094861372        2.4868512941
 H          5.5821954319        0.9256529540       -0.1580384162
  45
  -61.068995330000000        1.5356590159470603E-002 !
 C          3.6854993882        1.0338434460       -1.7331024825
 C          3.7478937915        0.3362453525       -0.3704004247
 C          3.9524765302       -1.1987669662       -0.5371213060
 C          2.6031461933       -1.8859134876       -0.2512582603
 C          1.6099432366       -0.7277326046       -0.2327364616
 C          2.4043975370        0.4227615343        0.4002076977
 C          1.5941159628        1.6675259673        0.2683717141
 C          0.2569623365        1.6133754813        0.2295974969
 C         -0.5199193837        0.3901568209        0.2582001394
 C         -1.8755947501        0.3764208180        0.1295983512
 C         -2.6980436766        1.6291015391       -0.0523862395
 C         -3.9468354886        1.3887517103       -0.8948833054
 C         -4.7743322929        0.2485561261       -0.3414482623
 O         -5.9892782585        0.2608146873       -0.3313802751
 C         -3.9783388065       -0.8825072686        0.0991236830
 C         -2.6342163435       -0.8491624110        0.2463775889
 C         -1.8919366469       -2.1087640724        0.5820422439
 C         -0.5258565094       -2.0917214872       -0.0890296674
 C          0.2573140712       -0.8985091437        0.4460843612
 C          2.6806811836        0.2367199893        1.9028528617
 O          4.7810808466        0.9230414839        0.3978723004
 H          2.8625401078        0.6623746629       -2.3353632073
 H          3.5613270252        2.1054371117       -1.5953808579
 H          4.6140455069        0.8626543445       -2.2779158922
 H          4.7180031865       -1.5305735076        0.1647146007
 H          4.3009187691       -1.4260057495       -1.5447023035
 H          2.6173785292       -2.3961581792        0.7116998760
 H          2.3581700529       -2.6214910316       -1.0162097613
 H          1.4034918150       -0.4495611175       -1.2730078183
 H          2.1078772569        2.6166849224        0.2891197394
 H         -0.2873214490        2.5444261407        0.1916723062
 H         -3.0037703295        1.9856914857        0.9378377172
 H         -2.1149421691        2.4177911407       -0.5256657521
 H         -3.6568967440        1.1117132913       -1.9132748460
 H         -4.5564782895        2.2917215989       -0.9513918619
 H         -4.5198255213       -1.8002232590        0.2835414812
 H         -2.4728980043       -2.9782346453        0.2707890703
 H         -1.7581883336       -2.1685270168        1.6672125476
 H          0.0119033025       -3.0179160366        0.1179635286
 H         -0.6483136979       -2.0013372165       -1.1708925121
 H          0.4098894230       -1.0564991328        1.5206283318
 H          3.3608544055        1.0188764748        2.2272542093
 H          1.7628030284        0.3194948458        2.4786518214
 H          3.1487660603       -0.7214892126        2.1018405783
 H          5.5861246757        0.9257794094       -0.1306087460
  45
  -61.068995280000003        1.5355777667788914E-002 !
 C          3.6853315985        1.0326941988       -1.7334843256
 C          3.7478295518        0.3361848335       -0.3702492050
 C          3.9531430649       -1.1988151632       -0.5356488666
 C          2.6032383092       -1.8857457766       -0.2518049093
 C          1.6099480963       -0.7276052121       -0.2330199925
 C          2.4043041590        0.4227472636        0.4002248458
 C          1.5941243687        1.6675703534        0.2684800686
 C          0.2569725901        1.6134238708        0.2297347779
 C         -0.5198887766        0.3901697428        0.2581367655
 C         -1.8755618250        0.3764392783        0.1295657707
 C         -2.6980069406        1.6291439078       -0.0522344020
 C         -3.9468258299        1.3888236512       -0.8947026956
 C         -4.7743188975        0.2486125120       -0.3412827756
 O         -5.9892784396        0.2608801870       -0.3311371434
 C         -3.9782968625       -0.8824816580        0.0991411877
 C         -2.6341510851       -0.8491425125        0.2462740816
 C         -1.8918451558       -2.1087710126        0.5817556592
 C         -0.5258237673       -2.0916581548       -0.0894218146
 C          0.2573514990       -0.8985206717        0.4458339327
 C          2.6802954017        0.2362853662        1.9028869754
 O          4.7807428974        0.9240189682        0.3975145777
 H          2.8636274923        0.6592623256       -2.3361689884
 H          3.5591487623        2.1041697673       -1.5968144301
 H          4.6146241596        0.8626782517       -2.2773903020
 H          4.7172973322       -1.5300069868        0.1679767940
 H          4.3036756035       -1.4267276000       -1.5423632588
 H          2.6164548606       -2.3970995795        0.7105876707
 H          2.3588123510       -2.6204311309       -1.0177841773
 H          1.4033767486       -0.4491777069       -1.2731869929
 H          2.1079623391        2.6166864737        0.2894953237
 H         -0.2873586451        2.5444697247        0.1922250149
 H         -3.0037240753        1.9856423883        0.9380323993
 H         -2.1149391655        2.4178751337       -0.5254557613
 H         -3.6569383127        1.1118310567       -1.9131104845
 H         -4.5564556560        2.2917917681       -0.9511576091
 H         -4.5197639665       -1.8002058514        0.2835541497
 H         -2.4728184089       -2.9782204198        0.2704699711
 H         -1.7580021507       -2.1686439691        1.6669114321
 H          0.0119409725       -3.0178905432        0.1173798444
 H         -0.6483624141       -2.0010876500       -1.1712604855
 H          0.4099899325       -1.0566597367        1.5203445778
 H          1.7624933847        0.3203281355        2.4786279840
 H          3.1469974273       -0.7225916257        2.1019245115
 H          3.3615015694        1.0175462208        2.2273046417
 H          5.5857665872        0.9267674253       -0.1309468340
  45
  -61.068995229999999        1.5354965218979357E-002 !
 C          3.6859147804        1.0329022135       -1.7331025758
 C          3.7480380109        0.3361835730       -0.3699582442
 C          3.9530873174       -1.1988476739       -0.5355557842
 C          2.6032568741       -1.8858631670       -0.2516229506
 C          1.6100461761       -0.7276368771       -0.2331979815
 C          2.4042761683        0.4227933991        0.4000978644
 C          1.5941117721        1.6675995450        0.2679563492
 C          0.2569525819        1.6134156976        0.2290106890
 C         -0.5198637746        0.3901635295        0.2576729820
 C         -1.8755427828        0.3764030577        0.1291793496
 C         -2.6979691189        1.6291223094       -0.0526978010
 C         -3.9471436998        1.3887342133       -0.8946370782
 C         -4.7744878817        0.2486185520       -0.3408024469
 O         -5.9894492208        0.2610180505       -0.3299925375
 C         -3.9783242406       -0.8824720764        0.0994212100
 C         -2.6341311438       -0.8491734882        0.2461109207
 C         -1.8917983188       -2.1088475054        0.5814076034
 C         -0.5258050725       -2.0916496927       -0.0898123499
 C          0.2573569449       -0.8985119888        0.4454804163
 C          2.6799659505        0.2365599820        1.9028437623
 O          4.7807853950        0.9237420934        0.3982754934
 H          4.6151319750        0.8624329246       -2.2769485978
 H          2.8639906533        0.6600018866       -2.3358386948
 H          3.5602991510        2.1044131228       -1.5963146600
 H          4.7173613791       -1.5301851167        0.1678729731
 H          4.3033991892       -1.4266697548       -1.5423707112
 H          2.6164708441       -2.3969429412        0.7109164929
 H          2.3589039565       -2.6207630797       -1.0174414904
 H          1.4036825729       -0.4493197186       -1.2734448192
 H          2.1079042351        2.6167357940        0.2888669712
 H         -0.2873944529        2.5444388097        0.1911142026
 H         -3.0032620842        1.9859040778        0.9375842122
 H         -2.1149637445        2.4176749361       -0.5263346335
 H         -3.6576557336        1.1115991159       -1.9131168151
 H         -4.5567559143        2.2917310195       -0.9510030019
 H         -4.5197575941       -1.8001515334        0.2841025857
 H         -2.4727947102       -2.9782455690        0.2700297564
 H         -1.7579221235       -2.1688124149        1.6665538170
 H          0.0119679616       -3.0178923126        0.1169444029
 H         -0.6483491898       -2.0010433910       -1.1716417740
 H          0.4098605100       -1.0566432616        1.5200208160
 H          1.7620024670        0.3205364748        2.4783461537
 H          3.1467535132       -0.7222507543        2.1020788242
 H          3.3610041931        1.0179477378        2.2273383103
 H          5.5860235871        0.9263626134       -0.1298732175
  45
  -61.068995209999997        1.5354640251491554E-002 !
 C          3.6861321105        1.0340218885       -1.7325883895
 C          3.7480776138        0.3362023240       -0.3699962151
 C          3.9526318228       -1.1987335704       -0.5369185610
 C          2.6029536145       -1.8858042354       -0.2525537911
 C          1.6098469440       -0.7275196711       -0.2333726511
 C          2.4042964001        0.4227131394        0.4001052168
 C          1.5941552631        1.6675718075        0.2682507723
 C          0.2570013920        1.6134873098        0.2291699696
 C         -0.5198654569        0.3902726373        0.2577574794
 C         -1.8755658099        0.3765081143        0.1293020120
 C         -2.6980441187        1.6290968616       -0.0531260677
 C         -3.9468789255        1.3882697902       -0.8954181707
 C         -4.7743466613        0.2484327621       -0.3412012770
 O         -5.9892849800        0.2607646919       -0.3308845343
 C         -3.9783556636       -0.8823943679        0.0999293546
 C         -2.6341808711       -0.8490078121        0.2467933829
 C         -1.8918021295       -2.1084815077        0.5827841185
 C         -0.5260001538       -2.0916856603       -0.0889048828
 C          0.2573339483       -0.8983759804        0.4456993834
 C          2.6800014035        0.2361688295        1.9028158307
 O          4.7810981490        0.9228670224        0.3986053516
 H          4.6148863091        0.8629415323       -2.2770540506
 H          2.8634641439        0.6625919501       -2.3352772402
 H          3.5618146835        2.1056052631       -1.5949779711
 H          4.7173127202       -1.5307980492        0.1656910481
 H          4.3020512021       -1.4257528551       -1.5441694573
 H          2.6165190462       -2.3971882170        0.7098417632
 H          2.3581437521       -2.6204308195       -1.0184893031
 H          1.4033048326       -0.4487271315       -1.2734691950
 H          2.1079670224        2.6166930342        0.2892578945
 H         -0.2872737498        2.5445443117        0.1910088482
 H         -3.0037693619        1.9861266199        0.9369626779
 H         -2.1150070013        2.4176144476       -0.5268368779
 H         -3.6570504662        1.1106142873       -1.9136531746
 H         -4.5565445631        2.2911795323       -0.9524338954
 H         -4.5198281737       -1.7999695987        0.2850353428
 H         -2.4728741408       -2.9781267949        0.2722344880
 H         -1.7575428116       -2.1676234750        1.6679236539
 H          0.0117905338       -3.0178645114        0.1180661664
 H         -0.6489281486       -2.0015428396       -1.1707314288
 H          0.4101514474       -1.0561765888        1.5202566344
 H          3.3615780713        1.0170552870        2.2274121939
 H          1.7622079501        0.3207342578        2.4785137667
 H          3.1461923290       -0.7229714686        2.1020682352
 H          5.5863152312        0.9253585626       -0.1295574078
  45
  -61.068995110000003        1.5353015517443089E-002 !
 C          3.6605141647        1.0444427302       -1.7417635910
 C          3.7401026502        0.3385954144       -0.3842215828
 C          3.9411303262       -1.1955169675       -0.5635077505
 C          2.5960135017       -1.8844036206       -0.2616978959
 C          1.6038655029       -0.7259046406       -0.2257896016
 C          2.4063177319        0.4207461485        0.4038290366
 C          1.5950669777        1.6666650777        0.2896061902
 C          0.2577312099        1.6138979234        0.2595935284
 C         -0.5202117141        0.3909598024        0.2819437851
 C         -1.8752421689        0.3781345441        0.1485975316
 C         -2.6985085953        1.6295308248       -0.0369694747
 C         -3.9304595470        1.3896611752       -0.9040710993
 C         -4.7653635164        0.2454235806       -0.3701930812
 O         -5.9802458604        0.2533597817       -0.3873979741
 C         -3.9760733963       -0.8829384714        0.0892443273
 C         -2.6347460546       -0.8476489633        0.2587307490
 C         -1.8946772263       -2.1039206910        0.6103899539
 C         -0.5284274759       -2.0932957024       -0.0609042269
 C          0.2576095292       -0.8980643714        0.4654459638
 C          2.7004218578        0.2254392551        1.9018743245
 O          4.7837909612        0.9199809540        0.3739334927
 H          3.5382241268        2.1150438309       -1.5953381652
 H          4.5817951644        0.8768128288       -2.2997915105
 H          2.8297190899        0.6772869828       -2.3357925884
 H          4.7169653045       -1.5316622725        0.1247867025
 H          4.2745260446       -1.4165684961       -1.5775761288
 H          2.6229013629       -2.3982008381        0.6990997076
 H          2.3404951846       -2.6170335122       -1.0260407088
 H          1.3867650198       -0.4423954894       -1.2624817362
 H          2.1096541125        2.6152096651        0.3172719088
 H         -0.2862342637        2.5456361014        0.2350904200
 H         -3.0239532007        1.9763240984        0.9504091645
 H         -2.1107217086        2.4246139308       -0.4932345085
 H         -3.6205598532        1.1168876530       -1.9177209178
 H         -4.5413276363        2.2912229910       -0.9691392998
 H         -4.5199910118       -1.8003147607        0.2680077559
 H         -2.4754901504       -2.9768103297        0.3087715989
 H         -1.7608180243       -2.1508942973        1.6961066155
 H          0.0079876079       -3.0190302003        0.1516422037
 H         -0.6514097229       -2.0097680485       -1.1432492417
 H          0.4197828284       -1.0538234855        1.5388505744
 H          1.7898014912        0.3046317084        2.4896720716
 H          3.1713901060       -0.7337187150        2.0893123783
 H          3.3843968226        1.0059447298        2.2221140710
 H          5.5816465124        0.9260482075       -0.1652554478
  45
  -61.068994779999997        1.5347655114337007E-002 !
 C          3.6880529294        1.0332177519       -1.7319957943
 C          3.7486966366        0.3361217982       -0.3689751070
 C          3.9533649745       -1.1989483873       -0.5349321749
 C          2.6037062634       -1.8860489657       -0.2505781662
 C          1.6104991826       -0.7278402970       -0.2334863915
 C          2.4042084703        0.4229532504        0.3998760235
 C          1.5940012884        1.6676260019        0.2664462891
 C          0.2568660856        1.6132936502        0.2267141900
 C         -0.5198642491        0.3900107108        0.2559013744
 C         -1.8755686809        0.3761987442        0.1275473338
 C         -2.6978482880        1.6289960488       -0.0545457582
 C         -3.9483605168        1.3884018945       -0.8944482237
 C         -4.7751742653        0.2488551211       -0.3386075880
 O         -5.9900990707        0.2616829989       -0.3255156098
 C         -3.9785673331       -0.8823762536        0.1003447849
 C         -2.6341606435       -0.8492912782        0.2452187684
 C         -1.8916505767       -2.1091303739        0.5796160680
 C         -0.5256494979       -2.0916355101       -0.0915656430
 C          0.2573263462       -0.8985976150        0.4441974007
 C          2.6784458500        0.2375760801        1.9029776088
 O          4.7809911106        0.9230997779        0.4003476850
 H          3.5641789473        2.1048731665       -1.5947406585
 H          4.6171029222        0.8614481133       -2.2757239070
 H          2.8655901193        0.6619023456       -2.3349767165
 H          4.7179778405       -1.5305907166        0.1679672728
 H          4.3030421838       -1.4265183487       -1.5420152472
 H          2.6167633476       -2.3960600102        0.7125323214
 H          2.3596126489       -2.6217920415       -1.0156761036
 H          1.4049989072       -0.4499989665       -1.2740365554
 H          2.1076614032        2.6168291783        0.2869029099
 H         -0.2875609014        2.5442032496        0.1873580284
 H         -3.0014833029        1.9870358418        0.9357663019
 H         -2.1150203386        2.4166748488       -0.5298375780
 H         -3.6604665044        1.1104490067       -1.9131281936
 H         -4.5578374085        2.2914890802       -0.9504765809
 H         -4.5198954320       -1.7999764823        0.2858011258
 H         -2.4727196415       -2.9783178803        0.2678017596
 H         -1.7577370628       -2.1697607220        1.6647201710
 H          0.0122578601       -3.0179016115        0.1148486124
 H         -0.6481784359       -2.0006349073       -1.1733822375
 H          0.4091131646       -1.0567471370        1.5188370324
 H          3.1458191388       -0.7207687648        2.1030027715
 H          3.3585738355        1.0196101549        2.2278147196
 H          1.7598582638        0.3210425318        2.4775557784
 H          5.5867299649        0.9253349174       -0.1270417238
  45
  -61.068993519999999        1.5327205330580150E-002 !
 C          3.6923086795        1.0281961054       -1.7318603167
 C          3.7500911211        0.3355767038       -0.3664482465
 C          3.9563705013       -1.1997419865       -0.5270342129
 C          2.6049394448       -1.8862198037       -0.2492900073
 C          1.6115663359       -0.7279924305       -0.2351746022
 C          2.4038023404        0.4233416836        0.3989812024
 C          1.5939928281        1.6678477572        0.2622067797
 C          0.2568937500        1.6133697641        0.2213932290
 C         -0.5197772267        0.3901239530        0.2519806258
 C         -1.8757172442        0.3761819450        0.1254134395
 C         -2.6983873456        1.6291054262       -0.0541601916
 C         -3.9511043794        1.3893138174       -0.8909553738
 C         -4.7764939072        0.2492673508       -0.3341196361
 O         -5.9913639961        0.2622009611       -0.3176658452
 C         -3.9787313462       -0.8824570548        0.1014263783
 C         -2.6339985302       -0.8494875916        0.2432442522
 C         -1.8910678056       -2.1100578512        0.5740414133
 C         -0.5252417065       -2.0910116544       -0.0974032815
 C          0.2573027154       -0.8985716350        0.4403354603
 C          2.6742129637        0.2392328623        1.9029672964
 O          4.7799537025        0.9259337833        0.4035143398
 H          3.5637887567        2.0998237238       -1.5987816380
 H          4.6242473811        0.8581285438       -2.2711929771
 H          2.8738540451        0.6517311167       -2.3370644445
 H          4.7164141568       -1.5290300383        0.1819390419
 H          4.3129786920       -1.4301163573       -1.5310392106
 H          2.6136623237       -2.3974309380        0.7132287750
 H          2.3637841760       -2.6209681757       -1.0162642605
 H          1.4077901728       -0.4509387420       -1.2762421956
 H          2.1076778915        2.6170618263        0.2810438433
 H         -0.2874222806        2.5442371975        0.1800488887
 H         -2.9994614065        1.9866125092        0.9371598798
 H         -2.1168044514        2.4171252587       -0.5304321188
 H         -3.6659832217        1.1123915057       -1.9107273855
 H         -4.5606269467        2.2925357405       -0.9444641784
 H         -4.5194840269       -1.8004266478        0.2867737695
 H         -2.4721599175       -2.9784794210        0.2601440575
 H         -1.7569761326       -2.1735571923        1.6589753302
 H          0.0129601477       -3.0174193645        0.1074682240
 H         -0.6478615928       -1.9982604352       -1.1790550645
 H          0.4074790724       -1.0575251996        1.5151016961
 H          3.3552270880        1.0202380254        2.2283899947
 H          1.7544663390        0.3254327362        2.4753003158
 H          3.1389970779       -0.7198806915        2.1053536203
 H          5.5869546145        0.9274307274       -0.1219167047
  45
  -61.068664550000001        1.0821284898980293E-002 !
 C          3.6584549000        1.0687858149       -1.7189434317
 C          3.7453095115        0.3378146262       -0.3783682476
 C          3.9327710808       -1.1952331943       -0.5801689105
 C          2.6009278491       -1.8861267775       -0.2326106502
 C          1.6077289882       -0.7292689456       -0.2054911902
 C          2.4074644870        0.4202910482        0.4220301397
 C          1.5926343291        1.6647004886        0.3030523262
 C          0.2558339672        1.6105233128        0.2604218655
 C         -0.5223488710        0.3878077093        0.2785719550
 C         -1.8763486329        0.3756969500        0.1361526954
 C         -2.6954745675        1.6291604664       -0.0536587137
 C         -3.9327675784        1.3909812950       -0.9136803150
 C         -4.7684715253        0.2508871990       -0.3730229702
 O         -5.9831878624        0.2640873026       -0.3772653434
 C         -3.9789564049       -0.8822006488        0.0758862214
 C         -2.6372456148       -0.8499045580        0.2413753142
 C         -1.8993762465       -2.1100628291        0.5846103609
 C         -0.5271745763       -2.0940008509       -0.0740796103
 C          0.2528479641       -0.9021344018        0.4687409790
 C          2.6950762123        0.2332340751        1.9237853644
 O          4.8444485417        0.9275166806        0.2785631191
 H          4.5846863300        0.9117263291       -2.2657326661
 H          2.8253146860        0.7134252090       -2.3159905403
 H          3.5463009152        2.1349969323       -1.5457029370
 H          4.7441751532       -1.5541895106        0.0553233812
 H          4.2185945704       -1.3984156400       -1.6110923672
 H          2.6488008943       -2.3775047756        0.7398987195
 H          2.3347254999       -2.6383150988       -0.9734175768
 H          1.4027095641       -0.4485503887       -1.2450382426
 H          2.1062850923        2.6139908236        0.3295874851
 H         -0.2878072827        2.5420259845        0.2269318212
 H         -3.0147216896        1.9833809989        0.9331553414
 H         -2.1057601352        2.4186385676       -0.5172198160
 H         -3.6288625100        1.1151374252       -1.9282549280
 H         -4.5407212995        2.2945503722       -0.9773430988
 H         -4.5236166771       -1.7998613740        0.2509030200
 H         -2.4777500261       -2.9791643516        0.2678092724
 H         -1.7760982906       -2.1700281578        1.6710803272
 H          0.0074170901       -3.0210988205        0.1372637791
 H         -0.6396483521       -2.0025795574       -1.1567940429
 H          0.3966034250       -1.0649254852        1.5440950995
 H          1.7697935495        0.2286249629        2.4936270206
 H          3.2310973611       -0.6919772706        2.1210850817
 H          3.2892333272        1.0729846515        2.2801355979
 H          5.0267675103        0.4436659749        1.0909959410
  45
  -61.068664450000000        1.0820139856766036E-002 !
 C          3.6741920945        1.0617169161       -1.7135877988
 C          3.7504562153        0.3367061704       -0.3691522301
 C          3.9405058679       -1.1969762432       -0.5629306985
 C          2.6054372536       -1.8869422493       -0.2262159132
 C          1.6116093294       -0.7303020816       -0.2098165405
 C          2.4062361406        0.4215609785        0.4200593517
 C          1.5919530931        1.6651868419        0.2900900076
 C          0.2553621224        1.6100453110        0.2415556073
 C         -0.5221253768        0.3870640427        0.2631058502
 C         -1.8765140548        0.3743411122        0.1229694992
 C         -2.6948219840        1.6286577506       -0.0658448332
 C         -3.9435545688        1.3898156969       -0.9089584690
 C         -4.7742406325        0.2529944111       -0.3539536004
 O         -5.9887966221        0.2698686746       -0.3385883744
 C         -3.9805512085       -0.8818534960        0.0827422418
 C         -2.6369243555       -0.8510213159        0.2328565571
 C         -1.8977363152       -2.1133700070        0.5657799244
 C         -0.5254507218       -2.0931978002       -0.0923253280
 C          0.2526506573       -0.9026452172        0.4561135656
 C          2.6816337382        0.2396914364        1.9247410182
 O          4.8438213209        0.9299782778        0.2941907983
 H          3.5587191544        2.1285087698       -1.5461780979
 H          4.6055412636        0.9038326356       -2.2513587536
 H          2.8470742362        0.7021438511       -2.3164657912
 H          4.7453647186       -1.5529573769        0.0825351868
 H          4.2372663201       -1.4041923933       -1.5899586990
 H          2.6445913040       -2.3765956198        0.7475617039
 H          2.3458371259       -2.6404678793       -0.9680019136
 H          1.4134052081       -0.4526535120       -1.2514838231
 H          2.1050697778        2.6148452592        0.3135107956
 H         -0.2885592755        2.5410418566        0.2002066821
 H         -3.0003777414        1.9910370793        0.9223404374
 H         -2.1081058415        2.4128431437       -0.5421814819
 H         -3.6533583244        1.1099352747       -1.9264319556
 H         -4.5504618955        2.2944110808       -0.9677433326
 H         -4.5238164309       -1.7993985830        0.2626188263
 H         -2.4761967589       -2.9801689093        0.2426783422
 H         -1.7746311977       -2.1815883767        1.6518187998
 H          0.0098784610       -3.0206977331        0.1154042342
 H         -0.6373221504       -1.9971364672       -1.1746897710
 H          0.3902531580       -1.0670293032        1.5320412011
 H          1.7516949593        0.2372619213        2.4869086186
 H          3.2158896617       -0.6848859708        2.1296905116
 H          3.2729045831        1.0806605881        2.2830541357
 H          5.0196667429        0.4498920021        1.1102804316
  45
  -61.068664450000000        1.0820139856766036E-002 !
 C          3.6581691101        1.0694585209       -1.7188939487
 C          3.7451713236        0.3377219673       -0.3787540802
 C          3.9322487092       -1.1952586194       -0.5814052736
 C          2.6006538676       -1.8860995039       -0.2328810956
 C          1.6075257654       -0.7292056191       -0.2054048896
 C          2.4075054910        0.4202794655        0.4219531005
 C          1.5927259194        1.6647329098        0.3030780298
 C          0.2559106347        1.6106439785        0.2607875249
 C         -0.5224017374        0.3879824031        0.2791753730
 C         -1.8764282474        0.3758971617        0.1370425679
 C         -2.6957391350        1.6292774480       -0.0524482288
 C         -3.9322667345        1.3910583943       -0.9136192767
 C         -4.7681595241        0.2505493991       -0.3741826785
 O         -5.9828620778        0.2634460606       -0.3795870157
 C         -3.9788413203       -0.8822727180        0.0756594574
 C         -2.6373070598       -0.8497579320        0.2420383659
 C         -1.8994330081       -2.1097317799        0.5858164082
 C         -0.5273279123       -2.0939777095       -0.0730904740
 C          0.2528241209       -0.9019714732        0.4692210184
 C          2.6954692136        0.2331937276        1.9236334633
 O          4.8446114155        0.9267885552        0.2782519645
 H          4.5835123211        0.9110364630       -2.2667863340
 H          2.8237022347        0.7159662515       -2.3152076027
 H          3.5482255401        2.1357901575       -1.5449190412
 H          4.7442196804       -1.5546040235        0.0531301257
 H          4.2169477426       -1.3980274822       -1.6127200509
 H          2.6490824698       -2.3773385481        0.7396731396
 H          2.3340251566       -2.6384101325       -0.9734115744
 H          1.4022398219       -0.4484722799       -1.2449007613
 H          2.1064261186        2.6140059449        0.3293519154
 H         -0.2876296505        2.5422116109        0.2276158908
 H         -3.0158357401        1.9826281974        0.9343896361
 H         -2.1059697618        2.4193362708       -0.5149424669
 H         -3.6274548879        1.1157088371       -1.9280860231
 H         -4.5404336125        2.2944539963       -0.9774713632
 H         -4.5235093948       -1.7999185854        0.2505731381
 H         -2.4778084179       -2.9790111921        0.2695433810
 H         -1.7759770172       -2.1691182561        1.6722869269
 H          0.0072735798       -3.0210296825        0.1384805992
 H         -0.6399925036       -2.0028956487       -1.1558082809
 H          0.3968995513       -1.0645546961        1.5445608475
 H          3.2900433889        1.0727642805        2.2797177084
 H          1.7703499015        0.2290144731        2.4937297172
 H          3.2312103020       -0.6921923062        2.1208814408
 H          5.0271956340        0.4422313575        1.0902122423
  45
  -61.068664360000000        1.0819109422374674E-002 !
 C          3.6579126448        1.0709037854       -1.7180565808
 C          3.7450269729        0.3380008801       -0.3785542101
 C          3.9321076045       -1.1948683502       -0.5823433102
 C          2.6008885692       -1.8860040154       -0.2330353863
 C          1.6075890013       -0.7292967277       -0.2052113928
 C          2.4074744640        0.4200785243        0.4224532520
 C          1.5925708991        1.6645125802        0.3041460435
 C          0.2558498894        1.6103522192        0.2611422438
 C         -0.5223161546        0.3876173652        0.2787429170
 C         -1.8762222013        0.3755077582        0.1352456370
 C         -2.6948311896        1.6290562867       -0.0566009238
 C         -3.9326091949        1.3899153107       -0.9157318853
 C         -4.7684435812        0.2509758320       -0.3728324321
 O         -5.9831284222        0.2649310590       -0.3757219652
 C         -3.9790665932       -0.8820583623        0.0764442909
 C         -2.6372659673       -0.8499048810        0.2412585790
 C         -1.8995211234       -2.1098766203        0.5853977011
 C         -0.5271672024       -2.0942857016       -0.0729838700
 C          0.2528809162       -0.9022260581        0.4693378941
 C          2.6957277646        0.2326478367        1.9240330469
 O          4.8445653536        0.9264780902        0.2787986416
 H          2.8231321185        0.7181257658       -2.3143053846
 H          3.5483162243        2.1371295279       -1.5431456389
 H          4.5829591386        0.9126295075       -2.2664649381
 H          4.7448037123       -1.5546086325        0.0509751797
 H          4.2158353948       -1.3969262491       -1.6140374098
 H          2.6500114514       -2.3770927515        0.7395585259
 H          2.3341110973       -2.6384450782       -0.9733835688
 H          1.4022764827       -0.4483379190       -1.2446577367
 H          2.1061662383        2.6138029965        0.3313280607
 H         -0.2878362983        2.5418442100        0.2280299288
 H         -3.0134855314        1.9855212574        0.9296230061
 H         -2.1047328050        2.4171848239       -0.5219909903
 H         -3.6292326772        1.1123190704       -1.9299871546
 H         -4.5402143690        2.2935980685       -0.9806812201
 H         -4.5238843141       -1.7994503639        0.2525673151
 H         -2.4779082346       -2.9790755692        0.2688619589
 H         -1.7764846410       -2.1692395576        1.6719413758
 H          0.0073312796       -3.0213387139        0.1389105531
 H         -0.6394586733       -2.0033708850       -1.1557496073
 H          0.3968341579       -1.0647143765        1.5447121631
 H          1.7706826848        0.2280512606        2.4942435162
 H          3.2316940881       -0.6926747380        2.1209290977
 H          3.2901802960        1.0722350368        2.2802960864
 H          5.0271960708        0.4413093200        1.0903673117
  45
  -61.068664120000001        1.0816362077086080E-002 !
 C          3.6553542844        1.0700402628       -1.7193608973
 C          3.7444141162        0.3382815554       -0.3793743138
 C          3.9319558863       -1.1945969068       -0.5823647227
 C          2.6006239286       -1.8859580211       -0.2336476929
 C          1.6072938582       -0.7292503323       -0.2045723923
 C          2.4075875096        0.4199702175        0.4228088412
 C          1.5925407626        1.6644923523        0.3062146569
 C          0.2557464770        1.6103491668        0.2638042289
 C         -0.5223355905        0.3875471145        0.2804278307
 C         -1.8761398847        0.3755148217        0.1363637760
 C         -2.6946261354        1.6290731601       -0.0557374410
 C         -3.9314622099        1.3901521239       -0.9162184414
 C         -4.7678102397        0.2510546211       -0.3744282306
 O         -5.9824847645        0.2648541253       -0.3788845375
 C         -3.9789091822       -0.8820332228        0.0755229557
 C         -2.6372919806       -0.8498708982        0.2417495786
 C         -1.8996698884       -2.1098419698        0.5862714473
 C         -0.5271825453       -2.0944539694       -0.0718510686
 C          0.2528516444       -0.9023778686        0.4705103783
 C          2.6972765126        0.2313900247        1.9239615454
 O          4.8442870780        0.9280063041        0.2762757166
 H          4.5811391067        0.9141038084       -2.2672283130
 H          2.8218832724        0.7143087487       -2.3157226161
 H          3.5424457818        2.1360516199       -1.5453393651
 H          4.7441542770       -1.5536918528        0.0520075494
 H          4.2166647324       -1.3970768078       -1.6137347665
 H          2.6496458507       -2.3780031282        0.7384491454
 H          2.3336282956       -2.6377112709       -0.9746058190
 H          1.4012874125       -0.4478178876       -1.2437141043
 H          2.1061931831        2.6137551292        0.3340758654
 H         -0.2880158701        2.5418407109        0.2318352665
 H         -3.0143591060        1.9851244298        0.9302498256
 H         -2.1041984261        2.4174402560       -0.5203033671
 H         -3.6269025445        1.1127456643       -1.9301889029
 H         -4.5390691547        2.2938420270       -0.9815941638
 H         -4.5238080530       -1.7995412305        0.2505712828
 H         -2.4779362866       -2.9791256553        0.2698067808
 H         -1.7768912936       -2.1690821242        1.6728280338
 H          0.0071526802       -3.0215526234        0.1402263508
 H         -0.6393020079       -2.0036104427       -1.1546589377
 H          0.3972387551       -1.0650121207        1.5457837159
 H          3.2341986649       -0.6936637651        2.1196127109
 H          3.2912916219        1.0712204644        2.2803906459
 H          1.7727091288        0.2255687582        2.4949537681
 H          5.0277304804        0.4439804529        1.0883530556
  45
  -61.068664069999997        1.0815789801250668E-002 !
 C          3.6761832966        1.0609536019       -1.7128071833
 C          3.7511050833        0.3365986763       -0.3679660503
 C          3.9415017063       -1.1971453056       -0.5609418429
 C          2.6059970414       -1.8869532172       -0.2254885419
 C          1.6120701528       -0.7303839299       -0.2103496308
 C          2.4060654091        0.4217413172        0.4198468066
 C          1.5917762984        1.6652802710        0.2886583422
 C          0.2552027752        1.6099654138        0.2391997014
 C         -0.5221361442        0.3869330088        0.2612270485
 C         -1.8765283820        0.3741189165        0.1211952931
 C         -2.6945961172        1.6285379971       -0.0679451705
 C         -3.9448836763        1.3895022140       -0.9086660927
 C         -4.7749440186        0.2532567118       -0.3515393608
 O         -5.9894611250        0.2708413896       -0.3332297955
 C         -3.9807734192       -0.8818175935        0.0836977682
 C         -2.6368982591       -0.8512044516        0.2317002127
 C         -1.8975298634       -2.1137770017        0.5634528051
 C         -0.5252232325       -2.0930987886       -0.0945990246
 C          0.2526202109       -0.9027108798        0.4545712708
 C          2.6798866169        0.2403365868        1.9248909126
 O          4.8437993872        0.9301916830        0.2961861350
 H          3.5595617947        2.1277188155       -1.5460406362
 H          4.6084999056        0.9035067669       -2.2490642850
 H          2.8502577141        0.7003872454       -2.3166880807
 H          4.7455231948       -1.5529799985        0.0856135505
 H          4.2394756195       -1.4048225917       -1.5875225383
 H          2.6440735094       -2.3764445056        0.7484218595
 H          2.3472644612       -2.6406408552       -0.9674239472
 H          1.4147227743       -0.4530405348       -1.2522484974
 H          2.1048006889        2.6149844855        0.3118715850
 H         -0.2888332182        2.5408693018        0.1969977062
 H         -2.9983231673        1.9923437621        0.9202612830
 H         -2.1081278844        2.4117709154       -0.5461513213
 H         -3.6565608946        1.1088180181       -1.9264666750
 H         -4.5515490613        2.2943356458       -0.9669242991
 H         -4.5239451441       -1.7992051589        0.2646976760
 H         -2.4760038367       -2.9802507039        0.2395611672
 H         -1.7745516525       -2.1830488979        1.6494309522
 H          0.0102258019       -3.0206090602        0.1127568575
 H         -0.6369515639       -1.9965165965       -1.1769447769
 H          0.3894851505       -1.0672185795        1.5305737500
 H          3.2138573853       -0.6842377062        2.1305785419
 H          3.2708838915        1.0813391137        2.2835472728
 H          1.7494210063        0.2381589738        2.4862174777
 H          5.0187437091        0.4505479878        1.1126990920
  45
  -61.068662969999998        1.0803207391467807E-002 !
 C          3.6830984909        1.0602908752       -1.7097195827
 C          3.7532393615        0.3360378330       -0.3645449184
 C          3.9435359848       -1.1978524324       -0.5564751488
 C          2.6074724531       -1.8873690167       -0.2228636120
 C          1.6134705736       -0.7308598055       -0.2119742496
 C          2.4056178391        0.4222435803        0.4188320987
 C          1.5916165446        1.6654623055        0.2828874331
 C          0.2551310797        1.6098541668        0.2312619891
 C         -0.5221063552        0.3868043897        0.2551667664
 C         -1.8767005354        0.3737295652        0.1163489976
 C         -2.6946863353        1.6283285463       -0.0723253689
 C         -3.9490139507        1.3889163864       -0.9068754273
 C         -4.7770491252        0.2538552064       -0.3444282214
 O         -5.9914050156        0.2724699752       -0.3194389812
 C         -3.9813167979       -0.8816970138        0.0865698470
 C         -2.6368194338       -0.8515020430        0.2290134838
 C         -1.8969247159       -2.1147411681        0.5573300538
 C         -0.5247108015       -2.0927746800       -0.1007566598
 C          0.2525372631       -0.9026915926        0.4499551889
 C          2.6743929442        0.2433491989        1.9250652472
 O          4.8441168395        0.9291444177        0.3030759810
 H          3.5712261398        2.1276227310       -1.5432471993
 H          4.6151425889        0.8985996751       -2.2451840248
 H          2.8560682690        0.7034490265       -2.3142421984
 H          4.7466072404       -1.5535903423        0.0912893535
 H          4.2428306552       -1.4059549706       -1.5825674488
 H          2.6433896679       -2.3751113630        0.7520072958
 H          2.3505041444       -2.6424042375       -0.9640495776
 H          1.4188071628       -0.4549519540       -1.2547723312
 H          2.1044739642        2.6152802145        0.3042656986
 H         -0.2888610229        2.5405991178        0.1855554580
 H         -2.9935478766        1.9949492441        0.9163513817
 H         -2.1095687884        2.4097866106       -0.5551605517
 H         -3.6656610746        1.1068058332       -1.9256577452
 H         -4.5554128236        2.2940014439       -0.9634382500
 H         -4.5238801532       -1.7991021484        0.2692785671
 H         -2.4754791710       -2.9804729841        0.2315691038
 H         -1.7737984178       -2.1866618506        1.6431279734
 H          0.0109982643       -3.0203529636        0.1055570194
 H         -0.6363916893       -1.9949612897       -1.1829840701
 H          0.3872562328       -1.0673728314        1.5262203534
 H          3.2648885308        1.0845594280        2.2840472338
 H          1.7421060825        0.2429683446        2.4833460182
 H          3.2069676307       -0.6812696885        2.1341640177
 H          5.0165920695        0.4490513918        1.1198849376
  45
  -61.068662799999998        1.0801264143546539E-002 !
 C          3.6493474525        1.0740366446       -1.7210028232
 C          3.7422713356        0.3385788583       -0.3833132152
 C          3.9280785801       -1.1939602099       -0.5908354223
 C          2.5985286038       -1.8856141227       -0.2362202098
 C          1.6055896711       -0.7287557516       -0.2028853413
 C          2.4081151301        0.4194545025        0.4234905887
 C          1.5929810190        1.6642567975        0.3108922855
 C          0.2560957652        1.6105791418        0.2710100577
 C         -0.5224335386        0.3879802696        0.2867951639
 C         -1.8761109404        0.3761861267        0.1421978120
 C         -2.6951287785        1.6292855432       -0.0499858504
 C         -3.9268758258        1.3906791216       -0.9178782468
 C         -4.7652625332        0.2499003568       -0.3827639927
 O         -5.9799309742        0.2619053992       -0.3959329448
 C         -3.9781320527       -0.8822260242        0.0727892529
 C         -2.6374037140       -0.8493308987        0.2456886648
 C         -1.9003952886       -2.1082814121        0.5947764558
 C         -0.5280343817       -2.0946528654       -0.0637904107
 C          0.2529561719       -0.9019821571        0.4758935030
 C          2.7026038753        0.2293514190        1.9235201553
 O          4.8447265088        0.9256586140        0.2703948977
 H          2.8115769389        0.7229771878       -2.3141001366
 H          3.5411940638        2.1399589419       -1.5434418936
 H          4.5717668734        0.9163180616       -2.2739576629
 H          4.7438645289       -1.5549499772        0.0378469099
 H          4.2064380943       -1.3942007400       -1.6243821141
 H          2.6520277340       -2.3776998457        0.7356303375
 H          2.3283641908       -2.6373292766       -0.9760824906
 H          1.3968385794       -0.4461957497       -1.2412180225
 H          2.1069174242        2.6133500323        0.3394024138
 H         -0.2874434578        2.5423071436        0.2418741783
 H         -3.0208685908        1.9812766563        0.9354808080
 H         -2.1036033598        2.4202754833       -0.5085675909
 H         -3.6163657972        1.1153765595       -1.9306121470
 H         -4.5350727517        2.2938102707       -0.9851732225
 H         -4.5236272484       -1.7996906522        0.2461141405
 H         -2.4787225449       -2.9785952273        0.2813122020
 H         -1.7774308442       -2.1636815788        1.6814880405
 H          0.0060264932       -3.0215243140        0.1499140847
 H         -0.6405634529       -2.0060061707       -1.1467463603
 H          0.3999341328       -1.0636435547        1.5509704717
 H          3.2396253515       -0.6962138392        2.1164027311
 H          3.2984348856        1.0683894770        2.2787753426
 H          1.7799898055        0.2234770132        2.4976910193
 H          5.0309007870        0.4388454621        1.0801896340
  45
  -61.063629239999997        5.2506198552225038E-005 !
 C          3.4149728313        0.7689693720       -1.9061544858
 C          3.6350492828        0.2364051452       -0.4866268263
 C          3.7900851724       -1.3059527054       -0.4692639571
 C          2.4848195266       -1.9098565410        0.0842523888
 C          1.5154723125       -0.7333443293        0.0378096310
 C          2.3925159509        0.4680333317        0.4284370918
 C          1.5973198548        1.7211761549        0.2555887013
 C          0.2604377451        1.7115011742        0.2837137039
 C         -0.5319818465        0.4980796303        0.3639614818
 C         -1.8263561039        0.4353863151       -0.0358745082
 C         -2.6767996024        1.6258075268       -0.3909678066
 C         -4.0801786851        1.4553293416        0.1871405673
 C         -4.7272247139        0.1608943852       -0.2651945618
 O         -5.9262531141        0.0605357718       -0.4344642688
 C         -3.8058240323       -0.9511699762       -0.4349748714
 C         -2.4721976287       -0.8402385681       -0.2630645023
 C         -1.5553574667       -2.0169897093       -0.3960830001
 C         -0.6001116251       -2.0150222363        0.7901690580
 C          0.2195494522       -0.7242422123        0.8513267510
 C          2.8658676731        0.4514341924        1.8940124200
 O          4.8271740740        0.7902375077        0.0319257022
 H          3.2417384911        1.8441370688       -1.8888014721
 H          4.3051978341        0.5717922476       -2.5004461463
 H          2.5652219439        0.2942088125       -2.3862638036
 H          4.6469519148       -1.5515994769        0.1558081423
 H          3.9970680728       -1.6697300858       -1.4743848982
 H          2.6131581164       -2.2698992347        1.1047035809
 H          2.1465396964       -2.7450318919       -0.5276855178
 H          1.2281284606       -0.5945823247       -1.0109039311
 H          2.1316949150        2.6583858093        0.1787207219
 H         -0.2653647099        2.6477543923        0.1693785376
 H         -2.2484590065        2.5541922810       -0.0154968560
 H         -2.7468094220        1.7048093671       -1.4810988139
 H         -4.7226578885        2.2929892153       -0.0885493036
 H         -4.0243514132        1.4210239548        1.2799501132
 H         -4.2501015998       -1.9022780034       -0.6930764798
 H         -0.9870035673       -1.9252399851       -1.3260135529
 H         -2.1235195396       -2.9468767979       -0.4341490715
 H         -1.1921185380       -2.1051137898        1.7043481538
 H          0.0693903927       -2.8737839082        0.7432164614
 H          0.4771971318       -0.5570371833        1.9019250449
 H          2.0313743658        0.5663073578        2.5806252678
 H          3.3996885975       -0.4640291855        2.1243243071
 H          3.5471886797        1.2829764949        2.0584766324
 H          4.7968417577        1.7467418188       -0.0791457132
  45
  -61.063629180000000        5.2502864950865875E-005 !
 C          3.4166701908        0.7673140055       -1.9059808500
 C          3.6357748853        0.2361257615       -0.4857756751
 C          3.7910989074       -1.3061757465       -0.4668726078
 C          2.4851812614       -1.9098641640        0.0853404344
 C          1.5157979917       -0.7334356305        0.0374220429
 C          2.3924537863        0.4681967528        0.4281100019
 C          1.5973431431        1.7211725788        0.2538051721
 C          0.2604358319        1.7114495424        0.2816054284
 C         -0.5320252419        0.4981370838        0.3625634971
 C         -1.8266304104        0.4355960190       -0.0366267536
 C         -2.6774088794        1.6261068282       -0.3906408796
 C         -4.0802637135        1.4550281490        0.1886094175
 C         -4.7276090051        0.1606530055       -0.2634875680
 O         -5.9268121498        0.0601607403       -0.4314716931
 C         -3.8061557610       -0.9510722757       -0.4351101828
 C         -2.4724314689       -0.8399919020       -0.2640711985
 C         -1.5553075814       -2.0163817047       -0.3982629934
 C         -0.6002049864       -2.0150981227        0.7881176222
 C          0.2193537965       -0.7242544789        0.8500584548
 C          2.8643300472        0.4525767107        1.8941585828
 O          4.8273850057        0.7907998484        0.0330657942
 H          4.3071080830        0.5691696056       -2.4996850791
 H          2.5669253792        0.2923567952       -2.3859746064
 H          3.2438270473        1.8425968520       -1.8898107098
 H          4.6471035313       -1.5510624324        0.1596939024
 H          3.9996300681       -1.6708229630       -1.4713700634
 H          2.6123131927       -2.2696270467        1.1060379865
 H          2.1475594230       -2.7452087463       -0.5267034017
 H          1.2291543372       -0.5953045616       -1.0115620621
 H          2.1317064826        2.6583231799        0.1762120510
 H         -0.2653844614        2.6476030374        0.1665932558
 H         -2.2488742220        2.5544256754       -0.0151404604
 H         -2.7484711156        1.7054409764       -1.4806869016
 H         -4.7231494292        2.2926601526       -0.0861933526
 H         -4.0234979812        1.4203256540        1.2813524386
 H         -4.2504509224       -1.9020360698       -0.6936861468
 H         -0.9869101451       -1.9236316279       -1.3280639268
 H         -2.1231620866       -2.9464038298       -0.4371804783
 H         -1.1923337615       -2.1058458494        1.7021536011
 H          0.0694059772       -2.8737446940        0.7407032424
 H          0.4763489742       -0.5571988480        1.9008522711
 H          2.0292676889        0.5695277590        2.5797175588
 H          3.3964955109       -0.4634148143        2.1260950488
 H          3.5467497668        1.2832487974        2.0583419344
 H          4.7970514855        1.7471713888       -0.0793300683
  45
  -61.063629159999998        5.2501753797315038E-005 !
 C          3.4151714968        0.7669683599       -1.9066690065
 C          3.6352444784        0.2363200879       -0.4863863691
 C          3.7912004110       -1.3058764126       -0.4670575155
 C          2.4850274752       -1.9099246827        0.0841947827
 C          1.5156091479       -0.7334180660        0.0373672986
 C          2.3924268510        0.4680439895        0.4281497364
 C          1.5973169187        1.7211542481        0.2548903362
 C          0.2604419038        1.7114370737        0.2832863871
 C         -0.5319074792        0.4980104335        0.3638867541
 C         -1.8264834687        0.4354936649       -0.0353960343
 C         -2.6770681801        1.6261481301       -0.3894524566
 C         -4.0804719518        1.4550556346        0.1884175169
 C         -4.7273625940        0.1608645816       -0.2648145630
 O         -5.9263101552        0.0606750300       -0.4347666787
 C         -3.8058319775       -0.9509452465       -0.4354724906
 C         -2.4722422910       -0.8400231698       -0.2632389769
 C         -1.5552998158       -2.0166174590       -0.3969197712
 C         -0.5999948860       -2.0153013671        0.7892802251
 C          0.2196366579       -0.7244928587        0.8508191394
 C          2.8652309408        0.4516399697        1.8938640634
 O          4.8268092086        0.7917080924        0.0317820889
 H          3.2393176143        1.8417247064       -1.8906386392
 H          4.3063719292        0.5712549176       -2.4999992490
 H          2.5670442907        0.2896700691       -2.3870894215
 H          4.6467761223       -1.5502824824        0.1602870857
 H          4.0007498166       -1.6706890765       -1.4712636481
 H          2.6121249589       -2.2707409964        1.1045341381
 H          2.1474163935       -2.7446383499       -0.5287647421
 H          1.2283509297       -0.5947413061       -1.0113698626
 H          2.1316846411        2.6583452517        0.1777960915
 H         -0.2654084790        2.6476421598        0.1687897771
 H         -2.2488959349        2.5542060070       -0.0129637236
 H         -2.7470324757        1.7062071798       -1.4795171023
 H         -4.7229809459        2.2929042909       -0.0866502013
 H         -4.0248004486        1.4198734868        1.2811976396
 H         -4.2499623812       -1.9018610827       -0.6945403068
 H         -0.9871029450       -1.9243781652       -1.3269096174
 H         -2.1233758874       -2.9465289352       -0.4353529233
 H         -1.1919037184       -2.1058583043        1.7034845232
 H          0.0694934859       -2.8740497218        0.7417972275
 H          0.4772769734       -0.5576019387        1.9014728283
 H          3.5487716997        1.2815786642        2.0575774615
 H          2.0305325645        0.5694902243        2.5797849564
 H          3.3963346923       -0.4651481574        2.1253682950
 H          4.7959315012        1.7480059263       -0.0809452194
  45
  -61.063628940000001        5.2489532661392796E-005 !
 C          3.4210827562        0.7671824527       -1.9047646558
 C          3.6373136730        0.2360338924       -0.4841259293
 C          3.7924455493       -1.3063035697       -0.4649205424
 C          2.4861851602       -1.9097096888        0.0867086468
 C          1.5165268591       -0.7335978432        0.0364844051
 C          2.3923967641        0.4685397526        0.4275083274
 C          1.5972077378        1.7211365368        0.2508972022
 C          0.2602783290        1.7111700072        0.2774130816
 C         -0.5322164576        0.4979718014        0.3592617945
 C         -1.8271892718        0.4355143698       -0.0387555677
 C         -2.6784452002        1.6258615002       -0.3920569728
 C         -4.0802054886        1.4552066661        0.1899887451
 C         -4.7284901432        0.1606771005       -0.2603391131
 O         -5.9280568361        0.0601784543       -0.4257695884
 C         -3.8074403657       -0.9511640122       -0.4335093322
 C         -2.4734039877       -0.8400657375       -0.2649870603
 C         -1.5564204484       -2.0163685451       -0.4006416553
 C         -0.6002336323       -2.0154539839        0.7848794958
 C          0.2189770166       -0.7243181765        0.8473537210
 C          2.8620933729        0.4542006701        1.8942784233
 O          4.8281093301        0.7902841586        0.0370295532
 H          2.5717522202        0.2929076962       -2.3860784187
 H          3.2491629382        1.8425812796       -1.8891253401
 H          4.3123673025        0.5682112530       -2.4968681521
 H          4.6481958815       -1.5513766891        0.1619200221
 H          4.0012672730       -1.6710618119       -1.4693106582
 H          2.6124559932       -2.2680753650        1.1080077573
 H          2.1495570166       -2.7459673830       -0.5246611234
 H          1.2314004768       -0.5962876830       -1.0130288586
 H          2.1313959081        2.6583300548        0.1725759582
 H         -0.2655393690        2.6470461322        0.1601769696
 H         -2.2491920254        2.5543485425       -0.0178799843
 H         -2.7515098899        1.7045764909       -1.4820061158
 H         -4.7235540620        2.2927763409       -0.0839192703
 H         -4.0213572601        1.4209547344        1.2826422426
 H         -4.2522802585       -1.9021457827       -0.6910842369
 H         -0.9889144048       -1.9231151843       -1.3309310416
 H         -2.1242701129       -2.9464179655       -0.4394177135
 H         -1.1915631305       -2.1072317438        1.6993246709
 H          0.0696254486       -2.8738193971        0.7362323478
 H          0.4747120476       -0.5570706499        1.8984259706
 H          3.5412730338        1.2873039514        2.0596391953
 H          2.0257100283        0.5680649169        2.5787208212
 H          3.3972432909       -0.4599343303        2.1267192309
 H          4.7980262056        1.7467222969       -0.0747016622
  45
  -61.063628510000001        5.2465654108798091E-005 !
 C          3.4041162210        0.7755188304       -1.9083249561
 C          3.6305796043        0.2369073912       -0.4920908550
 C          3.7833065108       -1.3058984016       -0.4814140918
 C          2.4825554218       -1.9098406265        0.0824925395
 C          1.5135436601       -0.7330375645        0.0418201689
 C          2.3930063758        0.4673248014        0.4301533180
 C          1.5974518383        1.7211933517        0.2639856052
 C          0.2606443671        1.7121269414        0.2952519568
 C         -0.5317807470        0.4984638112        0.3731687382
 C         -1.8250831896        0.4352171778       -0.0299475755
 C         -2.6740003716        1.6258704513       -0.3880739412
 C         -4.0805918257        1.4549833394        0.1819976729
 C         -4.7249476607        0.1608441726       -0.2749187485
 O         -5.9227641693        0.0608704662       -0.4527604715
 C         -3.8026580352       -0.9514088322       -0.4383914338
 C         -2.4699075630       -0.8405898204       -0.2592441239
 C         -1.5532049245       -2.0180939214       -0.3869686428
 C         -0.6002324463       -2.0138586374        0.8010342692
 C          0.2203183500       -0.7237483398        0.8596281463
 C          2.8746285440        0.4477824722        1.8929549678
 O          4.8263156009        0.7864846165        0.0225995315
 H          2.5486246991        0.3069947407       -2.3844169260
 H          3.2365710713        1.8515186559       -1.8859443086
 H          4.2893193083        0.5760045534       -2.5092895876
 H          4.6459667138       -1.5552541584        0.1341572063
 H          3.9794634657       -1.6664174036       -1.4898965426
 H          2.6184600409       -2.2686712240        1.1023729775
 H          2.1398348727       -2.7456455437       -0.5261068024
 H          1.2225705688       -0.5928897463       -1.0057324723
 H          2.1320562278        2.6584549150        0.1891926113
 H         -0.2650569859        2.6489782500        0.1853834905
 H         -2.2476159585        2.5538197954       -0.0092221172
 H         -2.7379246803        1.7061373519       -1.4785094596
 H         -4.7214563953        2.2928767891       -0.0967037597
 H         -4.0310102750        1.4198485310        1.2750678726
 H         -4.2455383039       -1.9026323521       -0.6985947082
 H         -0.9829312529       -1.9291008659       -1.3160080391
 H         -2.1218275270       -2.9477572747       -0.4239051222
 H         -1.1938821618       -2.1005874377        1.7144886950
 H          0.0686093891       -2.8733502331        0.7577792351
 H          0.4809604101       -0.5562342206        1.9094220576
 H          2.0432550071        0.5526151894        2.5849054340
 H          3.4172639585       -0.4643443155        2.1158282813
 H          3.5500863701        1.2840886017        2.0575644626
 H          4.7970152019        1.7435452825       -0.0838519671
  45
  -61.063628289999997        5.2453441375614010E-005 !
 C          3.4251371491        0.7628636992       -1.9044753321
 C          3.6391296151        0.2357094939       -0.4820099942
 C          3.7958158003       -1.3062897156       -0.4585904303
 C          2.4870218000       -1.9098749668        0.0869057204
 C          1.5173423179       -0.7337458774        0.0346034588
 C          2.3921701413        0.4688333112        0.4265150289
 C          1.5972338283        1.7211530696        0.2470323169
 C          0.2602599680        1.7109400110        0.2729367389
 C         -0.5321670038        0.4978364213        0.3561137839
 C         -1.8277540802        0.4356975632       -0.0400785106
 C         -2.6797241367        1.6262272675       -0.3910557248
 C         -4.0804787979        1.4548670512        0.1932422480
 C         -4.7294451474        0.1606309984       -0.2569497952
 O         -5.9293014087        0.0601235852       -0.4202429762
 C         -3.8085265104       -0.9508772144       -0.4328749777
 C         -2.4742290552       -0.8397013596       -0.2663252241
 C         -1.5570520715       -2.0155689850       -0.4043413517
 C         -0.5999709620       -2.0159353195        0.7804625764
 C          0.2189277884       -0.7246004700        0.8440582490
 C          2.8580585374        0.4557184509        1.8945472412
 O          4.8281566872        0.7929263750        0.0400501113
 H          3.2495001178        1.8377081607       -1.8918227857
 H          4.3188657408        0.5654854631       -2.4934417600
 H          2.5789655434        0.2844968412       -2.3872873220
 H          4.6480262306       -1.5487944309        0.1740379462
 H          4.0112379600       -1.6730775657       -1.4608327765
 H          2.6090803125       -2.2697948506        1.1081857717
 H          2.1526102390       -2.7452211400       -0.5269256397
 H          1.2333076289       -0.5968986337       -1.0152290869
 H          2.1313506244        2.6582555617        0.1672502067
 H         -0.2656691394        2.6465160576        0.1538199371
 H         -2.2500502281        2.5544251297       -0.0166169403
 H         -2.7546731665        1.7058973274       -1.4808157110
 H         -4.7244164581        2.2925537351       -0.0788740988
 H         -4.0197721162        1.4197651652        1.2857635773
 H         -4.2536590469       -1.9016946523       -0.6905380436
 H         -0.9903055711       -1.9209869773       -1.3349622621
 H         -2.1246890410       -2.9457092171       -0.4437943014
 H         -1.1906421058       -2.1090692402        1.6951883516
 H          0.0700319123       -2.8740985807        0.7301906369
 H          0.4738039890       -0.5577672868        1.8954047543
 H          3.3852078215       -0.4618438698        2.1316974876
 H          3.5434439967        1.2839337570        2.0587784846
 H          2.0207116074        0.5785788139        2.5762919879
 H          4.7973659940        1.7489268085       -0.0752033496
  45
  -61.063628240000000        5.2450666151143518E-005 !
 C          3.4257584053        0.7641387318       -1.9039612098
 C          3.6392441889        0.2357322762       -0.4818820774
 C          3.7952818787       -1.3064200620       -0.4595682840
 C          2.4873000547       -1.9096973125        0.0881536443
 C          1.5173918230       -0.7338945442        0.0350287184
 C          2.3921995720        0.4688485575        0.4265956949
 C          1.5970892494        1.7210577005        0.2469738090
 C          0.2601290939        1.7108206073        0.2723930361
 C         -0.5323451475        0.4977420788        0.3554886830
 C         -1.8278632325        0.4356367444       -0.0408611148
 C         -2.6797583022        1.6260892552       -0.3922504446
 C         -4.0801868234        1.4550605824        0.1929109659
 C         -4.7294729752        0.1606770553       -0.2564407756
 O         -5.9294735093        0.0600924395       -0.4187430972
 C         -3.8087417415       -0.9510096428       -0.4323538544
 C         -2.4744000421       -0.8398291054       -0.2666113898
 C         -1.5572461588       -2.0156999706       -0.4048934732
 C         -0.6002548536       -2.0161034766        0.7799534495
 C          0.2185603167       -0.7246978411        0.8437787859
 C          2.8586955430        0.4562450305        1.8944643294
 O          4.8284276447        0.7920513914        0.0407714142
 H          4.3190325341        0.5659681563       -2.4933515683
 H          2.5787773845        0.2872408762       -2.3867839361
 H          3.2515395111        1.8391995911       -1.8906501659
 H          4.6487748739       -1.5497308587        0.1710233878
 H          4.0083457151       -1.6727581896       -1.4624738807
 H          2.6104944111       -2.2678698540        1.1099131099
 H          2.1526059204       -2.7460793175       -0.5241016516
 H          1.2338896845       -0.5975897758       -1.0150245573
 H          2.1311466478        2.6582462839        0.1676895958
 H         -0.2657699153        2.6464221994        0.1531675483
 H         -2.2497842925        2.5545587553       -0.0188251874
 H         -2.7553637557        1.7049432861       -1.4820006993
 H         -4.7242460432        2.2926903635       -0.0791747836
 H         -4.0187799571        1.4203918036        1.2854101912
 H         -4.2540443072       -1.9018097973       -0.6898351529
 H         -0.9904497978       -1.9210045303       -1.3354921307
 H         -2.1247620089       -2.9459228030       -0.4443188068
 H         -1.1909706927       -2.1095486705        1.6946202481
 H          0.0698201643       -2.8741737382        0.7294554170
 H          0.4728934090       -0.5577439361        1.8952491676
 H          3.3920329650       -0.4582985318        2.1296138904
 H          3.5386764431        1.2886835627        2.0601776681
 H          2.0208885124        0.5722408107        2.5768971062
 H          4.7977053320        1.7482233994       -0.0728416882
  45
  -61.063628209999997        5.2449001086704713E-005 !
 C          3.4033406453        0.7772846540       -1.9079545707
 C          3.6301199999        0.2371393278       -0.4923879461
 C          3.7820981941       -1.3057872484       -0.4832827430
 C          2.4823660710       -1.9098161530        0.0828170512
 C          1.5133703860       -0.7330470837        0.0424262995
 C          2.3930609784        0.4672083146        0.4306618356
 C          1.5974479968        1.7211387447        0.2652740490
 C          0.2606565887        1.7121107243        0.2960788883
 C         -0.5318392274        0.4984439404        0.3732887286
 C         -1.8248216231        0.4351304953       -0.0307059289
 C         -2.6735016329        1.6255141780       -0.3902295586
 C         -4.0800775492        1.4555611190        0.1801124423
 C         -4.7246789307        0.1608914399       -0.2749536096
 O         -5.9226735049        0.0606283811       -0.4515299050
 C         -3.8025066467       -0.9515063994       -0.4381300175
 C         -2.4697562984       -0.8407450840       -0.2594360112
 C         -1.5531694377       -2.0183847325       -0.3865404357
 C         -0.6004393984       -2.0138248146        0.8016877845
 C          0.2201007291       -0.7236971750        0.8601798161
 C          2.8758152859        0.4473152926        1.8930726609
 O          4.8263471511        0.7855358475        0.0224156698
 H          2.5469298468        0.3102241551       -2.3837776858
 H          3.2370614367        1.8534240885       -1.8844327321
 H          4.2878701912        0.5773381760       -2.5097369708
 H          4.6460216197       -1.5561479705        0.1300643464
 H          3.9757827725       -1.6654459748       -1.4925317948
 H          2.6196545542       -2.2676977230        1.1028330499
 H          2.1390432230       -2.7461589176       -0.5246970848
 H          1.2223705304       -0.5928150989       -1.0051280496
 H          2.1320657980        2.6584693510        0.1913933670
 H         -0.2649729016        2.6490987668        0.1870335058
 H         -2.2469307117        2.5538746987       -0.0126832762
 H         -2.7374429766        1.7043636301       -1.4807603289
 H         -4.7208714661        2.2931205233       -0.0997871480
 H         -4.0304998933        1.4219753346        1.2732412603
 H         -4.2455881806       -1.9028520112       -0.6974181292
 H         -0.9827151113       -1.9297241670       -1.3154774239
 H         -2.1218448190       -2.9480152065       -0.4233561949
 H         -1.1943056675       -2.1003381314        1.7150205129
 H          0.0684113852       -2.8733322361        0.7588372589
 H          0.4805287430       -0.5560052678        1.9099980396
 H          3.4233864673       -0.4624284734        2.1135769083
 H          3.5470560480        1.2867794627        2.0588665909
 H          2.0445634551        0.5464273249        2.5859870972
 H          4.7971821947        1.7427894765       -0.0821831263
  45
  -61.063627080000003        5.2386322142495577E-005 !
 C          3.4305254297        0.7602866204       -1.9032885650
 C          3.6412376873        0.2354695762       -0.4794432662
 C          3.7988339235       -1.3063192092       -0.4532992735
 C          2.4878863995       -1.9097765096        0.0871959035
 C          1.5181185377       -0.7337319026        0.0324399293
 C          2.3919151698        0.4691437553        0.4256694925
 C          1.5971649753        1.7211492166        0.2430906979
 C          0.2601571629        1.7106882474        0.2675567103
 C         -0.5323253231        0.4977464280        0.3519517817
 C         -1.8283656488        0.4357583226       -0.0428489148
 C         -2.6810040359        1.6260974051       -0.3928462790
 C         -4.0801830049        1.4551366367        0.1953340338
 C         -4.7303346535        0.1606391886       -0.2523661564
 O         -5.9306576972        0.0600210310       -0.4119861858
 C         -3.8099441132       -0.9509038614       -0.4308321174
 C         -2.4752745823       -0.8396680895       -0.2677229637
 C         -1.5581803266       -2.0153073062       -0.4080991799
 C         -0.5998747503       -2.0163112598        0.7757197300
 C          0.2186390479       -0.7246724035        0.8402488382
 C          2.8534891959        0.4570861524        1.8951144707
 O          4.8285875405        0.7943512951        0.0446865186
 H          4.3262757118        0.5635045542       -2.4893804973
 H          2.5865727597        0.2798533710       -2.3878901562
 H          3.2531437784        1.8348526720       -1.8927721342
 H          4.6482498637       -1.5472808537        0.1836613965
 H          4.0192648878       -1.6743771208       -1.4539764054
 H          2.6064667432       -2.2706928694        1.1085458909
 H          2.1554067317       -2.7445890473       -0.5283860860
 H          1.2358052866       -0.5972339393       -1.0179142531
 H          2.1311861017        2.6582183899        0.1625413647
 H         -0.2657887933        2.6459097106        0.1457631918
 H         -2.2505156545        2.5546524955       -0.0203022344
 H         -2.7587447885        1.7048684987       -1.4824683830
 H         -4.7248047585        2.2927144632       -0.0755357048
 H         -4.0165617217        1.4206321978        1.2877142318
 H         -4.2557171829       -1.9015976288       -0.6878649367
 H         -0.9924468239       -1.9196653553       -1.3392079534
 H         -2.1256216919       -2.9455642341       -0.4477713033
 H         -1.1896674938       -2.1108470940        1.6908552729
 H          0.0703956334       -2.8741449015        0.7237746223
 H          0.4723179377       -0.5578410070        1.8919020030
 H          3.5433346530        1.2815754760        2.0590749449
 H          2.0149346649        0.5868772033        2.5741168590
 H          3.3744443324       -0.4629574771        2.1362742425
 H          4.7976709087        1.7500824151       -0.0728074912
  45
  -61.063395939999999        4.1019779359319859E-005 !
 C          3.4293940797        0.7561302813       -1.9058423055
 C          3.6374799095        0.2329715445       -0.4808909035
 C          3.7961229186       -1.3171318823       -0.4657206755
 C          2.4826190328       -1.9214427639        0.0697267992
 C          1.5157393548       -0.7424998899        0.0238326829
 C          2.3933843839        0.4569194699        0.4190133910
 C          1.6061552130        1.7127997883        0.2354264321
 C          0.2694646657        1.7070388398        0.2687261312
 C         -0.5266425544        0.4963059834        0.3575561914
 C         -1.8245248567        0.4370210028       -0.0326231452
 C         -2.6737303640        1.6311954084       -0.3790784258
 C         -4.0758636002        1.4614365479        0.2021456053
 C         -4.7272994414        0.1706824804       -0.2542555618
 O         -5.9270162852        0.0745474300       -0.4230933151
 C         -3.8094337499       -0.9430069071       -0.4285891680
 C         -2.4749391297       -0.8358058545       -0.2588421073
 C         -1.5625951412       -2.0156744368       -0.3967423859
 C         -0.6012910286       -2.0170695431        0.7844753156
 C          0.2229527382       -0.7288754540        0.8415599383
 C          2.8491255195        0.4472433701        1.8902395266
 O          4.7633531854        0.8796404234        0.0815845324
 H          2.5384708097        0.3371084806       -2.3625751352
 H          3.3351777743        1.8395131133       -1.8903231999
 H          4.2876316788        0.4934893042       -2.5245278205
 H          4.6382063895       -1.5791331680        0.1752354968
 H          4.0123267491       -1.6836190852       -1.4694460095
 H          2.6016083452       -2.2892428237        1.0885816274
 H          2.1474180123       -2.7518646386       -0.5507550007
 H          1.2268585993       -0.6034534891       -1.0244085980
 H          2.1534088366        2.6394043887        0.1476473000
 H         -0.2544612291        2.6435074365        0.1487155604
 H         -2.2417622319        2.5561071908        0.0006509721
 H         -2.7466360488        1.7165589289       -1.4685774922
 H         -4.7169924354        2.3020138163       -0.0677814250
 H         -4.0170546743        1.4218169575        1.2946106781
 H         -4.2565003674       -1.8924219271       -0.6882592272
 H         -0.9988595320       -1.9255263618       -1.3296809951
 H         -2.1340578337       -2.9437213424       -0.4321681018
 H         -1.1889411491       -2.1052593412        1.7016163245
 H          0.0648781176       -2.8783774807        0.7340656818
 H          0.4871693549       -0.5619774985        1.8904770510
 H          2.0170599240        0.6445833124        2.5609713221
 H          3.3107398510       -0.4973511718        2.1567005826
 H          3.5868438179        1.2330760679        2.0237590555
 H          5.4990957161        0.7948739352       -0.5339308532
  45
  -61.063395649999997        4.1007193284001938E-005 !
 C          3.4441420367        0.7480891597       -1.9029548644
 C          3.6432316366        0.2321393994       -0.4741120143
 C          3.8040825993       -1.3174850876       -0.4507013699
 C          2.4859904113       -1.9213630426        0.0738441841
 C          1.5184836957       -0.7431191189        0.0192551510
 C          2.3928402050        0.4580809565        0.4163772654
 C          1.6059198567        1.7126669693        0.2235140673
 C          0.2690993941        1.7060887016        0.2531486175
 C         -0.5269912078        0.4958015687        0.3458006037
 C         -1.8265270836        0.4373261785       -0.0392555133
 C         -2.6778336542        1.6316109271       -0.3800216479
 C         -4.0758998546        1.4609647803        0.2108073034
 C         -4.7303104697        0.1705719607       -0.2424839964
 O         -5.9312513380        0.0742636768       -0.4021748878
 C         -3.8134814482       -0.9426787746       -0.4249741760
 C         -2.4779947414       -0.8352054529       -0.2635712163
 C         -1.5653783648       -2.0139507251       -0.4086238586
 C         -0.6011726627       -2.0185678760        0.7702678862
 C          0.2219084932       -0.7295016849        0.8308771192
 C          2.8384280088        0.4533525545        1.8907737887
 O          4.7641883626        0.8832983164        0.0930251525
 H          3.3463178840        1.8312157122       -1.8933207818
 H          4.3079350198        0.4853240598       -2.5138344308
 H          2.5581543854        0.3238617414       -2.3644312401
 H          4.6396940129       -1.5751551280        0.2004107907
 H          4.0316810243       -1.6881517872       -1.4503616673
 H          2.5964341280       -2.2884827981        1.0939227193
 H          2.1564193489       -2.7523612866       -0.5488824662
 H          1.2346312883       -0.6068733648       -1.0306920823
 H          2.1528104372        2.6391101304        0.1320203219
 H         -0.2549992704        2.6415221437        0.1260582434
 H         -2.2436687467        2.5564597422       -0.0026422186
 H         -2.7582509585        1.7173620248       -1.4689469477
 H         -4.7191132278        2.3016718526       -0.0536759588
 H         -4.0093376722        1.4202307208        1.3027984796
 H         -4.2619775412       -1.8917636071       -0.6833472743
 H         -1.0041252690       -1.9199190998       -1.3426614204
 H         -2.1361373876       -2.9423535138       -0.4457462961
 H         -1.1866827859       -2.1113878267        1.6883035951
 H          0.0658474126       -2.8788652062        0.7148143368
 H          0.4817891067       -0.5629731390        1.8809632358
 H          2.0023296101        0.6566034220        2.5546975678
 H          3.2947926684       -0.4916873433        2.1646409147
 H          3.5778289128        1.2373181297        2.0259534155
 H          5.5043996462        0.7965525869       -0.5168255702
  45
  -61.063395610000001        4.1005457576885349E-005 !
 C          3.4262016574        0.7565741393       -1.9068609005
 C          3.6362975242        0.2331455507       -0.4822963334
 C          3.7951273949       -1.3169508105       -0.4676263153
 C          2.4821287414       -1.9214808111        0.0688969015
 C          1.5152565381       -0.7424511714        0.0246764672
 C          2.3934579224        0.4566683124        0.4194285484
 C          1.6061582711        1.7127870821        0.2376438638
 C          0.2695112356        1.7071887848        0.2719546453
 C         -0.5265191721        0.4963147418        0.3600408430
 C         -1.8241762885        0.4369660984       -0.0308625003
 C         -2.6729976238        1.6313397054       -0.3776658927
 C         -4.0759930710        1.4612213221        0.2013292663
 C         -4.7266752391        0.1707961966       -0.2569388209
 O         -5.9260292656        0.0748424594       -0.4281838766
 C         -3.8086251906       -0.9429224552       -0.4296140152
 C         -2.4743591262       -0.8358428834       -0.2578497129
 C         -1.5620543188       -2.0158846321       -0.3946564590
 C         -0.6012609679       -2.0169398864        0.7869495886
 C          0.2232266663       -0.7289368924        0.8436099536
 C          2.8511763726        0.4460931147        1.8900134945
 O          4.7628520521        0.8798258459        0.0787757438
 H          3.3313078348        1.8398873007       -1.8908993119
 H          4.2838349274        0.4946036318       -2.5266904345
 H          2.5349806801        0.3371756003       -2.3626471821
 H          4.6378002108       -1.5790113756        0.1725475129
 H          4.0104991736       -1.6832347192       -1.4716064643
 H          2.6022313897       -2.2898762208        1.0874073366
 H          2.1461471549       -2.7515310238       -0.5516730362
 H          1.2253068600       -0.6029095154       -1.0232010012
 H          2.1534572923        2.6394155902        0.1503751159
 H         -0.2544380059        2.6438292112        0.1532131041
 H         -2.2415474436        2.5560226817        0.0032842660
 H         -2.7442871058        1.7174352521       -1.4672209001
 H         -4.7166820120        2.3019584685       -0.0690822680
 H         -4.0188370312        1.4209685270        1.2938581764
 H         -4.2553209900       -1.8922779609       -0.6900353347
 H         -0.9978722995       -1.9262178785       -1.3273789184
 H         -2.1335875363       -2.9438867398       -0.4299756504
 H         -1.1892420610       -2.1045637021        1.7039410978
 H          0.0647956377       -2.8783842727        0.7372633554
 H          0.4883192485       -0.5621472211        1.8923329701
 H          3.3128857304       -0.4987428147        2.1553419139
 H          3.5892384758        1.2316782733        2.0229788650
 H          2.0200769755        0.6432396220        2.5619528210
 H          5.4976683555        0.7956309101       -0.5379189580
  45
  -61.063395380000003        4.0995478685742557E-005 !
 C          3.4245616739        0.7571739385       -1.9072112372
 C          3.6356965323        0.2331599414       -0.4830375747
 C          3.7942960698       -1.3169644341       -0.4690857086
 C          2.4818142563       -1.9215194515        0.0686206880
 C          1.5150346406       -0.7424238903        0.0251862562
 C          2.3935230084        0.4566143694        0.4196035256
 C          1.6061824513        1.7128188519        0.2385957656
 C          0.2695390878        1.7072406632        0.2734450755
 C         -0.5264655879        0.4963529235        0.3614187424
 C         -1.8240304518        0.4369717324       -0.0297787135
 C         -2.6726486175        1.6314178434       -0.3767703635
 C         -4.0761767657        1.4611127995        0.2008724010
 C         -4.7264055190        0.1707748330       -0.2583516403
 O         -5.9255850579        0.0749036680       -0.4310897302
 C         -3.8081362852       -0.9429410733       -0.4302418938
 C         -2.4740254174       -0.8358324663       -0.2573085393
 C         -1.5617241395       -2.0159623081       -0.3934366833
 C         -0.6012026860       -2.0167848423        0.7883904202
 C          0.2234195081       -0.7288887677        0.8447665988
 C          2.8524128012        0.4456561584        1.8898465646
 O          4.7627400688        0.8794846262        0.0774487753
 H          2.5328640875        0.3381539874       -2.3624241850
 H          3.3299572751        1.8405117055       -1.8907660516
 H          4.2816471596        0.4951996021       -2.5277843426
 H          4.6376548328       -1.5793719298        0.1700173971
 H          4.0084421470       -1.6828551667       -1.4734617306
 H          2.6027658624       -2.2898455386        1.0870561342
 H          2.1452971697       -2.7515554332       -0.5516730011
 H          1.2245185202       -0.6026930356       -1.0225069159
 H          2.1535138251        2.6394402147        0.1515357744
 H         -0.2544224021        2.6439718441        0.1556332329
 H         -2.2415200085        2.5559173899        0.0049657830
 H         -2.7429560082        1.7180032525       -1.4663439686
 H         -4.7166470483        2.3019458137       -0.0698440035
 H         -4.0199771125        1.4204827153        1.2934321303
 H         -4.2545732506       -1.8923424802       -0.6910687981
 H         -0.9972683031       -1.9266387004       -1.3260274467
 H         -2.1333758866       -2.9439142879       -0.4286588961
 H         -1.1894237386       -2.1038838127        1.7052744117
 H          0.0647321742       -2.8783573658        0.7391308161
 H          0.4889763725       -0.5621816108        1.8933707791
 H          3.3148457961       -0.4990550036        2.1544842530
 H          3.5902124487        1.2315525172        2.0225669024
 H          2.0217099105        0.6421232669        2.5625191116
 H          5.4970711364        0.7954270542       -0.5398350638
  45
  -61.063395229999998        4.0988972021314547E-005 !
 C          3.4461937832        0.7472678755       -1.9022947799
 C          3.6440853059        0.2319988306       -0.4730407875
 C          3.8049629728       -1.3176250472       -0.4488512625
 C          2.4866350570       -1.9214579417        0.0750188610
 C          1.5190197375       -0.7433834381        0.0188547988
 C          2.3927327977        0.4582895463        0.4159828080
 C          1.6058490153        1.7126174487        0.2212764463
 C          0.2690056999        1.7058869090        0.2503766472
 C         -0.5270460034        0.4957258149        0.3439379287
 C         -1.8268669800        0.4373962288       -0.0402132252
 C         -2.6784347970        1.6317306810       -0.3801845262
 C         -4.0758727656        1.4608405218        0.2121368040
 C         -4.7308008013        0.1704147875       -0.2402590778
 O         -5.9318281477        0.0742195092       -0.3989866775
 C         -3.8140952984       -0.9426225385       -0.4245468307
 C         -2.4784474141       -0.8350928950       -0.2643543710
 C         -1.5657000267       -2.0135817001       -0.4106566982
 C         -0.6011685531       -2.0187377186        0.7679481517
 C          0.2217373224       -0.7295382426        0.8293164319
 C          2.8369635897        0.4544199039        1.8907780773
 O          4.7643686983        0.8835243463        0.0950531376
 H          2.5603020743        0.3232655906       -2.3642451768
 H          3.3489571396        1.8304600152       -1.8932152779
 H          4.3103520216        0.4838119002       -2.5123332320
 H          4.6401845869       -1.5749692339        0.2028945869
 H          4.0331340417       -1.6887962689       -1.4481975072
 H          2.5963387260       -2.2877346366        1.0954847475
 H          2.1577711391       -2.7530298168       -0.5473447016
 H          1.2361300850       -0.6076914182       -1.0314263026
 H          2.1526356012        2.6391326400        0.1296961919
 H         -0.2551618198        2.6412022872        0.1227687709
 H         -2.2438133109        2.5565777857       -0.0033184419
 H         -2.7600788026        1.7174817991       -1.4690092094
 H         -4.7194134781        2.3015170772       -0.0516373292
 H         -4.0081558034        1.4200673212        1.3040454854
 H         -4.2627577826       -1.8915176650       -0.6833228936
 H         -1.0046963017       -1.9186804856       -1.3447622436
 H         -2.1362752774       -2.9420801065       -0.4482678503
 H         -1.1864611670       -2.1123396015        1.6860578453
 H          0.0659536839       -2.8788991739        0.7116529350
 H          0.4807369612       -0.5630124300        1.8796409925
 H          3.5755162805        1.2391669357        2.0261898971
 H          2.0000246866        0.6572281951        2.5538094641
 H          3.2940306612       -0.4900489086        2.1655510843
 H          5.5052400546        0.7965051607       -0.5139574689
  45
  -61.063395079999999        4.0982466389910573E-005 !
 C          3.4473737296        0.7469238614       -1.9018718327
 C          3.6444822999        0.2320436207       -0.4723496254
 C          3.8056446736       -1.3175030033       -0.4476263905
 C          2.4865541572       -1.9212811534        0.0745901038
 C          1.5189971981       -0.7431360435        0.0182455155
 C          2.3927108174        0.4583045820        0.4160790863
 C          1.6058961046        1.7126421182        0.2212885608
 C          0.2690529805        1.7058923555        0.2497167901
 C         -0.5270933404        0.4956883104        0.3427258521
 C         -1.8267828468        0.4373376558       -0.0417797770
 C         -2.6785004225        1.6313763429       -0.3823672549
 C         -4.0754112342        1.4614711015        0.2113780340
 C         -4.7308748526        0.1705803830       -0.2391302879
 O         -5.9323694724        0.0739406069       -0.3950483143
 C         -3.8144199281       -0.9427156169       -0.4236723974
 C         -2.4786200255       -0.8352025814       -0.2650625949
 C         -1.5659939308       -2.0137299743       -0.4115417279
 C         -0.6013454275       -2.0188748902        0.7669882926
 C          0.2214826921       -0.7296210826        0.8283562897
 C          2.8361341743        0.4543299777        1.8911458561
 O          4.7643963750        0.8839057411        0.0960595172
 H          3.3484344383        1.8299654212       -1.8932188684
 H          4.3125170481        0.4846105613       -2.5110076911
 H          2.5627355515        0.3214862004       -2.3647741442
 H          4.6399876839       -1.5744801539        0.2053919331
 H          4.0354551511       -1.6887317549       -1.4465708964
 H          2.5951846471       -2.2882925541        1.0949132035
 H          2.1581446607       -2.7523784705       -0.5486339630
 H          1.2363430589       -0.6073904931       -1.0320916440
 H          2.1527529158        2.6391031608        0.1298247811
 H         -0.2550218643        2.6412029553        0.1216908939
 H         -2.2436547798        2.5566946281       -0.0069454388
 H         -2.7611115821        1.7157803496       -1.4712384078
 H         -4.7191535243        2.3019238863       -0.0527569831
 H         -4.0066329722        1.4219529892        1.3032940333
 H         -4.2635167735       -1.8918304726       -0.6809007204
 H         -1.0051545210       -1.9188858167       -1.3457387474
 H         -2.1365968654       -2.9422157333       -0.4489844167
 H         -1.1865741387       -2.1126702283        1.6851109696
 H          0.0658750831       -2.8789406366        0.7105802964
 H          0.4802066237       -0.5631232467        1.8787346403
 H          3.5755333355        1.2381900435        2.0269433402
 H          1.9991102981        0.6582469541        2.5537020095
 H          3.2917924423       -0.4906935273        2.1662856571
 H          5.5056260905        0.7967408144       -0.5125030976
  45
  -61.063394580000001        4.0960788408090618E-005 !
 C          3.4505768853        0.7452048026       -1.9014335620
 C          3.6456937252        0.2318006760       -0.4711377668
 C          3.8071547412       -1.3176497665       -0.4446205255
 C          2.4874149833       -1.9212636204        0.0760018379
 C          1.5196489338       -0.7433856357        0.0175077614
 C          2.3926441860        0.4585584781        0.4153530313
 C          1.6058100988        1.7125628094        0.2184195011
 C          0.2689412117        1.7056657413        0.2462690904
 C         -0.5271896666        0.4955783216        0.3404652276
 C         -1.8273529687        0.4374318663       -0.0425885899
 C         -2.6795017595        1.6316907184       -0.3813099076
 C         -4.0756759449        1.4609326750        0.2140287746
 C         -4.7315877409        0.1704551451       -0.2369189717
 O         -5.9330667607        0.0739947473       -0.3920785350
 C         -3.8152451228       -0.9425880819       -0.4232756821
 C         -2.4793058825       -0.8349966163       -0.2658807714
 C         -1.5665513961       -2.0132224787       -0.4140181956
 C         -0.6012596733       -2.0191675014        0.7640162864
 C          0.2213192222       -0.7297327616        0.8262469261
 C          2.8338703719        0.4560605218        1.8910996011
 O          4.7646736308        0.8844195990        0.0982017826
 H          4.3164658770        0.4821083570       -2.5091722734
 H          2.5663969059        0.3194523861       -2.3649552862
 H          3.3518729562        1.8282437614       -1.8939642334
 H          4.6404863565       -1.5739032034        0.2099679746
 H          4.0386699326       -1.6898197176       -1.4428531023
 H          2.5946064741       -2.2875255169        1.0967605841
 H          2.1600924355       -2.7528473889       -0.5470958025
 H          1.2381145812       -0.6084249991       -1.0332320279
 H          2.1525555721        2.6389886251        0.1257373970
 H         -0.2552058621        2.6406953211        0.1165972077
 H         -2.2442283048        2.5566955776       -0.0056079753
 H         -2.7633806126        1.7169751854       -1.4699939479
 H         -4.7198226663        2.3015754756       -0.0484511118
 H         -4.0056046679        1.4203486671        1.3058045558
 H         -4.2644761081       -1.8915382978       -0.6809079395
 H         -1.0062676976       -1.9174125120       -1.3484515168
 H         -2.1369907574       -2.9417906471       -0.4519862621
 H         -1.1859738987       -2.1139502553        1.6823493829
 H          0.0661538205       -2.8790211151        0.7065137424
 H          0.4791504223       -0.5632891083        1.8768936793
 H          1.9958417336        0.6603431597        2.5522395455
 H          3.2894413795       -0.4885603141        2.1677583305
 H          3.5728573797        1.2402651013        2.0272345327
 H          5.5067953083        0.7966787926       -0.5091407565
  45
  -61.063009860000001        2.7262346726495819E-005 !
 C          3.4079648866        0.7908551806       -1.8902487929
 C          3.6334467807        0.2329762442       -0.4841457049
 C          3.7720913874       -1.3191350495       -0.4993528665
 C          2.4819549044       -1.9197997130        0.0918300233
 C          1.5150109084       -0.7418335368        0.0499458827
 C          2.3955558383        0.4565288400        0.4413446022
 C          1.6049057308        1.7128515206        0.2676112495
 C          0.2682320777        1.7067595188        0.2916437722
 C         -0.5290719989        0.4960405010        0.3694842464
 C         -1.8222057931        0.4372844685       -0.0348653789
 C         -2.6676443202        1.6310531764       -0.3905218143
 C         -4.0743498528        1.4631399198        0.1802454839
 C         -4.7230328806        0.1711781497       -0.2765439030
 O         -5.9218243963        0.0736083663       -0.4491577292
 C         -3.8038608447       -0.9428016960       -0.4460113308
 C         -2.4707399054       -0.8357694963       -0.2680388068
 C         -1.5566512493       -2.0148297451       -0.4007904481
 C         -0.6070733469       -2.0187843947        0.7898373213
 C          0.2161319537       -0.7304107958        0.8581358335
 C          2.8605552424        0.4451653388        1.9109229829
 O          4.8097148832        0.8678551684       -0.0364864037
 H          4.2667016762        0.5430088212       -2.5088673114
 H          2.5101102213        0.3866098526       -2.3455245668
 H          3.3274704604        1.8728727349       -1.8417846891
 H          4.6496541450       -1.6169889957        0.0769637802
 H          3.9266833293       -1.6638800716       -1.5207863450
 H          2.6324516132       -2.2673079482        1.1144178582
 H          2.1314891248       -2.7637169604       -0.5007341528
 H          1.2317122568       -0.6014380931       -0.9993233958
 H          2.1520088274        2.6403257565        0.1851668039
 H         -0.2542460349        2.6440338710        0.1724467641
 H         -2.2381206965        2.5568828545       -0.0103241862
 H         -2.7319187649        1.7133569857       -1.4806851606
 H         -4.7131960902        2.3028782852       -0.0974567618
 H         -4.0242880903        1.4273215912        1.2733090814
 H         -4.2495692235       -1.8919380155       -0.7089391469
 H         -0.9840216188       -1.9219057277       -1.3279502952
 H         -2.1271313181       -2.9430996836       -0.4438540978
 H         -1.2038384696       -2.1089931072        1.7009360005
 H          0.0596060896       -2.8799949906        0.7445134513
 H          0.4665480407       -0.5669050139        1.9112503105
 H          3.4096839811       -0.4602118409        2.1570238058
 H          3.5000516693        1.3087194133        2.0855527193
 H          2.0151241786        0.5318303877        2.5882369406
 H          5.0770271220        0.4865605368        0.8064449895
  45
  -61.063009719999997        2.7258308183069425E-005 !
 C          3.4072943487        0.7908270454       -1.8904103028
 C          3.6331507847        0.2329781696       -0.4843682917
 C          3.7719111823       -1.3191204694       -0.4996003482
 C          2.4817264154       -1.9198137844        0.0914591571
 C          1.5148604587       -0.7417482256        0.0500804075
 C          2.3955291477        0.4565061499        0.4414697162
 C          1.6049260903        1.7129287242        0.2683144950
 C          0.2682486532        1.7068902912        0.2924497001
 C         -0.5290785243        0.4961384045        0.3699904896
 C         -1.8220720326        0.4373115539       -0.0347559160
 C         -2.6673957579        1.6310362369       -0.3908233197
 C         -4.0742590827        1.4632732240        0.1796337055
 C         -4.7228427108        0.1711454171       -0.2769024162
 O         -5.9216723252        0.0734526221       -0.4494325380
 C         -3.8036040120       -0.9428203491       -0.4462008423
 C         -2.4705255903       -0.8357739311       -0.2680050124
 C         -1.5564584586       -2.0148726948       -0.4004503712
 C         -0.6071323529       -2.0186622748        0.7903705672
 C          0.2161408917       -0.7303408649        0.8585348305
 C          2.8609019539        0.4447592406        1.9109132271
 O          4.8095137396        0.8679111847       -0.0370717528
 H          3.3262215649        1.8728093184       -1.8418949158
 H          4.2661505090        0.5434409062       -2.5090594537
 H          2.5096284124        0.3860723374       -2.3456306786
 H          4.6493887110       -1.6169441505        0.0768417716
 H          3.9267087711       -1.6638781561       -1.5209836267
 H          2.6322729647       -2.2677495617        1.1138863297
 H          2.1311413332       -2.7634718093       -0.5013923497
 H          1.2313339155       -0.6010792723       -0.9990834085
 H          2.1520838980        2.6404147972        0.1861645360
 H         -0.2542077677        2.6441906075        0.1733233907
 H         -2.2379376534        2.5569300336       -0.0106586340
 H         -2.7313221391        1.7131153633       -1.4810425236
 H         -4.7130426539        2.3029106969       -0.0985265453
 H         -4.0245711271        1.4278448632        1.2727375315
 H         -4.2492480193       -1.8919749297       -0.7091646841
 H         -0.9836394820       -1.9220355383       -1.3275032506
 H         -2.1269611625       -2.9431311668       -0.4435437334
 H         -1.2040727696       -2.1086440841        1.7013885005
 H          0.0595175632       -2.8799173935        0.7453118955
 H          0.4667709384       -0.5668364580        1.9115887952
 H          2.0156748540        0.5313488301        2.5885118725
 H          3.4100361006       -0.4607434739        2.1565658555
 H          3.5005412104        1.3082045107        2.0855459726
 H          5.0770893162        0.4866607487        0.8057999628
  45
  -61.063009530000002        2.7252828259927480E-005 !
 C          3.4057111607        0.7918860638       -1.8907276251
 C          3.6325597403        0.2330999856       -0.4852152646
 C          3.7710183586       -1.3190295084       -0.5014387925
 C          2.4815291243       -1.9198396765        0.0910374852
 C          1.5146563836       -0.7417874457        0.0505595285
 C          2.3956438141        0.4563265405        0.4416760463
 C          1.6049602404        1.7128330333        0.2695089141
 C          0.2683099474        1.7068524533        0.2941425036
 C         -0.5289762696        0.4960483621        0.3713625702
 C         -1.8219162645        0.4372066242       -0.0336233498
 C         -2.6669854490        1.6310469878       -0.3899560765
 C         -4.0744022660        1.4631750977        0.1790622875
 C         -4.7225900563        0.1713354501       -0.2787662649
 O         -5.9212545166        0.0737626334       -0.4527070254
 C         -3.8032714675       -0.9428051811       -0.4464769400
 C         -2.4703232363       -0.8358550156       -0.2670830284
 C         -1.5562938195       -2.0150825604       -0.3988821309
 C         -0.6069818189       -2.0186492352        0.7919443178
 C          0.2163997809       -0.7303908810        0.8597450006
 C          2.8620961047        0.4441740420        1.9107579422
 O          4.8093390895        0.8676521568       -0.0384656695
 H          2.5069774389        0.3884271485       -2.3449882237
 H          3.3259590592        1.8739504715       -1.8415243201
 H          4.2634855626        0.5438123970       -2.5106130329
 H          4.6492612131       -1.6172772407        0.0736291570
 H          3.9243273249       -1.6632506028       -1.5232446626
 H          2.6331114646       -2.2676847319        1.1133467365
 H          2.1303435864       -2.7635345005       -0.5014060377
 H          1.2304979823       -0.6009803098       -0.9984214650
 H          2.1521095632        2.6403132498        0.1873157232
 H         -0.2541504562        2.6442052616        0.1755355714
 H         -2.2378803475        2.5567531825       -0.0089435383
 H         -2.7298654536        1.7136412914       -1.4802033854
 H         -4.7129131492        2.3029203291       -0.0993790814
 H         -4.0257467395        1.4272926150        1.2721928567
 H         -4.2487412600       -1.8919906584       -0.7096133167
 H         -0.9834410381       -1.9227931526       -1.3259811559
 H         -2.1269268637       -2.9432682296       -0.4415885277
 H         -1.2039150617       -2.1083201858        1.7029980037
 H          0.0596026524       -2.8799724819        0.7471224953
 H          0.4675912770       -0.5668322250        1.9126664627
 H          3.4114405286       -0.4613829628        2.1557710007
 H          3.5018037149        1.3076297379        2.0851687821
 H          2.0172868749        0.5304739789        2.5889196456
 H          5.0775935598        0.4857479669        0.8038916488
  45
  -61.063009360000002        2.7247926104489207E-005 !
 C          3.4042770084        0.7922710492       -1.8909156254
 C          3.6320109443        0.2332769508       -0.4856553477
 C          3.7704139793       -1.3188446408       -0.5023034496
 C          2.4811944542       -1.9198639848        0.0905540668
 C          1.5143862640       -0.7417087776        0.0508896503
 C          2.3956428162        0.4562214331        0.4419838098
 C          1.6049794744        1.7128379155        0.2705291705
 C          0.2683363095        1.7069127972        0.2954499116
 C         -0.5289393703        0.4960734686        0.3722264615
 C         -1.8216627251        0.4371847048       -0.0333039866
 C         -2.6665419912        1.6309608668       -0.3903432469
 C         -4.0741912468        1.4633678698        0.1781544524
 C         -4.7222410950        0.1712984313       -0.2792155310
 O         -5.9207527826        0.0737992255       -0.4539230818
 C         -3.8028623273       -0.9427884934       -0.4468052531
 C         -2.4699992430       -0.8358923290       -0.2669570810
 C         -1.5560758282       -2.0152680331       -0.3981131308
 C         -0.6070814496       -2.0185987248        0.7929834259
 C          0.2163929025       -0.7303994108        0.8605236626
 C          2.8629353493        0.4434563710        1.9108281391
 O          4.8090826266        0.8676557513       -0.0394646932
 H          3.3231977480        1.8741751754       -1.8413816310
 H          4.2622958929        0.5454263415       -2.5109112041
 H          2.5060285077        0.3878987963       -2.3452453653
 H          4.6488922956       -1.6172931798        0.0722685799
 H          3.9232205596       -1.6628104636       -1.5242440767
 H          2.6332577208       -2.2680781907        1.1126759558
 H          2.1296617473       -2.7633260713       -0.5020484191
 H          1.2298014440       -0.6004647833       -0.9979232031
 H          2.1521863249        2.6403670918        0.1891484760
 H         -0.2541245031        2.6444415623        0.1781298419
 H         -2.2375236622        2.5568074402       -0.0096143263
 H         -2.7290780325        1.7131721680       -1.4806198167
 H         -4.7125076017        2.3030646432       -0.1008624931
 H         -4.0259600786        1.4279665253        1.2712949010
 H         -4.2482599951       -1.8919496246       -0.7100608752
 H         -0.9829751090       -1.9232164775       -1.3250621870
 H         -2.1267503452       -2.9434359349       -0.4408108867
 H         -1.2042186625       -2.1078873965        1.7039498833
 H          0.0594024081       -2.8800272599        0.7486278033
 H          0.4678752215       -0.5668372196        1.9133640617
 H          3.5026876482        1.3068736358        2.0852875708
 H          2.0185985376        0.5293692987        2.5896301154
 H          3.4125225718       -0.4621444185        2.1551048804
 H          5.0777106541        0.4857188696        0.8027606565
  45
  -61.063009030000003        2.7238412672784910E-005 !
 C          3.4259104156        0.7827022556       -1.8864540197
 C          3.6405072795        0.2320639178       -0.4758258947
 C          3.7814943042       -1.3197743070       -0.4826779327
 C          2.4858303604       -1.9195370680        0.0971734994
 C          1.5181870922       -0.7424103492        0.0446975509
 C          2.3949347218        0.4579608814        0.4386122093
 C          1.6045621688        1.7128182006        0.2538814352
 C          0.2677455747        1.7057104021        0.2729161374
 C         -0.5296440164        0.4954857651        0.3548207271
 C         -1.8245510686        0.4375624375       -0.0441582361
 C         -2.6724139263        1.6310680283       -0.3946442592
 C         -4.0740529466        1.4632982568        0.1886523960
 C         -4.7267916143        0.1708940595       -0.2612885611
 O         -5.9273313316        0.0727729415       -0.4209437654
 C         -3.8089807991       -0.9426437474       -0.4410259010
 C         -2.4745125596       -0.8352587126       -0.2742687912
 C         -1.5600697239       -2.0130020326       -0.4152511462
 C         -0.6070749164       -2.0204566318        0.7727208455
 C          0.2146283625       -0.7309929112        0.8452408009
 C          2.8478731442        0.4524679753        1.9120260560
 O          4.8121614023        0.8708017409       -0.0215449481
 H          4.2915231590        0.5353502917       -2.4956362663
 H          2.5341065089        0.3725593042       -2.3482769383
 H          3.3406732999        1.8646024532       -1.8439077023
 H          4.6529600478       -1.6137757791        0.1047873752
 H          3.9480813724       -1.6689422998       -1.5007088006
 H          2.6268300978       -2.2652686098        1.1217322749
 H          2.1414347622       -2.7646509713       -0.4972376460
 H          1.2412104807       -0.6053207556       -1.0066759701
 H          2.1512626520        2.6402139607        0.1679865601
 H         -0.2548673799        2.6418625178        0.1457915994
 H         -2.2399126009        2.5574572747       -0.0191714222
 H         -2.7463120411        1.7117924186       -1.4843170390
 H         -4.7155339656        2.3027341899       -0.0838847991
 H         -4.0142113239        1.4283332626        1.2812760391
 H         -4.2567180210       -1.8915044296       -0.7014314185
 H         -0.9903087623       -1.9155657523       -1.3436779280
 H         -2.1296975585       -2.9416905354       -0.4602275857
 H         -1.2014296886       -2.1160806096        1.6848333302
 H          0.0608204063       -2.8803540590        0.7216161439
 H          0.4595703867       -0.5677724249        1.8997251791
 H          3.4864965664        1.3163575651        2.0882551927
 H          1.9969142312        0.5428029854        2.5819043215
 H          3.3942210143       -0.4522896081        2.1664840129
 H          5.0733080279        0.4935926505        0.8251557490
  45
  -61.063008840000002        2.7232936749168007E-005 !
 C          3.4017911171        0.7936256302       -1.8915129775
 C          3.6309749472        0.2333175400       -0.4869793138
 C          3.7688595045       -1.3188632973       -0.5050929820
 C          2.4804761602       -1.9198687235        0.0895338025
 C          1.5138598988       -0.7415469187        0.0516596294
 C          2.3957471549        0.4560472455        0.4423011842
 C          1.6050319511        1.7129088819        0.2726001074
 C          0.2684040700        1.7071351246        0.2982894116
 C         -0.5288733347        0.4962210238        0.3745574127
 C         -1.8213575179        0.4371692853       -0.0317430513
 C         -2.6659008945        1.6309958849       -0.3894248561
 C         -4.0744063230        1.4632926339        0.1769014447
 C         -4.7216663204        0.1712660456       -0.2816850489
 O         -5.9198790730        0.0738219147       -0.4585874954
 C         -3.8020305244       -0.9428440359       -0.4477132987
 C         -2.4694111128       -0.8359532799       -0.2659295100
 C         -1.5555143337       -2.0155318894       -0.3955690624
 C         -0.6070174035       -2.0182239163        0.7958994703
 C          0.2166797122       -0.7302113346        0.8626016612
 C          2.8648237567        0.4424411252        1.9105309578
 O          4.8087798310        0.8669147346       -0.0415842553
 H          3.3213415946        1.8755433703       -1.8409050483
 H          4.2589109019        0.5468948075       -2.5128337740
 H          2.5027237927        0.3901596391       -2.3450935326
 H          4.6482708031       -1.6180971677        0.0676084448
 H          3.9197353820       -1.6620320270       -1.5275767468
 H          2.6340963977       -2.2684371525        1.1112814169
 H          2.1279695501       -2.7630941915       -0.5027917684
 H          1.2282653960       -0.5997546088       -0.9967942257
 H          2.1522864874        2.6404203853        0.1913972766
 H         -0.2540272640        2.6447725304        0.1817916644
 H         -2.2374643633        2.5566938459       -0.0076661457
 H         -2.7266900337        1.7136457997       -1.4797734993
 H         -4.7123314912        2.3030163024       -0.1029679019
 H         -4.0279024650        1.4276130423        1.2701237683
 H         -4.2470674260       -1.8921259936       -0.7112688166
 H         -0.9819708777       -1.9243242862       -1.3223455167
 H         -2.1263297527       -2.9436374218       -0.4378327023
 H         -1.2045607333       -2.1064772751        1.7066864357
 H          0.0593123080       -2.8798330806        0.7525776458
 H          0.4691478035       -0.5665799605        1.9151883703
 H          3.4142498539       -0.4635265259        2.1537817190
 H          3.5051859073        1.3054774223        2.0845382279
 H          2.0213186240        0.5284621871        2.5903205448
 H          5.0784109348        0.4839522033        0.7998493567
