  45
        -61.06954893
 C          4.0243858006        0.7881567951       -1.5968981855
 C          3.8184037637        0.3098318929       -0.1560822370
 C          4.0433929791       -1.2172735907       -0.0344869361
 C          2.6624950715       -1.8906812198        0.0639446670
 C          1.6803803844       -0.7686959598       -0.2644916275
 C          2.3449199750        0.4852146893        0.3219203751
 C          1.5732824802        1.6637813900       -0.1698002691
 C          0.2513069263        1.5708508880       -0.3599792030
 C         -0.5224379595        0.3680187225       -0.1387743250
 C         -1.8817559023        0.3376251552       -0.2141303837
 C         -2.7339385102        1.5356827817       -0.5504829093
 C         -4.0082562770        1.5729448778        0.2872695857
 C         -4.7971820183        0.2893722957        0.1399623877
 O         -6.0121895849        0.2622330777        0.1443409642
 C         -3.9736960784       -0.9031011127        0.0551984236
 C         -2.6226810158       -0.8903273657       -0.0275497120
 C         -1.8781020424       -2.1921931466        0.0682702880
 C         -0.4678203622       -2.0822686621       -0.4873107535
 C          0.2337414045       -0.9056417222        0.1879170159
 C          2.3194118505        0.5276628516        1.8593919827
 O          4.7587235631        0.9491774260        0.6833414368
 H          3.8254510976        1.8551656816       -1.6836158586
 H          5.0587111388        0.6087502009       -1.8839728329
 H          3.3748939631        0.2601978005       -2.2878807299
 H          4.6456718054       -1.3984054445        0.8542965061
 H          4.6033668135       -1.5819018211       -0.8938692861
 H          2.4816935970       -2.2743057345        1.0681776362
 H          2.5758937117       -2.7233592289       -0.6325120340
 H          1.6590885707       -0.6424853563       -1.3533034584
 H          2.0790241923        2.6077958207       -0.3143373257
 H         -0.2782107228        2.4487961539       -0.6968912385
 H         -2.1941773728        2.4686773205       -0.4005057634
 H         -3.0102627127        1.4737552507       -1.6090648857
 H         -4.6350564913        2.4211308345        0.0083048002
 H         -3.7516906670        1.6772198292        1.3461832603
 H         -4.5024770865       -1.8447474930        0.1120274328
 H         -2.4405039141       -2.9737234418       -0.4460918555
 H         -1.8246674275       -2.4743507943        1.1256862459
 H          0.0813355161       -3.0062255177       -0.3030101533
 H         -0.5035454031       -1.9142710021       -1.5662555979
 H          0.2051578289       -1.0734252873        1.2713430594
 H          2.8709227375        1.3981224303        2.2072814251
 H          1.2994444199        0.6071922413        2.2252019751
 H          2.7898537751       -0.3542163213        2.2812322018
 H          4.7021165811        1.9004168388        0.5415802076
  45
        -61.06935448
 C          4.0232190467        0.7811305636       -1.5959967456
 C          3.8134413803        0.3074655089       -0.1539396130
 C          4.0436147093       -1.2273217471       -0.0374432568
 C          2.6613657915       -1.9021537276        0.0456659796
 C          1.6799541068       -0.7764785523       -0.2732863612
 C          2.3463735686        0.4729220281        0.3201948689
 C          1.5821485167        1.6561067226       -0.1693583351
 C          0.2596821979        1.5679251695       -0.3577986847
 C         -0.5177265753        0.3666937403       -0.1383743621
 C         -1.8774387607        0.3395432675       -0.2113766023
 C         -2.7262647139        1.5404136076       -0.5470291318
 C         -4.0012570674        1.5807848428        0.2894146991
 C         -4.7934419990        0.2993519292        0.1412173896
 O         -6.0087674714        0.2754765626        0.1446206256
 C         -3.9732171640       -0.8950252596        0.0581755993
 C         -2.6219208208       -0.8855788767       -0.0235544955
 C         -1.8810944219       -2.1893439589        0.0758787567
 C         -0.4724690919       -2.0853358573       -0.4848001807
 C          0.2353710594       -0.9098266032        0.1857334609
 C          2.3158077927        0.5131067062        1.8573235261
 O          4.6767213005        1.0348920456        0.6990872627
 H          3.8878089609        1.8581915954       -1.6583671390
 H          5.0379204695        0.5449225617       -1.9166992556
 H          3.3288164873        0.3017481524       -2.2785743614
 H          4.6312760136       -1.4271295168        0.8589608013
 H          4.6082727623       -1.5925364475       -0.8953732948
 H          2.4772157682       -2.2972683944        1.0448421951
 H          2.5774494693       -2.7271574521       -0.6605689050
 H          1.6538577112       -0.6455033927       -1.3614146702
 H          2.1004525486        2.5922420347       -0.3072267724
 H         -0.2679925935        2.4483425650       -0.6908161563
 H         -2.1835465891        2.4713208216       -0.3953475664
 H         -3.0016256463        1.4806050458       -1.6060170421
 H         -4.6255576322        2.4307355273        0.0101667068
 H         -3.7451838547        1.6841227362        1.3485527591
 H         -4.5042876773       -1.8353597560        0.1161718012
 H         -2.4473097426       -2.9716564245       -0.4331201034
 H         -1.8247928673       -2.4667315783        1.1344011646
 H          0.0741498116       -3.0110817510       -0.3010755164
 H         -0.5117086975       -1.9190913123       -1.5639179250
 H          0.2123119164       -1.0753128116        1.2695587669
 H          2.7389279786       -0.3911847260        2.2821631408
 H          2.9120556363        1.3562877425        2.1939579258
 H          1.2989483918        0.6427586230        2.2173965079
 H          5.5708827184        0.9749626350        0.3466005036
  45
        -61.06919532
 C          3.6650324074        1.0515161711       -1.7357066041
 C          3.7455758430        0.3419397742       -0.3804024644
 C          3.9453200690       -1.1853463220       -0.5492647282
 C          2.6032814036       -1.8752833962       -0.2411095369
 C          1.6079008754       -0.7194738841       -0.2166556268
 C          2.4044834980        0.4324201019        0.4111854469
 C          1.5852335562        1.6736075055        0.2941904550
 C          0.2481730250        1.6158191688        0.2540592472
 C         -0.5249717379        0.3903735202        0.2731070384
 C         -1.8792673714        0.3742307565        0.1338654950
 C         -2.7025366699        1.6247339070       -0.0579022078
 C         -3.9425768129        1.3794583316       -0.9119725418
 C         -4.7727568211        0.2391707654       -0.3628558004
 O         -5.9874865760        0.2499678543       -0.3608374379
 C         -3.9781275492       -0.8901949009        0.0860765499
 C         -2.6357614026       -0.8535574898        0.2456903360
 C         -1.8922203442       -2.1097894110        0.5905101662
 C         -0.5223950371       -2.0914440216       -0.0732000292
 C          0.2558171485       -0.8954884004        0.4627999986
 C          2.7026273145        0.2380161553        1.9087408488
 O          4.8557943532        0.8412727387        0.3372142896
 H          2.8806633684        0.6338447295       -2.3588414065
 H          3.4687447391        2.1144310153       -1.6024532487
 H          4.6168143943        0.9391203318       -2.2514314669
 H          4.7295212074       -1.5003740191        0.1371343685
 H          4.2807768854       -1.4071410873       -1.5609248819
 H          2.6304584466       -2.3808979356        0.7239775950
 H          2.3509764195       -2.6146843614       -0.9996247410
 H          1.3984506627       -0.4394455420       -1.2558607660
 H          2.0854581213        2.6317633599        0.3254496606
 H         -0.2987799597        2.5457723578        0.2252037690
 H         -3.0188786161        1.9824181433        0.9286085804
 H         -2.1168521539        2.4138711254       -0.5274035283
 H         -3.6420302959        1.1000214753       -1.9265804821
 H         -4.5534641960        2.2809904999       -0.9769500042
 H         -4.5194049501       -1.8086757389        0.2670295679
 H         -2.4689669164       -2.9819709559        0.2792780107
 H         -1.7644361496       -2.1651404384        1.6766336716
 H          0.0163071201       -3.0157363158        0.1390977358
 H         -0.6392071353       -2.0040549337       -1.1558772477
 H          0.4070572522       -1.0535800012        1.5375834632
 H          3.2279366560       -0.6945614744        2.0846980162
 H          3.3382007818        1.0486132323        2.2576406306
 H          1.7868385699        0.2563358849        2.4934329437
 H          4.8062831256        1.8032893059        0.3522882369
  45
        -61.06909611
 C          4.0240618191        0.8021688350       -1.5764479078
 C          3.8189754611        0.3058014443       -0.1443872328
 C          4.0396470461       -1.2319301062       -0.0482715689
 C          2.6588727901       -1.9000284676        0.0823973383
 C          1.6805427332       -0.7778224893       -0.2535879684
 C          2.3439032565        0.4755857410        0.3347098703
 C          1.5797350178        1.6559926979       -0.1654128071
 C          0.2592384476        1.5657205251       -0.3645794354
 C         -0.5198434922        0.3655496373       -0.1455590545
 C         -1.8787858668        0.3381474833       -0.2257570906
 C         -2.7280706212        1.5379307234       -0.5623801793
 C         -3.9973010537        1.5816294618        0.2828513559
 C         -4.7916060371        0.3002554761        0.1450702552
 O         -6.0065790646        0.2767859685        0.1655237937
 C         -3.9739001188       -0.8954108249        0.0491937620
 C         -2.6234612229       -0.8878596949       -0.0421782198
 C         -1.8841023428       -2.1938922734        0.0407051102
 C         -0.4700149966       -2.0824744600       -0.5049443341
 C          0.2292792569       -0.9121727932        0.1840218738
 C          2.2975804745        0.5289680996        1.8725255468
 O          4.7563011706        1.0284469016        0.6219489883
 H          5.0406316544        0.5723030293       -1.8852189827
 H          3.3266475456        0.3367127349       -2.2647981853
 H          3.8992568734        1.8802262733       -1.6121450618
 H          4.6723082299       -1.4593227659        0.8115427263
 H          4.5638333044       -1.5862325292       -0.9344561847
 H          2.4891692000       -2.2642722286        1.0965601376
 H          2.5596747277       -2.7460397601       -0.5958209309
 H          1.6708862741       -0.6538593688       -1.3424215683
 H          2.1000012958        2.5906200236       -0.3067935338
 H         -0.2658027889        2.4435204386       -0.7082709804
 H         -2.1840322787        2.4694267212       -0.4193196362
 H         -3.0106846087        1.4724989942       -1.6190209570
 H         -4.6233620494        2.4306734396        0.0049448274
 H         -3.7342285920        1.6889808654        1.3399130516
 H         -4.5063802277       -1.8350381157        0.1054897419
 H         -2.4463098606       -2.9659590961       -0.4879817713
 H         -1.8387710118       -2.4912389706        1.0943491129
 H          0.0754542192       -3.0094990845       -0.3244261802
 H         -0.4980506325       -1.9056376987       -1.5825921359
 H          0.1868225605       -1.0869999495        1.2661751792
 H          1.2689743269        0.5785167913        2.2189195305
 H          2.7762928637       -0.3384726876        2.3208808579
 H          2.7999632236        1.4317490000        2.2159984307
 H          4.7522401678        0.6955647131        1.5256101309
  45
        -61.06899640
 C          3.6772207670        1.0363932110       -1.7361638440
 C          3.7452969217        0.3369651700       -0.3746840754
 C          3.9494003766       -1.1977839427       -0.5442613708
 C          2.6009669802       -1.8853936475       -0.2550698743
 C          1.6080196508       -0.7270856878       -0.2308284740
 C          2.4048932472        0.4220721770        0.4014134787
 C          1.5943873528        1.6673207635        0.2753816994
 C          0.2571612867        1.6135635891        0.2393150855
 C         -0.5199357101        0.3903749772        0.2656382972
 C         -1.8753706439        0.3769392333        0.1353755589
 C         -2.6979079165        1.6293173509       -0.0478833234
 C         -3.9416289689        1.3889235341       -0.8978906333
 C         -4.7715980280        0.2476506757       -0.3503222191
 O         -5.9866099238        0.2586636209       -0.3485134416
 C         -3.9776238604       -0.8825970626        0.0960893036
 C         -2.6343160131       -0.8486682674        0.2501929935
 C         -1.8926567333       -2.1072457109        0.5907241035
 C         -0.5265592812       -2.0921886358       -0.0804891857
 C          0.2574641847       -0.8984053367        0.4520971679
 C          2.6870149943        0.2328315921        1.9025880372
 O          4.7814802530        0.9228580119        0.3901869126
 H          2.8527882594        0.6647403631       -2.3362039973
 H          3.5519468897        2.1075462558       -1.5964930515
 H          4.6040854320        0.8673556919       -2.2844293553
 H          4.7171066338       -1.5305389096        0.1547469839
 H          4.2947290182       -1.4236430676       -1.5532382582
 H          2.6185191964       -2.3976659202        0.7067627829
 H          2.3531511391       -2.6193440525       -1.0206878556
 H          1.3980564303       -0.4469817356       -1.2698809549
 H          2.1084494738        2.6162722634        0.2983812827
 H         -0.2871210930        2.5448097997        0.2058061900
 H         -3.0097240267        1.9830336615        0.9414617697
 H         -2.1132013069        2.4198783365       -0.5159885948
 H         -3.6455345102        1.1130286515       -1.9148183706
 H         -4.5516152524        2.2914795847       -0.9571822174
 H         -4.5198479123       -1.8002406095        0.2786569847
 H         -2.4735599801       -2.9777734612        0.2823957818
 H         -1.7588906489       -2.1630688929        1.6760849984
 H          0.0108234608       -3.0182255889        0.1282063179
 H         -0.6492264073       -2.0039041541       -1.1625064633
 H          0.4130563054       -1.0557795556        1.5262878002
 H          3.1548609501       -0.7262734091        2.0978520858
 H          3.3693500442        1.0136784318        2.2256461985
 H          1.7715467095        0.3154841130        2.4822714033
 H          5.5842847828        0.9268051533       -0.1416497158
  45
        -61.06866455
 C          3.6584549000        1.0687858149       -1.7189434317
 C          3.7453095115        0.3378146262       -0.3783682476
 C          3.9327710808       -1.1952331943       -0.5801689105
 C          2.6009278491       -1.8861267775       -0.2326106502
 C          1.6077289882       -0.7292689456       -0.2054911902
 C          2.4074644870        0.4202910482        0.4220301397
 C          1.5926343291        1.6647004886        0.3030523262
 C          0.2558339672        1.6105233128        0.2604218655
 C         -0.5223488710        0.3878077093        0.2785719550
 C         -1.8763486329        0.3756969500        0.1361526954
 C         -2.6954745675        1.6291604664       -0.0536587137
 C         -3.9327675784        1.3909812950       -0.9136803150
 C         -4.7684715253        0.2508871990       -0.3730229702
 O         -5.9831878624        0.2640873026       -0.3772653434
 C         -3.9789564049       -0.8822006488        0.0758862214
 C         -2.6372456148       -0.8499045580        0.2413753142
 C         -1.8993762465       -2.1100628291        0.5846103609
 C         -0.5271745763       -2.0940008509       -0.0740796103
 C          0.2528479641       -0.9021344018        0.4687409790
 C          2.6950762123        0.2332340751        1.9237853644
 O          4.8444485417        0.9275166806        0.2785631191
 H          4.5846863300        0.9117263291       -2.2657326661
 H          2.8253146860        0.7134252090       -2.3159905403
 H          3.5463009152        2.1349969323       -1.5457029370
 H          4.7441751532       -1.5541895106        0.0553233812
 H          4.2185945704       -1.3984156400       -1.6110923672
 H          2.6488008943       -2.3775047756        0.7398987195
 H          2.3347254999       -2.6383150988       -0.9734175768
 H          1.4027095641       -0.4485503887       -1.2450382426
 H          2.1062850923        2.6139908236        0.3295874851
 H         -0.2878072827        2.5420259845        0.2269318212
 H         -3.0147216896        1.9833809989        0.9331553414
 H         -2.1057601352        2.4186385676       -0.5172198160
 H         -3.6288625100        1.1151374252       -1.9282549280
 H         -4.5407212995        2.2945503722       -0.9773430988
 H         -4.5236166771       -1.7998613740        0.2509030200
 H         -2.4777500261       -2.9791643516        0.2678092724
 H         -1.7760982906       -2.1700281578        1.6710803272
 H          0.0074170901       -3.0210988205        0.1372637791
 H         -0.6396483521       -2.0025795574       -1.1567940429
 H          0.3966034250       -1.0649254852        1.5440950995
 H          1.7697935495        0.2286249629        2.4936270206
 H          3.2310973611       -0.6919772706        2.1210850817
 H          3.2892333272        1.0729846515        2.2801355979
 H          5.0267675103        0.4436659749        1.0909959410
  45
        -61.06362924
 C          3.4149728313        0.7689693720       -1.9061544858
 C          3.6350492828        0.2364051452       -0.4866268263
 C          3.7900851724       -1.3059527054       -0.4692639571
 C          2.4848195266       -1.9098565410        0.0842523888
 C          1.5154723125       -0.7333443293        0.0378096310
 C          2.3925159509        0.4680333317        0.4284370918
 C          1.5973198548        1.7211761549        0.2555887013
 C          0.2604377451        1.7115011742        0.2837137039
 C         -0.5319818465        0.4980796303        0.3639614818
 C         -1.8263561039        0.4353863151       -0.0358745082
 C         -2.6767996024        1.6258075268       -0.3909678066
 C         -4.0801786851        1.4553293416        0.1871405673
 C         -4.7272247139        0.1608943852       -0.2651945618
 O         -5.9262531141        0.0605357718       -0.4344642688
 C         -3.8058240323       -0.9511699762       -0.4349748714
 C         -2.4721976287       -0.8402385681       -0.2630645023
 C         -1.5553574667       -2.0169897093       -0.3960830001
 C         -0.6001116251       -2.0150222363        0.7901690580
 C          0.2195494522       -0.7242422123        0.8513267510
 C          2.8658676731        0.4514341924        1.8940124200
 O          4.8271740740        0.7902375077        0.0319257022
 H          3.2417384911        1.8441370688       -1.8888014721
 H          4.3051978341        0.5717922476       -2.5004461463
 H          2.5652219439        0.2942088125       -2.3862638036
 H          4.6469519148       -1.5515994769        0.1558081423
 H          3.9970680728       -1.6697300858       -1.4743848982
 H          2.6131581164       -2.2698992347        1.1047035809
 H          2.1465396964       -2.7450318919       -0.5276855178
 H          1.2281284606       -0.5945823247       -1.0109039311
 H          2.1316949150        2.6583858093        0.1787207219
 H         -0.2653647099        2.6477543923        0.1693785376
 H         -2.2484590065        2.5541922810       -0.0154968560
 H         -2.7468094220        1.7048093671       -1.4810988139
 H         -4.7226578885        2.2929892153       -0.0885493036
 H         -4.0243514132        1.4210239548        1.2799501132
 H         -4.2501015998       -1.9022780034       -0.6930764798
 H         -0.9870035673       -1.9252399851       -1.3260135529
 H         -2.1235195396       -2.9468767979       -0.4341490715
 H         -1.1921185380       -2.1051137898        1.7043481538
 H          0.0693903927       -2.8737839082        0.7432164614
 H          0.4771971318       -0.5570371833        1.9019250449
 H          2.0313743658        0.5663073578        2.5806252678
 H          3.3996885975       -0.4640291855        2.1243243071
 H          3.5471886797        1.2829764949        2.0584766324
 H          4.7968417577        1.7467418188       -0.0791457132
  45
        -61.06339594
 C          3.4293940797        0.7561302813       -1.9058423055
 C          3.6374799095        0.2329715445       -0.4808909035
 C          3.7961229186       -1.3171318823       -0.4657206755
 C          2.4826190328       -1.9214427639        0.0697267992
 C          1.5157393548       -0.7424998899        0.0238326829
 C          2.3933843839        0.4569194699        0.4190133910
 C          1.6061552130        1.7127997883        0.2354264321
 C          0.2694646657        1.7070388398        0.2687261312
 C         -0.5266425544        0.4963059834        0.3575561914
 C         -1.8245248567        0.4370210028       -0.0326231452
 C         -2.6737303640        1.6311954084       -0.3790784258
 C         -4.0758636002        1.4614365479        0.2021456053
 C         -4.7272994414        0.1706824804       -0.2542555618
 O         -5.9270162852        0.0745474300       -0.4230933151
 C         -3.8094337499       -0.9430069071       -0.4285891680
 C         -2.4749391297       -0.8358058545       -0.2588421073
 C         -1.5625951412       -2.0156744368       -0.3967423859
 C         -0.6012910286       -2.0170695431        0.7844753156
 C          0.2229527382       -0.7288754540        0.8415599383
 C          2.8491255195        0.4472433701        1.8902395266
 O          4.7633531854        0.8796404234        0.0815845324
 H          2.5384708097        0.3371084806       -2.3625751352
 H          3.3351777743        1.8395131133       -1.8903231999
 H          4.2876316788        0.4934893042       -2.5245278205
 H          4.6382063895       -1.5791331680        0.1752354968
 H          4.0123267491       -1.6836190852       -1.4694460095
 H          2.6016083452       -2.2892428237        1.0885816274
 H          2.1474180123       -2.7518646386       -0.5507550007
 H          1.2268585993       -0.6034534891       -1.0244085980
 H          2.1534088366        2.6394043887        0.1476473000
 H         -0.2544612291        2.6435074365        0.1487155604
 H         -2.2417622319        2.5561071908        0.0006509721
 H         -2.7466360488        1.7165589289       -1.4685774922
 H         -4.7169924354        2.3020138163       -0.0677814250
 H         -4.0170546743        1.4218169575        1.2946106781
 H         -4.2565003674       -1.8924219271       -0.6882592272
 H         -0.9988595320       -1.9255263618       -1.3296809951
 H         -2.1340578337       -2.9437213424       -0.4321681018
 H         -1.1889411491       -2.1052593412        1.7016163245
 H          0.0648781176       -2.8783774807        0.7340656818
 H          0.4871693549       -0.5619774985        1.8904770510
 H          2.0170599240        0.6445833124        2.5609713221
 H          3.3107398510       -0.4973511718        2.1567005826
 H          3.5868438179        1.2330760679        2.0237590555
 H          5.4990957161        0.7948739352       -0.5339308532
  45
        -61.06300986
 C          3.4079648866        0.7908551806       -1.8902487929
 C          3.6334467807        0.2329762442       -0.4841457049
 C          3.7720913874       -1.3191350495       -0.4993528665
 C          2.4819549044       -1.9197997130        0.0918300233
 C          1.5150109084       -0.7418335368        0.0499458827
 C          2.3955558383        0.4565288400        0.4413446022
 C          1.6049057308        1.7128515206        0.2676112495
 C          0.2682320777        1.7067595188        0.2916437722
 C         -0.5290719989        0.4960405010        0.3694842464
 C         -1.8222057931        0.4372844685       -0.0348653789
 C         -2.6676443202        1.6310531764       -0.3905218143
 C         -4.0743498528        1.4631399198        0.1802454839
 C         -4.7230328806        0.1711781497       -0.2765439030
 O         -5.9218243963        0.0736083663       -0.4491577292
 C         -3.8038608447       -0.9428016960       -0.4460113308
 C         -2.4707399054       -0.8357694963       -0.2680388068
 C         -1.5566512493       -2.0148297451       -0.4007904481
 C         -0.6070733469       -2.0187843947        0.7898373213
 C          0.2161319537       -0.7304107958        0.8581358335
 C          2.8605552424        0.4451653388        1.9109229829
 O          4.8097148832        0.8678551684       -0.0364864037
 H          4.2667016762        0.5430088212       -2.5088673114
 H          2.5101102213        0.3866098526       -2.3455245668
 H          3.3274704604        1.8728727349       -1.8417846891
 H          4.6496541450       -1.6169889957        0.0769637802
 H          3.9266833293       -1.6638800716       -1.5207863450
 H          2.6324516132       -2.2673079482        1.1144178582
 H          2.1314891248       -2.7637169604       -0.5007341528
 H          1.2317122568       -0.6014380931       -0.9993233958
 H          2.1520088274        2.6403257565        0.1851668039
 H         -0.2542460349        2.6440338710        0.1724467641
 H         -2.2381206965        2.5568828545       -0.0103241862
 H         -2.7319187649        1.7133569857       -1.4806851606
 H         -4.7131960902        2.3028782852       -0.0974567618
 H         -4.0242880903        1.4273215912        1.2733090814
 H         -4.2495692235       -1.8919380155       -0.7089391469
 H         -0.9840216188       -1.9219057277       -1.3279502952
 H         -2.1271313181       -2.9430996836       -0.4438540978
 H         -1.2038384696       -2.1089931072        1.7009360005
 H          0.0596060896       -2.8799949906        0.7445134513
 H          0.4665480407       -0.5669050139        1.9112503105
 H          3.4096839811       -0.4602118409        2.1570238058
 H          3.5000516693        1.3087194133        2.0855527193
 H          2.0151241786        0.5318303877        2.5882369406
 H          5.0770271220        0.4865605368        0.8064449895
