45
R1881
C   2.08518518  3.79638205  0.17847138
C   2.91116800  2.51090529  0.06669634
C   3.13233642  2.09260078 -1.41082851
C   2.24249656  0.86774302 -1.69928479
C   1.27425106  0.87584457 -0.52242369
C   2.16464160  1.27878331  0.66635796
C   1.30832588  1.46857239  1.87721850
C   0.09710551  0.91136481  1.98016170
C  -0.53902112  0.19236503  0.88882436
C  -1.88609829  0.08025216  0.76925966
C  -2.82253469  0.42679341  1.90474951
C  -4.28361614  0.55760790  1.48644851
C  -4.71533689 -0.56477541  0.56299938
O  -5.77313658 -1.14722714  0.67961871
C  -3.77438732 -0.77877709 -0.52542849
C  -2.47738967 -0.41278066 -0.45312760
C  -1.58617327 -0.44998871 -1.65802778
C  -0.24952670 -1.08091356 -1.29842436
C   0.42811683 -0.34189731 -0.14540724
C   3.22160790  0.22531378  1.04889902
O   4.18393373  2.73173638  0.63960461
H   1.89184933  4.03500739  1.22348320
H   2.64385204  4.61753394 -0.26664202
H   1.13197140  3.70723466 -0.33295977
H   4.18897252  1.86691503 -1.54420617
H   2.88342198  2.92176758 -2.07116870
H   2.82430247 -0.05317080 -1.72190913
H   1.72986846  0.96726138 -2.65502784
H   0.57443450  1.70199026 -0.69413308
H   1.73021438  2.00751126  2.71500404
H  -0.46621067  1.04558630  2.89161182
H  -2.74123059 -0.36718257  2.65550760
H  -2.51533961  1.36089386  2.37709250
H  -4.42732759  1.48916890  0.93024425
H  -4.93216320  0.58398498  2.36305804
H  -4.17126483 -1.22247957 -1.42741152
H  -1.42524109  0.57914868 -1.99400052
H  -2.06478210 -0.99803373 -2.47033418
H  -0.43024416 -2.11542718 -0.99622128
H   0.41112245 -1.09839751 -2.16547177
H   1.07746950 -1.06554649  0.35687058
H   3.82174928  0.60516082  1.87238528
H   2.75945143 -0.70174753  1.37704149
H   3.89043538  0.02094511  0.22012032
H   4.06612872  3.09780219  1.52295165