  53
        -68.44839093
 C         -5.3560161644        2.4974088284       -1.7009095277
 C         -5.2670995272        0.9772821570       -1.6441668715
 C         -4.5218462437        0.4986830426       -0.4009383486
 C         -4.4276490055       -1.0230616225       -0.3399573074
 C         -3.6798857278       -1.5096217710        0.9080452002
 C         -2.2453131098       -1.0665691833        0.8924442107
 C         -1.8158157010        0.0003531389        1.6676920555
 C         -0.5012541794        0.4409094282        1.6110109431
 O         -0.0918230034        1.4688396827        2.4151849393
 C          0.4240616657       -0.1621277993        0.7552328347
 C          0.0035401631       -1.2867244808        0.0411563881
 C         -1.3210142542       -1.7144360303        0.0951865088
 O          0.8257787642       -2.0408336553       -0.7350286753
 C          2.2389616923       -1.8688375617       -0.5784346959
 C          2.6952685659       -2.5777429244        0.7006354998
 C          2.8499344141       -2.5600245662       -1.7993122245
 C          2.5223664770       -0.3606116622       -0.5727125496
 C          3.9876075320        0.0612491257       -0.5910259668
 C          4.0621303383        1.5532688405       -0.9168079507
 C          2.9990672268        2.3581902097       -0.2176731443
 C          3.1382386448        3.8445663249       -0.3621867079
 C          1.9996331189        1.8052399878        0.4543046279
 C          1.8503868235        0.3165847427        0.6259511589
 H         -5.8857292382        2.8815559763       -0.8315613823
 H         -4.3604884307        2.9358133685       -1.7156792234
 H         -5.8862186073        2.8185166251       -2.5946125437
 H         -6.2746725215        0.5542136561       -1.6479160852
 H         -4.7514486410        0.6108554029       -2.5346476886
 H         -5.0378098988        0.8653135954        0.4902792890
 H         -3.5141528904        0.9197511632       -0.4001757139
 H         -3.9093513032       -1.3873972091       -1.2291306713
 H         -5.4343534497       -1.4482232346       -0.3398902730
 H         -4.1793746297       -1.1240165019        1.7991535790
 H         -3.7215607856       -2.6005436525        0.9389902083
 H         -2.5102167970        0.4985450956        2.3325651128
 H         -0.8349974260        1.7539158085        2.9602134355
 H         -1.5999280792       -2.5753093120       -0.4915904490
 H          2.5331183267       -3.6483005444        0.5977941908
 H          3.7517200001       -2.3969102521        0.8767530172
 H          2.1236797420       -2.2305851121        1.5576193770
 H          3.9218754665       -2.6798756715       -1.6777092180
 H          2.6496340822       -1.9861135673       -2.7003017518
 H          2.3964031285       -3.5415294324       -1.9103856621
 H          2.0459391875        0.0335641793       -1.4802301295
 H          4.5526473300       -0.5010793531       -1.3351193058
 H          4.4355938665       -0.1243423881        0.3870426885
 H          5.0479648115        1.9453281567       -0.6514673981
 H          3.9439643146        1.6971205507       -1.9967545489
 H          3.1602765797        4.1231533255       -1.4158089882
 H          4.0714896412        4.1831656006        0.0879843813
 H          2.3129032060        4.3619152712        0.1192484790
 H          1.2655555910        2.4264463122        0.9396406743
 H          2.3829681318        0.0455677139        1.5504322000
