  53

 C         -5.0716514600       -1.6647190900        2.2888555300
 C         -4.1642624300       -0.7951617600        3.1502487800
 C         -2.8182989000       -1.4705655700        3.4024695900
 C         -1.8785240200       -0.6445207500        4.2799115500
 C         -1.3267434200        0.6065183400        3.5806594300
 C         -0.5097151100        0.2466772300        2.3732733600
 C          0.7858741500       -0.2306018100        2.5262326400
 C          1.5450978000       -0.5874328500        1.4231602400
 O          2.8119340300       -1.0770192300        1.5717890200
 C          1.0302902000       -0.4674770700        0.1299957000
 C         -0.2921454400       -0.0507416200       -0.0124204100
 C         -1.0439945100        0.3201854700        1.1009737500
 O         -0.9297968200        0.0179912100       -1.2115148900
 C         -0.3372860600       -0.6827255800       -2.3110326300
 C         -0.5900366700       -2.1831940200       -2.1310545500
 C         -1.0726641900       -0.1680606200       -3.5491667900
 C          1.1544617100       -0.3144439600       -2.3565299100
 C          1.9119342300       -0.7932363300       -3.5996170500
 C          3.4024216400       -1.0689198900       -3.3093244200
 C          3.9387820000       -0.2110920100       -2.1969161200
 C          5.2682761400        0.4432487200       -2.3950188800
 C          3.2078449700       -0.1061939800       -1.0951230800
 C          1.8674285200       -0.7861836400       -1.0772643200
 H         -6.0274391100       -1.1738381900        2.1192453400
 H         -4.6071720200       -1.8556441500        1.3237750600
 H         -5.2584023000       -2.6211192100        2.7731086700
 H         -4.0101237800        0.1608447800        2.6482048800
 H         -4.6529364400       -0.5935869100        4.1068981100
 H         -2.3293842200       -1.6718188400        2.4469908400
 H         -2.9979266400       -2.4312848600        3.8921801600
 H         -1.0366248500       -1.2735335300        4.5784858000
 H         -2.4053213700       -0.3396914600        5.1874787900
 H         -2.1506188700        1.2573572000        3.2884561200
 H         -0.7029450400        1.1523410700        4.2928211000
 H          1.2126102900       -0.3231471200        3.5170268200
 H          3.0291967200       -1.1090847200        2.5109124200
 H         -2.0546181900        0.6596678200        0.9390913200
 H         -0.1060118900       -2.7563024000       -2.9162359900
 H         -0.2191393300       -2.5194033500       -1.1660461000
 H         -1.6601881800       -2.3741935300       -2.1687205500
 H         -0.8571745200        0.8864346500       -3.6999511700
 H         -2.1438128100       -0.2812056300       -3.4037611200
 H         -0.7722120300       -0.7244459400       -4.4313166700
 H          1.1854720400        0.7827822400       -2.3357494500
 H          1.8335279400       -0.0318166900       -4.3767068200
 H          1.4629933200       -1.7066126000       -3.9922867500
 H          3.5111634500       -2.1164759800       -3.0096421700
 H          3.9853367100       -0.9290732600       -4.2205091900
 H          5.2285649400        1.1319096600       -3.2393523500
 H          6.0305722100       -0.3048860100       -2.6126289400
 H          5.5635560800        0.9956083000       -1.5068139600
 H          3.5111481400        0.4859724400       -0.2486508400
 H          2.0304594100       -1.8718949900       -1.1288729000
