  53
        -68.44839093
 C         -5.3560161644        2.4974088284       -1.7009095277
 C         -5.2670995272        0.9772821570       -1.6441668715
 C         -4.5218462437        0.4986830426       -0.4009383486
 C         -4.4276490055       -1.0230616225       -0.3399573074
 C         -3.6798857278       -1.5096217710        0.9080452002
 C         -2.2453131098       -1.0665691833        0.8924442107
 C         -1.8158157010        0.0003531389        1.6676920555
 C         -0.5012541794        0.4409094282        1.6110109431
 O         -0.0918230034        1.4688396827        2.4151849393
 C          0.4240616657       -0.1621277993        0.7552328347
 C          0.0035401631       -1.2867244808        0.0411563881
 C         -1.3210142542       -1.7144360303        0.0951865088
 O          0.8257787642       -2.0408336553       -0.7350286753
 C          2.2389616923       -1.8688375617       -0.5784346959
 C          2.6952685659       -2.5777429244        0.7006354998
 C          2.8499344141       -2.5600245662       -1.7993122245
 C          2.5223664770       -0.3606116622       -0.5727125496
 C          3.9876075320        0.0612491257       -0.5910259668
 C          4.0621303383        1.5532688405       -0.9168079507
 C          2.9990672268        2.3581902097       -0.2176731443
 C          3.1382386448        3.8445663249       -0.3621867079
 C          1.9996331189        1.8052399878        0.4543046279
 C          1.8503868235        0.3165847427        0.6259511589
 H         -5.8857292382        2.8815559763       -0.8315613823
 H         -4.3604884307        2.9358133685       -1.7156792234
 H         -5.8862186073        2.8185166251       -2.5946125437
 H         -6.2746725215        0.5542136561       -1.6479160852
 H         -4.7514486410        0.6108554029       -2.5346476886
 H         -5.0378098988        0.8653135954        0.4902792890
 H         -3.5141528904        0.9197511632       -0.4001757139
 H         -3.9093513032       -1.3873972091       -1.2291306713
 H         -5.4343534497       -1.4482232346       -0.3398902730
 H         -4.1793746297       -1.1240165019        1.7991535790
 H         -3.7215607856       -2.6005436525        0.9389902083
 H         -2.5102167970        0.4985450956        2.3325651128
 H         -0.8349974260        1.7539158085        2.9602134355
 H         -1.5999280792       -2.5753093120       -0.4915904490
 H          2.5331183267       -3.6483005444        0.5977941908
 H          3.7517200001       -2.3969102521        0.8767530172
 H          2.1236797420       -2.2305851121        1.5576193770
 H          3.9218754665       -2.6798756715       -1.6777092180
 H          2.6496340822       -1.9861135673       -2.7003017518
 H          2.3964031285       -3.5415294324       -1.9103856621
 H          2.0459391875        0.0335641793       -1.4802301295
 H          4.5526473300       -0.5010793531       -1.3351193058
 H          4.4355938665       -0.1243423881        0.3870426885
 H          5.0479648115        1.9453281567       -0.6514673981
 H          3.9439643146        1.6971205507       -1.9967545489
 H          3.1602765797        4.1231533255       -1.4158089882
 H          4.0714896412        4.1831656006        0.0879843813
 H          2.3129032060        4.3619152712        0.1192484790
 H          1.2655555910        2.4264463122        0.9396406743
 H          2.3829681318        0.0455677139        1.5504322000
  53
        -68.44837036
 C         -5.2933577773        2.4236073999       -1.8365846980
 C         -5.2329068137        0.9071531062       -1.7004809950
 C         -4.5002562129        0.4795715076       -0.4313835637
 C         -4.4314200823       -1.0387157884       -0.2954685364
 C         -3.6866289056       -1.4746552780        0.9723973354
 C         -2.2496088545       -1.0398794284        0.9397270287
 C         -1.8006170111        0.0142381084        1.7210788072
 C         -0.4827625076        0.4437128768        1.6530425556
 O         -0.0542232558        1.4564562650        2.4664616878
 C          0.4255351834       -0.1551537150        0.7763935634
 C         -0.0150736308       -1.2660646180        0.0528172780
 C         -1.3414453371       -1.6853652738        0.1220753045
 O          0.7877371439       -2.0144257762       -0.7487421878
 C          2.2047614151       -1.8543067721       -0.6176715982
 C          2.6813313360       -2.5905950594        0.6383464714
 C          2.7859464389       -2.5265928974       -1.8634929342
 C          2.4996313790       -0.3485035617       -0.5895805332
 C          3.9680630065        0.0610604652       -0.6267395625
 C          4.0504911110        1.5580458652       -0.9261468158
 C          3.0100914520        2.3588725728       -0.1893928234
 C          3.1634657623        3.8465151509       -0.3031809486
 C          2.0174438955        1.8020703919        0.4894288305
 C          1.8545852484        0.3118830120        0.6330793348
 H         -5.8145240326        2.7072079412       -2.7481667531
 H         -5.8186297446        2.8623426649       -0.9907462060
 H         -4.2897726822        2.8420813305       -1.8699924320
 H         -6.2481172395        0.5030112152       -1.6864061505
 H         -4.7214521050        0.4857146522       -2.5687683883
 H         -5.0126466661        0.8984816238        0.4385233693
 H         -3.4854836691        0.8831314113       -0.4469526672
 H         -3.9226233454       -1.4541639137       -1.1674249497
 H         -5.4447805978       -1.4470373272       -0.2717351747
 H         -4.1840929769       -1.0491532714        1.8462896645
 H         -3.7337222231       -2.5632226603        1.0503814442
 H         -2.4818149478        0.5109808582        2.4006078889
 H         -0.7879975820        1.7401150719        3.0248118986
 H         -1.6346329336       -2.5376477815       -0.4701892469
 H          3.7425721835       -2.4213955665        0.7961590996
 H          2.1300306273       -2.2552191925        1.5131362180
 H          2.5083290269       -3.6577424151        0.5188784637
 H          3.8591025714       -2.6569984225       -1.7659051416
 H          2.5722858892       -1.9339521706       -2.7491633199
 H          2.3223649977       -3.5022520906       -1.9841559534
 H          2.0103253126        0.0660660990       -1.4810190866
 H          4.5144981681       -0.4923267913       -1.3911561244
 H          4.4317794897       -0.1464576533        0.3395058757
 H          5.0454409430        1.9356413525       -0.6741143914
 H          3.9113219415        1.7235125329       -2.0004620093
 H          2.3530936466        4.3618657999        0.2050796747
 H          3.1693291955        4.1486703581       -1.3504880544
 H          4.1086455763        4.1645501426        0.1370585865
 H          1.3001398369        2.4206364639        1.0022971554
 H          2.3992059839        0.0166668661        1.5430675044
  53
        -68.44835450
 C         -5.3495346051       -3.2561639335        0.8333216625
 C         -5.5205354574       -1.7424751274        0.7993597351
 C         -4.5353205057       -1.0829410880       -0.1623136741
 C         -4.7010347735        0.4331874921       -0.2018870437
 C         -3.7047289288        1.1019759555       -1.1582440328
 C         -2.2878742716        0.9212434896       -0.6946897797
 C         -1.7954557559        1.6795790800        0.3585896437
 C         -0.4950836242        1.5150921271        0.8105964881
 O         -0.0453673417        2.2468009132        1.8752019056
 C          0.3666182538        0.5950786503        0.2059472393
 C         -0.1620967753       -0.2186019455       -0.7978740841
 C         -1.4667706608       -0.0374493691       -1.2544118936
 O          0.5232904369       -1.2304147646       -1.3924526522
 C          1.7295915864       -1.6820167674       -0.7665046504
 C          1.3747922620       -2.5580016412        0.4392338080
 C          2.4252694877       -2.5290027088       -1.8343199304
 C          2.5506324284       -0.4396243131       -0.3960468164
 C          3.9614270992       -0.6829778857        0.1289743830
 C          4.7209451912        0.6438471855        0.1205779872
 C          3.8775190487        1.8025177291        0.5818950317
 C          4.6234806158        3.0908528005        0.7640161004
 C          2.5720777993        1.7081302438        0.7892800235
 C          1.8059172353        0.4216339621        0.6290402151
 H         -6.0556167058       -3.7077817043        1.5265686408
 H         -5.5182715023       -3.6809338668       -0.1539044500
 H         -4.3419013161       -3.5174841344        1.1492436654
 H         -6.5417631396       -1.4992118210        0.4956540213
 H         -5.3696898713       -1.3381683402        1.8031742612
 H         -4.6860236217       -1.4882233482       -1.1656767217
 H         -3.5149077648       -1.3241045829        0.1427092730
 H         -4.5601570225        0.8366262425        0.8034384320
 H         -5.7175279976        0.6779832287       -0.5198263908
 H         -3.8224637380        0.6735361208       -2.1547955703
 H         -3.9346026237        2.1686876091       -1.2159004984
 H         -2.4322943371        2.4125616958        0.8380438127
 H         -0.7606985706        2.8123267555        2.1899920399
 H         -1.8171309972       -0.6755532715       -2.0500273719
 H          2.2751250906       -2.8518981164        0.9710221108
 H          0.7135885085       -2.0268479936        1.1192178787
 H          0.8596628127       -3.4526236042        0.0966958522
 H          2.8066491997       -1.8962158505       -2.6314134600
 H          1.7020470291       -3.2190834293       -2.2610789894
 H          3.2422131591       -3.0985202238       -1.4024807426
 H          2.6306498371        0.1484614703       -1.3199878051
 H          4.4935342907       -1.4093616625       -0.4861719630
 H          3.9123202135       -1.0719501370        1.1478340943
 H          5.6116943677        0.5691121650        0.7506441813
 H          5.0688467345        0.8583737712       -0.8962060026
 H          5.1333738460        3.3677951196       -0.1587560133
 H          5.3813601776        2.9834318289        1.5401825340
 H          3.9492769361        3.8949523202        1.0459910141
 H          2.0144464127        2.5675000764        1.1219909933
 H          1.8131354932       -0.0799733301        1.6089186711
  53
        -68.44834662
 C         -5.0079311189        1.1707250572       -3.0402662318
 C         -5.2309178087        1.0523637156       -1.5376573034
 C         -4.3673765437       -0.0458311939       -0.9223035064
 C         -4.5904257724       -0.1744499598        0.5815115836
 C         -3.7108394033       -1.2652317406        1.2066037577
 C         -2.2537740178       -0.9172377480        1.1058870786
 C         -1.6955338871        0.0088573916        1.9764725144
 C         -0.3651258319        0.3825883828        1.8647213205
 O          0.1740267678        1.2639719902        2.7610515568
 C          0.4489416071       -0.1450701858        0.8580126340
 C         -0.0981388744       -1.1361390336        0.0409894783
 C         -1.4402102589       -1.4968130640        0.1526235624
 O          0.6084527883       -1.8176944784       -0.8988611145
 C          2.0377733591       -1.7427422309       -0.8475700263
 C          2.5505254828       -2.6454334838        0.2789073984
 C          2.5020923313       -2.2882985315       -2.1997393024
 C          2.4162716019       -0.2667493074       -0.6648738184
 C          3.8991378385        0.0765552498       -0.7569649980
 C          4.0420209310        1.5934163624       -0.8852704375
 C          3.0931340541        2.3475445369        0.0078740522
 C          3.3150701352        3.8302044124        0.0527723680
 C          2.1182783550        1.7593845882        0.6860321041
 C          1.8880898761        0.2712703891        0.6687598853
 H         -5.2610281624        0.2369714974       -3.5378631772
 H         -5.6256206599        1.9616656214       -3.4598074288
 H         -3.9656425133        1.3985238013       -3.2524403240
 H         -4.9946954230        2.0062395446       -1.0600851475
 H         -6.2846184651        0.8375325284       -1.3427320682
 H         -3.3143270172        0.1728251295       -1.1111911676
 H         -4.5998750266       -0.9986601384       -1.4038455800
 H         -5.6401247768       -0.4105139063        0.7732811337
 H         -4.3704577197        0.7820065151        1.0611775524
 H         -3.9864617114       -1.3801935143        2.2577952368
 H         -3.8997990322       -2.2124219936        0.6989948652
 H         -2.3019706906        0.4431848266        2.7615443800
 H         -0.5027667395        1.5099334341        3.4029625156
 H         -1.8185584185       -2.2510307119       -0.5188995757
 H          3.6271534440       -2.5459176064        0.3826337846
 H          2.0737828533       -2.3916652626        1.2222828147
 H          2.3126865269       -3.6813932957        0.0483157535
 H          1.9792238409       -3.2197728662       -2.4005251078
 H          3.5705217469       -2.4796189029       -2.1915351257
 H          2.2662763963       -1.5849743790       -2.9940900191
 H          1.8940066610        0.2740968277       -1.4653134804
 H          4.3649574385       -0.4056200783       -1.6170178037
 H          4.4121706982       -0.2661747864        0.1436233855
 H          5.0692263800        1.8927874178       -0.6590381463
 H          3.8456757793        1.8919609740       -1.9212524695
 H          4.3017031420        4.0534905371        0.4589230804
 H          2.5665635388        4.3176989011        0.6713887652
 H          3.2688255880        4.2515198944       -0.9514880274
 H          1.4673520949        2.3445027854        1.3138998199
 H          2.4748369728       -0.1535634358        1.4976027204
  53
        -68.44834586
 C         -5.9341205496       -0.7476201028        2.5669120777
 C         -5.6510828172       -1.2477678103        1.1556344905
 C         -4.7526584176       -0.2860408107        0.3821788636
 C         -4.4681729412       -0.7807631772       -1.0329327537
 C         -3.5676890945        0.1825211544       -1.8171277561
 C         -2.2004177789        0.2831946566       -1.2041130445
 C         -1.8489048060        1.3652704713       -0.4108013332
 C         -0.5897073554        1.4491813645        0.1660303535
 O         -0.2822235350        2.5061578175        0.9780499326
 C          0.3701367658        0.4575402413       -0.0523947042
 C         -0.0201497699       -0.6662560977       -0.7847218435
 C         -1.2824956812       -0.7364426612       -1.3694248930
 O          0.7698491266       -1.7547775587       -0.9797342045
 C          1.9355784811       -1.8941260087       -0.1596696841
 C          1.5184631668       -2.3813211241        1.2315929577
 C          2.7711266430       -2.9706846815       -0.8557802728
 C          2.6517588511       -0.5370895208       -0.1401218276
 C          4.0187287729       -0.4945734387        0.5343487897
 C          4.7047442384        0.8206782629        0.1643928530
 C          3.7623817903        1.9947094720        0.1785123177
 C          4.4192461605        3.3313648332        0.0014209438
 C          2.4501857401        1.8659049361        0.3113384455
 C          1.7707457326        0.5363089307        0.5070018360
 H         -5.0061046808       -0.6332979296        3.1230786736
 H         -6.4353696183        0.2176341623        2.5365262307
 H         -6.5713464462       -1.4477547332        3.1023344356
 H         -5.1685378523       -2.2263786658        1.2077275147
 H         -6.5947031447       -1.3726502399        0.6189227839
 H         -3.8075477570       -0.1669212713        0.9163607270
 H         -5.2343968116        0.6939374536        0.3327478384
 H         -5.4121929398       -0.9012517776       -1.5700279145
 H         -3.9842838217       -1.7580874271       -0.9818211270
 H         -3.4760205297       -0.1803681511       -2.8431271186
 H         -4.0356727579        1.1686206579       -1.8450503290
 H         -2.5637654147        2.1588381359       -0.2328620782
 H         -1.0523780826        3.0833618495        1.0441677165
 H         -1.5243460134       -1.6133131970       -1.9488899525
 H          0.7689119880       -1.7216094003        1.6612613271
 H          1.0868044056       -3.3764505132        1.1516142317
 H          2.3801060797       -2.4232531356        1.8916102232
 H          3.1904729765       -2.5858852109       -1.7816971631
 H          2.1282068243       -3.8137034410       -1.0952837209
 H          3.5736771645       -3.3130299636       -0.2100478815
 H          2.7858321735       -0.2577926431       -1.1936621615
 H          4.6430098706       -1.3307909352        0.2178836932
 H          3.8960184557       -0.5531526059        1.6175398863
 H          5.5364244769        1.0139968276        0.8477203533
 H          5.1329121360        0.7386332123       -0.8410234683
 H          5.1060875214        3.5281626031        0.8247519439
 H          3.6803074547        4.1272708911       -0.0320270789
 H          4.9976628257        3.3505640793       -0.9222939909
 H          1.8197480603        2.7392008270        0.3179003610
 H          1.7127020701        0.3624222233        1.5924334204
  53
        -68.44806372
 C         -7.8474189144        0.6688558881       -1.7337696019
 C         -6.3433097540        0.8799532453       -1.6113825165
 C         -5.7214926207       -0.0498492792       -0.5722113225
 C         -4.2142972030        0.1545728962       -0.4488879266
 C         -3.5917118139       -0.7805581157        0.5941659206
 C         -2.1097976110       -0.5592680900        0.6794149272
 C         -1.5836721121        0.3777826674        1.5569301492
 C         -0.2205009814        0.6307075519        1.5979799603
 O          0.2799343418        1.5260759665        2.5027677852
 C          0.6610929430       -0.0324834998        0.7398683540
 C          0.1320130663       -1.0293134901       -0.0828026654
 C         -1.2401998626       -1.2683920097       -0.1258542727
 O          0.8853819918       -1.8316490418       -0.8799565305
 C          2.2980905245       -1.8715287431       -0.6477776057
 C          2.5825800242       -2.7326672882        0.5868424169
 C          2.8754995291       -2.5466124546       -1.8937704735
 C          2.7832979888       -0.4227368833       -0.5044131478
 C          4.2911641171       -0.2104033785       -0.4235035895
 C          4.5859775190        1.2767450900       -0.6212362051
 C          3.6063892681        2.1669806814        0.0961710929
 C          3.9550429590        3.6256971983        0.0829743037
 C          2.5056479772        1.7100974240        0.6756038354
 C          2.1446439209        0.2486392359        0.7155683846
 H         -8.2699120874        1.3401271736       -2.4778848993
 H         -8.0657991353       -0.3545115076       -2.0314522477
 H         -8.3383746494        0.8592952811       -0.7816911860
 H         -5.8716176700        0.7026661048       -2.5805613930
 H         -6.1436844372        1.9172046730       -1.3323915014
 H         -5.9236471324       -1.0869380766       -0.8506802560
 H         -6.1922609457        0.1285026595        0.3978938996
 H         -4.0069307085        1.1902856109       -0.1699094387
 H         -3.7392939459       -0.0266892567       -1.4153789007
 H         -4.0547953408       -0.5930954534        1.5654157887
 H         -3.7957757469       -1.8152093871        0.3127214999
 H         -2.2411188493        0.9170489321        2.2273971670
 H         -0.4470298945        1.8727169785        3.0337922386
 H         -1.6003161561       -2.0337700169       -0.7948605642
 H          3.6423915410       -2.7149293473        0.8240681581
 H          2.0166319917       -2.3754686918        1.4434248632
 H          2.2827597561       -3.7591344898        0.3882740014
 H          2.2990412411       -3.4432918420       -2.1059630744
 H          3.9127091488       -2.8247624234       -1.7355130697
 H          2.8053625322       -1.8832192196       -2.7518159718
 H          2.4154284665        0.1022830936       -1.3960056356
 H          4.8143019843       -0.7883759279       -1.1860357896
 H          4.6552979295       -0.5304925261        0.5546071452
 H          5.6003270685        1.5053176974       -0.2823563827
 H          4.5468234388        1.5174696155       -1.6896181928
 H          3.1831471593        4.2151929774        0.5700585084
 H          4.0719461264        3.9786821339       -0.9416726763
 H          4.9000001735        3.7941588534        0.5996575286
 H          1.8379997783        2.3893421319        1.1786777974
 H          2.5826070540       -0.1647428505        1.6370013755
  53
        -68.44805750
 C         -7.8343279847        0.6183740402       -1.7785836522
 C         -6.3304665560        0.8308720329       -1.6555444389
 C         -5.7173133851       -0.0579679467       -0.5761287205
 C         -4.2101595779        0.1469725801       -0.4527004358
 C         -3.5947334770       -0.7531715179        0.6247586663
 C         -2.1116030394       -0.5379193979        0.7040731636
 C         -1.5748265893        0.3892814209        1.5852709743
 C         -0.2097709776        0.6339345924        1.6200349259
 O          0.3010438633        1.5187442322        2.5293931384
 C          0.6626841704       -0.0267026180        0.7508249414
 C          0.1226415647       -1.0134450197       -0.0770773920
 C         -1.2508400781       -1.2452848715       -0.1124392433
 O          0.8659180360       -1.8122728617       -0.8871190750
 C          2.2801855836       -1.8612561178       -0.6669319820
 C          2.5701905521       -2.7368692429        0.5561481876
 C          2.8440420610       -2.5261135592       -1.9246091665
 C          2.7738013362       -0.4164898423       -0.5122021493
 C          4.2834219568       -0.2134396366       -0.4402824269
 C          4.5853321303        1.2739338122       -0.6247917003
 C          3.6169135982        2.1619408071        0.1102929938
 C          3.9746958920        3.6185139116        0.1112706569
 C          2.5177833300        1.7052656415        0.6929110426
 C          2.1477751175        0.2457713012        0.7192898099
 H         -8.3309421515        0.8487507757       -0.8383743959
 H         -8.2503435486        1.2593813024       -2.5524145482
 H         -8.0534780340       -0.4158087162       -2.0354064925
 H         -5.8532868504        0.6137107125       -2.6138572024
 H         -6.1298307097        1.8780222368       -1.4172989430
 H         -5.9209324059       -1.1048429016       -0.8140466269
 H         -6.1931234818        0.1602826432        0.3832962530
 H         -4.0010869776        1.1912263703       -0.2089442828
 H         -3.7313505289       -0.0691175199       -1.4100870040
 H         -4.0583745723       -0.5287445340        1.5877809660
 H         -3.8042352522       -1.7961426842        0.3798721612
 H         -2.2248263444        0.9271752287        2.2640975523
 H         -0.4207977701        1.8647738319        3.0677723415
 H         -1.6195018608       -2.0035887208       -0.7848176450
 H          2.2630829429       -3.7595583200        0.3493662094
 H          3.6319965098       -2.7274039760        0.7846680478
 H          2.0133775478       -2.3856096118        1.4211348155
 H          2.2611466922       -3.4174461305       -2.1417248450
 H          3.8810383649       -2.8112750159       -1.7778792723
 H          2.7703904245       -1.8531663389       -2.7748558225
 H          2.4022244146        0.1196201002       -1.3956179276
 H          4.7975798596       -0.7864031467       -1.2126460562
 H          4.6529428767       -0.5456623490        0.5317472389
 H          5.6038066129        1.4930786427       -0.2921326356
 H          4.5385084817        1.5262515719       -1.6901797476
 H          4.0861158914        3.9827271467       -0.9100767740
 H          4.9246315200        3.7748346873        0.6226208764
 H          3.2103689277        4.2071565062        0.6111999439
 H          1.8586455724        2.3828112156        1.2092782632
 H          2.5894088103       -0.1803381306        1.6331650967
  53
        -68.44785752
 C         -4.8421412004       -3.2085146865       -1.1593859449
 C         -5.0675188659       -1.7189721777       -0.9312713590
 C         -4.4962580411       -1.2666129222        0.4105162957
 C         -4.7178450545        0.2182928254        0.6960397060
 C         -3.8710290218        1.1466424675       -0.1868649029
 C         -2.4021619855        0.9274695372        0.0336779732
 C         -1.7800585012        1.4439287079        1.1621072290
 C         -0.4290332672        1.2343845803        1.3924869643
 O          0.1523934791        1.7214217399        2.5307864816
 C          0.3527772296        0.5124475422        0.4857704399
 C         -0.2978058322       -0.0708659773       -0.6029702593
 C         -1.6534477046        0.1571320566       -0.8341741544
 O          0.3110532627       -0.8921782534       -1.4986487537
 C          1.5944046879       -1.4261185247       -1.1540983746
 C          1.4122503595       -2.5676156387       -0.1486573887
 C          2.1489897190       -1.9784248030       -2.4690384293
 C          2.4460608088       -0.2693636053       -0.6142050432
 C          3.9165303109       -0.5698121359       -0.3447301452
 C          4.6558481754        0.7531410143       -0.1428957726
 C          3.8709960577        1.7416074847        0.6778243353
 C          4.6226598866        2.9831452442        1.0559209081
 C          2.6059603757        1.5504253253        1.0231117177
 C          1.8372757182        0.3048123926        0.6690966796
 H         -5.3189208852       -3.7927294428       -0.3748610486
 H         -5.2553800552       -3.5181312050       -2.1167956050
 H         -3.7780212676       -3.4347095053       -1.1548266389
 H         -4.5949401038       -1.1618502955       -1.7412595593
 H         -6.1386983042       -1.5036026069       -0.9597836569
 H         -3.4255897643       -1.4795409022        0.4385566485
 H         -4.9713390383       -1.8488028630        1.2045546049
 H         -4.4693461798        0.4137158714        1.7418670868
 H         -5.7738596416        0.4604228736        0.5535272714
 H         -4.1155802175        0.9798635772       -1.2357301425
 H         -4.1251208123        2.1809856524        0.0577492783
 H         -2.3541723352        2.0201472011        1.8770138815
 H         -0.5200068185        2.1693739486        3.0578574032
 H         -2.0984775601       -0.2952072991       -1.7060526301
 H          2.3782822369       -2.9382288601        0.1817028037
 H          0.8421694708       -2.2328304249        0.7142835618
 H          0.8653934141       -3.3809279038       -0.6204239284
 H          2.4146868160       -1.1656300563       -3.1399029041
 H          1.3817267166       -2.5811041657       -2.9481282342
 H          3.0214565616       -2.5985937015       -2.2889012670
 H          2.3963971796        0.5168430037       -1.3792984614
 H          4.3682408477       -1.1148266240       -1.1742453141
 H          4.0076326189       -1.1827686399        0.5540307762
 H          5.6233191113        0.5721043627        0.3337491428
 H          4.8630869160        1.2077222619       -1.1182392210
 H          5.0022185321        3.4831317173        0.1647986468
 H          5.4783319646        2.7319118204        1.6828462975
 H          3.9847349706        3.6743890397        1.5998320544
 H          2.0898278703        2.2883131872        1.6141031585
 H          1.9801978940       -0.4064932526        1.4970029139
  53
        -68.44784414
 C         -4.7253609934       -0.0209455663       -3.1638790594
 C         -4.9627585116       -0.3894084720       -1.7046667417
 C         -4.3570158395        0.6469513541       -0.7610947702
 C         -4.5982918627        0.3386141651        0.7161540814
 C         -3.8028355100       -0.8709338020        1.2281258153
 C         -2.3238648570       -0.6373516529        1.1210247535
 C         -1.6704158642        0.1482156116        2.0607503782
 C         -0.3155991997        0.4198399026        1.9473302653
 O          0.3153005113        1.1587905028        2.9100400229
 C          0.4293000418       -0.0691952723        0.8700079629
 C         -0.2175678066       -0.9240983924       -0.0241533368
 C         -1.5824104122       -1.1831824430        0.0917861270
 O          0.4076499036       -1.5626891336       -1.0483194975
 C          1.8388331151       -1.6123414986       -1.0327039931
 C          2.2962006309       -2.6647030715       -0.0177523005
 C          2.2257112068       -2.0539266366       -2.4458203970
 C          2.3465013756       -0.1993360917       -0.7150206860
 C          3.8511886839        0.0263277157       -0.8162680537
 C          4.1216119558        1.5310409660       -0.7969587174
 C          3.2605802387        2.2668427328        0.1950573290
 C          3.6110852767        3.7131833238        0.3817311950
 C          2.2529639916        1.6963984635        0.8395818856
 C          1.8946890301        0.2424312923        0.6806251745
 H         -3.6587953442        0.0379185672       -3.3697313999
 H         -5.1627035354       -0.7659446055       -3.8249707768
 H         -5.1714759536        0.9448248907       -3.3925876984
 H         -6.0370638316       -0.4649150639       -1.5177335254
 H         -4.5218630560       -1.3681501809       -1.5112512019
 H         -4.7947823882        1.6223852700       -0.9890626407
 H         -3.2821369520        0.7158305186       -0.9407058133
 H         -5.6635148511        0.1566661416        0.8787970455
 H         -4.3152132954        1.2132729477        1.3064781687
 H         -4.0705464660       -1.0420859110        2.2737762556
 H         -4.0794841926       -1.7594103264        0.6609047295
 H         -2.2208848135        0.5507827410        2.9019744373
 H         -0.3247843062        1.3950051484        3.5920128433
 H         -2.0353911164       -1.8336050937       -0.6394458278
 H          1.8635086963       -2.4696400867        0.9601771379
 H          1.9655237708       -3.6484206135       -0.3432140704
 H          3.3793701030       -2.6662840785        0.0629896837
 H          3.2736738230       -2.3335006659       -2.4885989194
 H          2.0345190085       -1.2559709548       -3.1585700016
 H          1.6205826321       -2.9132500844       -2.7228891136
 H          1.8560365808        0.4619307827       -1.4417629138
 H          4.2555011797       -0.4031368039       -1.7334836051
 H          4.3515916544       -0.4479982723        0.0301184658
 H          5.1754375580        1.7187375191       -0.5729566380
 H          3.9296262603        1.9490314160       -1.7916375660
 H          2.9207140668        4.1960754635        1.0678773653
 H          3.5805329076        4.2374276504       -0.5734620310
 H          4.6216321194        3.8100414954        0.7788588970
 H          1.6685152148        2.2668329948        1.5419092068
 H          2.4598291650       -0.3123687701        1.4452252772
  53
        -68.44776623
 C         -5.4142376442        2.5935561659       -0.6192096342
 C         -5.3769059629        1.1095487712       -0.2750188910
 C         -4.3792429945        0.3559897422       -1.1518565397
 C         -4.3377092080       -1.1465508653       -0.8754204366
 C         -3.7205801703       -1.5054309410        0.4837757671
 C         -2.2936751991       -1.0471691224        0.5727866027
 C         -1.9491233038        0.0939523659        1.2821951258
 C         -0.6378850939        0.5465470400        1.3149798926
 O         -0.3173169929        1.6523284863        2.0537905340
 C          0.3719167510       -0.1210086325        0.6173899612
 C          0.0310321948       -1.3144775195       -0.0236626208
 C         -1.2901502790       -1.7539297584       -0.0622271768
 O          0.9308794934       -2.1271316937       -0.6376548562
 C          2.3204572388       -1.9189795117       -0.3605311718
 C          2.6521714938       -2.4960661709        1.0192583860
 C          3.0536143649       -2.7135549808       -1.4434502297
 C          2.5927116556       -0.4127960298       -0.4720191202
 C          4.0500705981        0.0279094852       -0.3875895440
 C          4.1472388709        1.4831391170       -0.8464233041
 C          3.0163736771        2.3344558343       -0.3334123974
 C          3.1610381314        3.8026405684       -0.6036984954
 C          1.9588941734        1.8323672565        0.2876871999
 C          1.8014118760        0.3644607422        0.5846491858
 H         -5.7118202162        2.7377171048       -1.6556106660
 H         -6.1228304281        3.1193896273        0.0171294253
 H         -4.4313605100        3.0401113320       -0.4830067589
 H         -5.1074038852        0.9955024425        0.7760848029
 H         -6.3727059854        0.6800492990       -0.4095301088
 H         -3.3800844222        0.7728027192       -1.0081350489
 H         -4.6533237173        0.5093585017       -2.1987074815
 H         -3.7472546212       -1.6282542590       -1.6575480918
 H         -5.3516617128       -1.5512368843       -0.9225936736
 H         -4.3084460369       -1.0575619605        1.2857443750
 H         -3.7606160701       -2.5904220523        0.6034026568
 H         -2.7074508288        0.6426395748        1.8264450529
 H         -1.1130790577        1.9763834635        2.4924761754
 H         -1.5039123001       -2.6705616314       -0.5887965737
 H          2.5078840662       -3.5740079281        1.0042504555
 H          3.6847740257       -2.2825255284        1.2800349241
 H          1.9961295227       -2.0782960643        1.7787185170
 H          4.1089170096       -2.8048083880       -1.2062908964
 H          2.9402360671       -2.2309811559       -2.4106856417
 H          2.6191350078       -3.7080271165       -1.5037208201
 H          2.2057150643       -0.1140137929       -1.4553357539
 H          4.6891505830       -0.5937790308       -1.0154719101
 H          4.4004936423       -0.0568433019        0.6428443876
 H          5.1002040140        1.9134636249       -0.5260387463
 H          4.1341215424        1.5219465987       -1.9415403936
 H          2.2892604015        4.3505365904       -0.2566817243
 H          3.2856465178        3.9814447587       -1.6717331027
 H          4.0433059915        4.1957877167       -0.0983428355
 H          1.1775007764        2.4856688277        0.6383033536
 H          2.2407747530        0.1896095277        1.5787110435
  53
        -68.44772509
 C         -5.8458967557        0.7612665377        2.1848917109
 C         -5.6174958330        0.2916817442        0.7532281799
 C         -4.6364852822       -0.8773176488        0.6964434556
 C         -4.4062121950       -1.4119507856       -0.7167125017
 C         -3.6184819378       -0.4510427792       -1.6186096219
 C         -2.2450515753       -0.1840720470       -1.0734526506
 C         -1.9595269331        0.9906686968       -0.3934132197
 C         -0.6947131327        1.2269754377        0.1258691044
 O         -0.4517360544        2.3747273060        0.8294856415
 C          0.3367140344        0.2992462870       -0.0399334388
 C          0.0187579342       -0.9138394428       -0.6555317579
 C         -1.2508392144       -1.1376342386       -1.1829841911
 O          0.8901494824       -1.9488575605       -0.7841016523
 C          2.0870708208       -1.9203202971        0.0016295802
 C          1.7527841829       -2.3113381628        1.4446777073
 C          2.9876733753       -2.9855260821       -0.6275638515
 C          2.6891007204       -0.5143896577       -0.1242945031
 C          4.0671488202       -0.3022971030        0.4931850206
 C          4.6310881314        1.0245723199       -0.0156240117
 C          3.5957458085        2.1162072201       -0.0707394124
 C          4.1344679820        3.4792494356       -0.3892710397
 C          2.3031590347        1.8959135464        0.1210450750
 C          1.7420379104        0.5396855774        0.4579800802
 H         -6.5407281011        1.5979600389        2.2102200768
 H         -6.2570965538       -0.0439609714        2.7898962866
 H         -4.9076962165        1.0789577411        2.6353568207
 H         -6.5704487374       -0.0149190293        0.3150823816
 H         -5.2359879358        1.1256804024        0.1621084000
 H         -5.0280543630       -1.6883724801        1.3157010002
 H         -3.6785249384       -0.5707696359        1.1220305224
 H         -5.3706952395       -1.6258197901       -1.1836877180
 H         -3.8516314206       -2.3500274638       -0.6480278753
 H         -3.5309347978       -0.9039357450       -2.6087135242
 H         -4.1659430495        0.4860164536       -1.7257126581
 H         -2.7297956731        1.7397322772       -0.2598325802
 H         -1.2645820337        2.8925738268        0.8726071143
 H         -1.4367203521       -2.0804728062       -1.6725927172
 H          0.9643370605       -1.6773170928        1.8421505240
 H          1.4024484271       -3.3407457057        1.4682207660
 H          2.6340591509       -2.2248051399        2.0736785974
 H          2.4096442086       -3.8951845530       -0.7682081570
 H          3.8344946543       -3.2030431399        0.0157226516
 H          3.3462211065       -2.6539607224       -1.5985199871
 H          2.7685451473       -0.3218147422       -1.2025054364
 H          4.7487448876       -1.1113603151        0.2286230815
 H          3.9816209069       -0.2723562385        1.5811161130
 H          5.4634346166        1.3446857885        0.6174372355
 H          5.0352680672        0.8861684858       -1.0247874061
 H          4.8268927050        3.8042236292        0.3874350970
 H          3.3317133247        4.2074961752       -0.4655608794
 H          4.6816067769        3.4602222711       -1.3318249238
 H          1.6032461762        2.7132227699        0.0736568050
 H          1.7308777355        0.4608453195        1.5559174557
  53
        -68.44759290
 C         -4.6961799523        1.1178152600       -2.6626531929
 C         -5.3458303743        1.3192194816       -1.2985899270
 C         -4.5315709985        0.7182463659       -0.1527404119
 C         -4.4895581565       -0.8072955521       -0.1795765269
 C         -3.7205487684       -1.3807075260        1.0174828831
 C         -2.2742608591       -0.9790892533        0.9765767344
 C         -1.7816816545        0.0153089453        1.8084680254
 C         -0.4568593878        0.4206051618        1.7306505120
 O          0.0153092516        1.3741915662        2.5901590024
 C          0.4153809321       -0.1441766164        0.7965989136
 C         -0.0678833513       -1.2006117701        0.0207352089
 C         -1.4020539484       -1.5931157208        0.0978890645
 O          0.6990748882       -1.9186719446       -0.8415451478
 C          2.1219962806       -1.7985376570       -0.7326164977
 C          2.6068678855       -2.6134026810        0.4705965457
 C          2.6617336901       -2.4139240072       -2.0255362067
 C          2.4523256399       -0.3034908799       -0.6283670307
 C          3.9282216389        0.0766864610       -0.6777802412
 C          4.0365761745        1.5860519061       -0.8962448042
 C          3.0297566539        2.3663174479       -0.0935782828
 C          3.2114766834        3.8546344325       -0.1317543431
 C          2.0410123850        1.7934043272        0.5774645138
 C          1.8502990921        0.3011013081        0.6440294941
 H         -5.2621010798        1.6394585512       -3.4315335928
 H         -3.6803231752        1.5070736513       -2.6592478854
 H         -4.6591487933        0.0644146530       -2.9268558451
 H         -5.4601993828        2.3911509263       -1.1190138772
 H         -6.3454485148        0.8777082464       -1.3030521781
 H         -4.9712066138        1.0402329544        0.7952388693
 H         -3.5110712038        1.1049798873       -0.1944072306
 H         -4.0071009406       -1.1460962227       -1.0966616451
 H         -5.5104717269       -1.1971037212       -0.1676571723
 H         -4.1792442424       -1.0287248221        1.9438533435
 H         -3.7946622499       -2.4702228006        0.9932556735
 H         -2.4339044239        0.4836225355        2.5349339188
 H         -0.6973049558        1.6399026527        3.1835964556
 H         -1.7297327516       -2.4009148495       -0.5371772736
 H          2.0807408854       -2.3155992408        1.3740107326
 H          2.4080002136       -3.6684086527        0.2962383151
 H          3.6745241324       -2.4754860084        0.6150044392
 H          3.7333477005       -2.5730740471       -1.9582913307
 H          2.4439408992       -1.7689176840       -2.8727690531
 H          2.1733571165       -3.3710604098       -2.1891346121
 H          1.9524988159        0.1704912894       -1.4836240580
 H          4.4449576397       -0.4444811285       -1.4843184823
 H          4.4090103309       -0.1938630538        0.2642313017
 H          5.0445891697        1.9287592999       -0.6464102034
 H          3.8780933728        1.8135077714       -1.9564838491
 H          4.1731852473        4.1300379361        0.3013408845
 H          2.4241615039        4.3577591300        0.4228473325
 H          3.1989741729        4.2123640764       -1.1613643684
 H          1.3480822830        2.3972480062        1.1391785767
 H          2.4096865951       -0.0543944169        1.5229248831
  53
        -68.44753334
 C         -4.9852457826        2.1340861980       -1.6111168455
 C         -5.2274491030        0.6676011430       -1.9495463766
 C         -4.3131090100       -0.2856709547       -1.1797980623
 C         -4.6072309061       -0.3245282487        0.3172557809
 C         -3.7234348850       -1.3438646620        1.0477791979
 C         -2.2739384441       -0.9576516807        0.9812641817
 C         -1.7826873675        0.0536927604        1.7956276444
 C         -0.4587557965        0.4570424695        1.7139933316
 O          0.0130362958        1.4250242315        2.5574996741
 C          0.4167500836       -0.1272507575        0.7938096819
 C         -0.0648844733       -1.1969785178        0.0369909345
 C         -1.4008476013       -1.5874679554        0.1167815629
 O          0.7032540154       -1.9313220428       -0.8103186896
 C          2.1260508101       -1.8132788240       -0.6975229199
 C          2.6032104292       -2.6086038737        0.5217207574
 C          2.6694280100       -2.4524923251       -1.9772735612
 C          2.4607183368       -0.3176629202       -0.6177071948
 C          3.9383168043        0.0562584393       -0.6649038956
 C          4.0539321888        1.5611976867       -0.9086909335
 C          3.0444658795        2.3591701475       -0.1269627700
 C          3.2318781254        3.8459547517       -0.1906610047
 C          2.0492850833        1.8018104166        0.5476598942
 C          1.8535209549        0.3116019891        0.6402431111
 H         -3.9379725220        2.3885435011       -1.7594209610
 H         -5.5886913309        2.7745212084       -2.2508359737
 H         -5.2481093608        2.3462146026       -0.5780734251
 H         -6.2705648971        0.4148461387       -1.7436904373
 H         -5.0582539430        0.5220168564       -3.0191657770
 H         -3.2725177551        0.0074874269       -1.3334069643
 H         -4.4359098409       -1.2928121511       -1.5860596720
 H         -5.6566599969       -0.5872879289        0.4727502272
 H         -4.4381337737        0.6616418354        0.7516045054
 H         -4.0384089361       -1.3978013510        2.0929526442
 H         -3.8631511973       -2.3285705984        0.5987963057
 H         -2.4367852210        0.5320977056        2.5139962630
 H         -0.7003256497        1.7025004686        3.1446437867
 H         -1.7267035597       -2.4044360275       -0.5071366402
 H          2.0751208564       -2.2925561396        1.4177584331
 H          2.4003613880       -3.6656728249        0.3654011616
 H          3.6709365970       -2.4727019959        0.6675770283
 H          3.7402894763       -2.6134938955       -1.9027907430
 H          2.4569968325       -1.8216807546       -2.8364686223
 H          2.1789165070       -3.4109011124       -2.1263217535
 H          1.9676875917        0.1428892618       -1.4841646027
 H          4.4578313108       -0.4807395781       -1.4592107471
 H          4.4124755550       -0.1997897174        0.2844920330
 H          5.0614822900        1.9044247846       -0.6576845290
 H          3.9037777857        1.7708106085       -1.9737972625
 H          2.4417715855        4.3617716282        0.3480923386
 H          3.2294183497        4.1849205814       -1.2266434352
 H          4.1908717387        4.1258133443        0.2455814231
 H          1.3546037033        2.4180582135        1.0935138183
 H          2.4073152903       -0.0295080337        1.5284018455
  53
        -68.44752197
 C         -5.3977000656       -1.2327563060        2.2444042017
 C         -5.5165521106       -1.8743408318        0.8666312016
 C         -4.4784541024       -1.3563451128       -0.1291001380
 C         -4.6935285279        0.1035493070       -0.5184689601
 C         -3.6716055535        0.5753813833       -1.5611091252
 C         -2.2739862094        0.5529553133       -1.0119386063
 C         -1.8622236833        1.5247313605       -0.1101303814
 C         -0.5811424371        1.5109374858        0.4197892368
 O         -0.2126278619        2.4562628817        1.3372446291
 C          0.3428213069        0.5308893196        0.0450843081
 C         -0.1051464094       -0.4864230430       -0.7996828257
 C         -1.3916310976       -0.4583233997       -1.3360859693
 O          0.6458724108       -1.5618476804       -1.1552119512
 C          1.8369777400       -1.8263871433       -0.4054923730
 C          1.4582457431       -2.4686587553        0.9328197708
 C          2.6155682042       -2.8298954828       -1.2589759359
 C          2.5910455402       -0.4986993212       -0.2519899524
 C          3.9823431586       -0.5701482853        0.3681066902
 C          4.6911746487        0.7636838649        0.1317455600
 C          3.7833482775        1.9492852972        0.3237414471
 C          4.4708056660        3.2816718012        0.2829175867
 C          2.4737081970        1.8363467708        0.4915395584
 C          1.7647821207        0.5091988768        0.5534041595
 H         -6.0898286723       -1.7012338263        2.9408266650
 H         -4.3878347738       -1.3514961728        2.6313910769
 H         -5.6280751539       -0.1713560520        2.2036306571
 H         -5.3883689721       -2.9544700440        0.9707811015
 H         -6.5193531645       -1.6984487318        0.4695528446
 H         -4.5233636056       -1.9692392624       -1.0328355809
 H         -3.4796670386       -1.4701510148        0.2974279305
 H         -4.6107476135        0.7360908538        0.3662416823
 H         -5.7001364301        0.2240319962       -0.9266565428
 H         -3.7307756665       -0.0683390292       -2.4402064730
 H         -3.9251194865        1.5936295757       -1.8665046227
 H         -2.5476616234        2.3084834394        0.1875331330
 H         -0.9631339124        3.0390006466        1.5039086484
 H         -1.6791889237       -1.2565401696       -2.0017252949
 H          0.9942727397       -3.4354551047        0.7510167516
 H          2.3425589015       -2.6122875085        1.5469380622
 H          0.7456282361       -1.8475360567        1.4695256278
 H          3.0105540634       -2.3456797450       -2.1482274855
 H          1.9408203331       -3.6225657805       -1.5716405612
 H          3.4318554370       -3.2663575460       -0.6920581853
 H          2.6943450354       -0.0975309937       -1.2690078396
 H          4.5709393714       -1.3764553357       -0.0707552609
 H          3.8975426235       -0.7563569671        1.4404599004
 H          5.5522542259        0.8533174076        0.7999555217
 H          5.0800295187        0.7937043515       -0.8923721637
 H          3.7537510374        4.0930289221        0.3730152705
 H          5.0169878951        3.3984169634       -0.6531283719
 H          5.1911410614        3.3614969037        1.0972213024
 H          1.8687428135        2.7170838186        0.6273282795
 H          1.7418398511        0.2071353209        1.6117478084
  53
        -68.44752177
 C         -5.4016382298       -1.2256678542        2.2443537052
 C         -5.5221567842       -1.8677514838        0.8669778477
 C         -4.4819419040       -1.3539544824       -0.1287043101
 C         -4.6939837528        0.1054497985       -0.5215590967
 C         -3.6696352664        0.5732806079       -1.5635772093
 C         -2.2728303305        0.5501152935       -1.0122932527
 C         -1.8618948749        1.5219975308       -0.1101969793
 C         -0.5811321718        1.5085362880        0.4204304190
 O         -0.2133263394        2.4537417589        1.3382885818
 C          0.3433590301        0.5288979105        0.0459955983
 C         -0.1039767826       -0.4888810183       -0.7985187850
 C         -1.3902381414       -0.4612839640       -1.3354617654
 O          0.6476067504       -1.5641477420       -1.1533522012
 C          1.8389069502       -1.8274102723       -0.4034448412
 C          1.4606344755       -2.4686890040        0.9354644581
 C          2.6181056553       -2.8312649579       -1.2559583472
 C          2.5921706578       -0.4991309979       -0.2511785145
 C          3.9838977870       -0.5688824360        0.3681221323
 C          4.6913385077        0.7654421028        0.1303061670
 C          3.7824951424        1.9504059655        0.3213885819
 C          4.4685074695        3.2834718237        0.2781412853
 C          2.4730971787        1.8363802606        0.4902796320
 C          1.7654656798        0.5086198967        0.5538836300
 H         -6.0973095746       -1.6895959149        2.9402618098
 H         -4.3929982249       -1.3497516781        2.6327590666
 H         -5.6259277203       -0.1630373821        2.2022979405
 H         -5.3979346006       -2.9482490459        0.9719557384
 H         -6.5241011790       -1.6885232409        0.4693180721
 H         -4.5268870961       -1.9686872886       -1.0311657376
 H         -3.4838466235       -1.4686418802        0.2992141503
 H         -4.6117003525        0.7398535000        0.3618493653
 H         -5.6997076513        0.2267352725       -0.9316432362
 H         -3.7283390834       -0.0724025453       -2.4412639396
 H         -3.9210715078        1.5912119826       -1.8718535045
 H         -2.5477008112        2.3055911711        0.1870285173
 H         -0.9641448355        3.0360952084        1.5048848890
 H         -1.6768819974       -1.2590859677       -2.0020198573
 H          0.9977990214       -3.4362191536        0.7546927565
 H          2.3449605336       -2.6106118494        1.5499477380
 H          0.7472071640       -1.8477432250        1.4712770575
 H          3.0128640157       -2.3476836938       -2.1456508822
 H          1.9438449177       -3.6246287940       -1.5679136800
 H          3.4346204358       -3.2666934953       -0.6885696281
 H          2.6945031709       -0.0985865348       -1.2685335763
 H          4.5729767350       -1.3749677555       -0.0704824851
 H          3.8999704434       -0.7543707011        1.4406611810
 H          5.5525894500        0.8565172124        0.7981164941
 H          5.0797716770        0.7949021407       -0.8939771681
 H          5.0118027575        3.4003877501       -0.6595926205
 H          5.1911673853        3.3643443025        1.0902760788
 H          3.7508842176        4.0941551273        0.3699943051
 H          1.8673939331        2.7166592344        0.6258379136
 H          1.7433370434        0.2073955892        1.6124633355
  53
        -68.44750721
 C         -6.5460423367        1.0926613173       -1.8066280309
 C         -5.0540804215        1.3780854226       -1.6770891338
 C         -4.4369851500        0.8022039945       -0.4024382626
 C         -4.4078783925       -0.7238278185       -0.3830444415
 C         -3.6903735764       -1.2697322089        0.8585101448
 C         -2.2357684042       -0.8974830441        0.8620728723
 C         -1.7553838132        0.1131467512        1.6816288860
 C         -0.4199462715        0.4883953389        1.6452916967
 O          0.0381083156        1.4593694814        2.4928947120
 C          0.4764843652       -0.1242140200        0.7659826288
 C          0.0020443065       -1.1955084313        0.0051895197
 C         -1.3424090041       -1.5577844990        0.0399978574
 O          0.7874480632       -1.9572813489       -0.8010817092
 C          2.2071122064       -1.8619274014       -0.6381761193
 C          2.6258861057       -2.6455528322        0.6097653320
 C          2.7851230664       -2.5308252308       -1.8871938349
 C          2.5645054909       -0.3710627758       -0.5694502582
 C          4.0488490466       -0.0218102083       -0.5718024043
 C          4.1972190165        1.4770600049       -0.8345918673
 C          3.1757531236        2.3032064548       -0.0992109005
 C          3.3894288225        3.7855724436       -0.1790450130
 C          2.1495355963        1.7724659283        0.5498915357
 C          1.9253762164        0.2872068241        0.6573850422
 H         -7.0802352938        1.4545983893       -0.9304822521
 H         -6.9509919252        1.5918384949       -2.6842273546
 H         -6.7332236887        0.0269539817       -1.9085486047
 H         -4.5296439767        0.9709964396       -2.5444515075
 H         -4.9019635908        2.4602629414       -1.6785832425
 H         -4.9972478131        1.1647455570        0.4633287587
 H         -3.4117390339        1.1690747532       -0.3140342994
 H         -3.8947308175       -1.0841892585       -1.2768295381
 H         -5.4268963219       -1.1140738830       -0.3954595318
 H         -4.1769510398       -0.8791613985        1.7546146926
 H         -3.7842182531       -2.3579721374        0.8671114299
 H         -2.4258097998        0.6175202843        2.3662683617
 H         -0.6915825566        1.7584944825        3.0484981174
 H         -1.6620446525       -2.3788387009       -0.5820061152
 H          3.6895549985       -2.5240592231        0.7931747552
 H          2.0702548321       -2.3072975332        1.4806750845
 H          2.4119111750       -3.7016575601        0.4619817407
 H          2.6153556013       -1.9103200686       -2.7632164266
 H          2.2835113086       -3.4829938838       -2.0393033470
 H          3.8495367971       -2.7088971395       -1.7709835025
 H          2.1089198412        0.0839766563       -1.4590303066
 H          4.5860578989       -0.5795512811       -1.3396047929
 H          4.4862958928       -0.2702130038        0.3970610267
 H          5.2014696626        1.8081217245       -0.5555175221
 H          4.0857834943        1.6721008323       -1.9072047718
 H          2.5918362476        4.3220602598        0.3275137482
 H          3.4237939233        4.1085871958       -1.2195640759
 H          4.3392319460        4.0568759672        0.2820030592
 H          1.4475120027        2.4081221856        1.0630964318
 H          2.4418492261       -0.0496943513        1.5692495795
  53
        -68.44747424
 C         -6.8431017617       -1.8169137614        0.5709557202
 C         -5.3640868090       -1.8694147349        0.9372256485
 C         -4.4573302197       -1.2339850439       -0.1170358473
 C         -4.6368676265        0.2771483889       -0.2345927216
 C         -3.6385714857        0.8999671289       -1.2200887422
 C         -2.2227769601        0.7666895228       -0.7378382631
 C         -1.7517808823        1.5846731249        0.2801023136
 C         -0.4519192710        1.4668118134        0.7476542893
 O         -0.0228637098        2.2581699623        1.7775390164
 C          0.4306731618        0.5343404924        0.1944368098
 C         -0.0758603512       -0.3374399533       -0.7712002040
 C         -1.3802131227       -0.2028778358       -1.2445689110
 O          0.6321278098       -1.3645592690       -1.3104554782
 C          1.8410648150       -1.7628569930       -0.6540453209
 C          1.4919894529       -2.5832140904        0.5918093180
 C          2.5598803735       -2.6497946403       -1.6729548994
 C          2.6373668145       -0.4890087472       -0.3408913651
 C          4.0480984503       -0.6801603179        0.2054495309
 C          4.7840358780        0.6581435674        0.1350938136
 C          3.9164193395        1.8235623019        0.5298161608
 C          4.6377684813        3.1330995062        0.6492713827
 C          2.6113601072        1.7161297475        0.7332435226
 C          1.8698383282        0.4091603013        0.6344525321
 H         -7.0103060254       -2.2778570751       -0.4002591350
 H         -7.4347768975       -2.3524332516        1.3102480591
 H         -7.2006599963       -0.7912930519        0.5315947764
 H         -5.2092843061       -1.3671912107        1.8951218054
 H         -5.0705070103       -2.9144089881        1.0627687656
 H         -4.6543859499       -1.6971272953       -1.0867688938
 H         -3.4168842976       -1.4405858706        0.1436277595
 H         -4.5016739107        0.7320221710        0.7493626678
 H         -5.6483658224        0.5047383882       -0.5752173691
 H         -3.7430537874        0.4122817708       -2.1905794387
 H         -3.8807455725        1.9585555824       -1.3427265699
 H         -2.4051444724        2.3284699360        0.7189505138
 H         -0.7506082054        2.8248655089        2.0601096400
 H         -1.7128588108       -0.8851831869       -2.0106357744
 H          2.3930547605       -2.8335237942        1.1442589377
 H          0.8158868307       -2.0306000246        1.2392471194
 H          0.9955603250       -3.5031388920        0.2912870255
 H          1.8520467969       -3.3728768064       -2.0698069486
 H          3.3828582740       -3.1826225237       -1.2070719841
 H          2.9368693088       -2.0510823089       -2.4979805374
 H          2.7141689687        0.0533400161       -1.2926701067
 H          4.5976798178       -1.4269199341       -0.3685448012
 H          3.9979299662       -1.0181659216        1.2422841475
 H          5.6703838183        0.6317883006        0.7751737877
 H          5.1370880311        0.8268603954       -0.8885282455
 H          3.9472910292        3.9381938550        0.8851810745
 H          5.1487107555        3.3712639089       -0.2836844013
 H          5.3922869151        3.0800275120        1.4342634473
 H          2.0357602557        2.5812341712        1.0169394116
 H          1.8792733606       -0.0418103976        1.6385909225
  53
        -68.44747290
 C         -6.8504966842       -1.7710154812        0.6270939538
 C         -5.3687502029       -1.8288760301        0.9815194106
 C         -4.4654764498       -1.2293190737       -0.0964343088
 C         -4.6380752934        0.2787340245       -0.2565936955
 C         -3.6336963904        0.8693579034       -1.2554821275
 C         -2.2200346008        0.7441969247       -0.7646818589
 C         -1.7547580022        1.5775176337        0.2434258385
 C         -0.4570396996        1.4682479133        0.7187659488
 O         -0.0346509816        2.2743978718        1.7399117693
 C          0.4298128253        0.5299264142        0.1824856947
 C         -0.0707789752       -0.3559240697       -0.7733909520
 C         -1.3736089122       -0.2310372755       -1.2537035536
 O          0.6417058717       -1.3882390124       -1.2964645772
 C          1.8504440054       -1.7739170567       -0.6322413522
 C          1.5011945761       -2.5811421546        0.6221234836
 C          2.5754713946       -2.6698583932       -1.6388509012
 C          2.6412976285       -0.4936223543       -0.3317488217
 C          4.0507670618       -0.6739053835        0.2216223787
 C          4.7827994275        0.6657566573        0.1382477769
 C          3.9104580296        1.8325154959        0.5183830753
 C          4.6276284936        3.1452836644        0.6279254922
 C          2.6050129061        1.7232681500        0.7181624379
 C          1.8673373146        0.4133871016        0.6302984506
 H         -7.4403051935       -2.2827064056        1.3845646315
 H         -7.1986383831       -0.7432266566        0.5660554072
 H         -7.0310959376       -2.2538028904       -0.3310240395
 H         -5.2004472052       -1.3039185950        1.9248490764
 H         -5.0838220617       -2.8731259147        1.1311216279
 H         -4.6708431686       -1.7191757190       -1.0511829601
 H         -3.4245415616       -1.4338736480        0.1640011888
 H         -4.5038772076        0.7600269946        0.7147889389
 H         -5.6474857564        0.5013338629       -0.6066149860
 H         -3.7366163192        0.3551262778       -2.2123654543
 H         -3.8708239685        1.9251284999       -1.4087675107
 H         -2.4111188852        2.3266163327        0.6685806310
 H         -0.7649594817        2.8433476664        2.0111512498
 H         -1.7017511878       -0.9250659255       -2.0111347822
 H          1.0091138859       -3.5063571492        0.3308074476
 H          2.4016917571       -2.8216948105        1.1797989260
 H          0.8211824429       -2.0237634476        1.2613464828
 H          1.8715630959       -3.4003709667       -2.0290143625
 H          3.3994179632       -3.1939149117       -1.1647953576
 H          2.9521557887       -2.0793690800       -2.4699052264
 H          2.7194731678        0.0376430587       -1.2896764163
 H          4.6046430061       -1.4255607158       -0.3417785929
 H          3.9981253687       -0.9998819197        1.2621794666
 H          5.6677259867        0.6491720118        0.7806329527
 H          5.1376877979        0.8243806790       -0.8863728250
 H          5.3782768222        3.1023821665        1.4172195606
 H          3.9337579381        3.9507667336        0.8522154721
 H          5.1426794046        3.3753932127       -0.3048029799
 H          2.0261457567        2.5894829317        0.9916833400
 H          1.8733824141       -0.0264392990        1.6394755656
  53
        -68.44746521
 C         -6.9273214973       -1.4669207338        0.8630712844
 C         -5.4734556448       -1.3927105884        1.3156367630
 C         -4.6830571041       -0.2780849343        0.6298905132
 C         -4.4715374181       -0.5196549249       -0.8623798578
 C         -3.5890575722        0.5608123584       -1.5014875956
 C         -2.1938850537        0.5400851352       -0.9462602263
 C         -1.7790428509        1.4805152528       -0.0149275924
 C         -0.4934095497        1.4511712033        0.5063957902
 O         -0.1221963610        2.3650957442        1.4540336967
 C          0.4291757237        0.4864404261        0.0937485581
 C         -0.0225177438       -0.5036054996       -0.7822581335
 C         -1.3107481865       -0.4586983346       -1.3099407586
 O          0.7291418933       -1.5644422022       -1.1782331452
 C          1.9242194379       -1.8517918261       -0.4433201498
 C          1.5531268008       -2.5375884279        0.8753809965
 C          2.6998173336       -2.8260215097       -1.3327021907
 C          2.6773380642       -0.5287377318       -0.2506121935
 C          4.0723695491       -0.6178067328        0.3586625729
 C          4.7775123760        0.7243211017        0.1615502464
 C          3.8687159060        1.9014254028        0.3966493712
 C          4.5535095185        3.2358163653        0.3935094677
 C          2.5603471544        1.7806111325        0.5688775680
 C          1.8542793595        0.4506994181        0.5922052946
 H         -6.9966110918       -1.7326874377       -0.1884014525
 H         -7.4635029971       -2.2192363143        1.4373995283
 H         -7.4210044912       -0.5084397315        1.0099795347
 H         -5.4499465783       -1.2222592718        2.3948809162
 H         -4.9837977385       -2.3499473489        1.1230566533
 H         -3.7047529131       -0.1975183224        1.1094764509
 H         -5.2042863037        0.6720032346        0.7728356827
 H         -5.4343584017       -0.5302164789       -1.3758944065
 H         -4.0001780754       -1.4941601103       -1.0042502605
 H         -3.5488648012        0.3871967039       -2.5791616826
 H         -4.0414714603        1.5399042496       -1.3314358297
 H         -2.4642999665        2.2507273263        0.3164075568
 H         -0.8731200074        2.9400164792        1.6443795530
 H         -1.6004537511       -1.2309950518       -2.0047950600
 H          1.0915585474       -3.4996979211        0.6649259906
 H          2.4404559957       -2.6977189265        1.4810110164
 H          0.8406146111       -1.9363318940        1.4343596592
 H          3.0899440232       -2.3126791156       -2.2076427575
 H          2.0245049985       -3.6090116425       -1.6677423451
 H          3.5193133699       -3.2796162767       -0.7841366694
 H          2.7740871080       -0.0942433819       -1.2544803789
 H          4.6597416182       -1.4083154075       -0.1095858969
 H          3.9941938887       -0.8388961189        1.4248708333
 H          5.6421739169        0.7940434771        0.8275176562
 H          5.1605839184        0.7880241786       -0.8632025264
 H          5.0926369602        3.3835026895       -0.5422456669
 H          5.2796199328        3.2910880908        1.2046921551
 H          3.8356591228        4.0424361892        0.5145536889
 H          1.9545576767        2.6553345560        0.7364988278
 H          1.8384084245        0.1142992233        1.6402311860
  53
        -68.44735288
 C         -7.9974574604        0.3743541580       -0.6675818478
 C         -6.5395173241        0.5120331518       -0.2456709466
 C         -5.5901525891        0.0327061879       -1.3419253019
 C         -4.1147052468        0.2539807683       -1.0109887664
 C         -3.6144495730       -0.6213359389        0.1445477225
 C         -2.1394872007       -0.4253649473        0.3414840253
 C         -1.6656527387        0.5645876874        1.1902791791
 C         -0.3047826508        0.7916796483        1.3325447242
 O          0.1396857406        1.7429567284        2.2091262655
 C          0.6292570974        0.0467510560        0.6072181433
 C          0.1461185878       -0.9982469097       -0.1832712543
 C         -1.2232701750       -1.2113418648       -0.3295263836
 O          0.9431923394       -1.8740812650       -0.8499088015
 C          2.3289853282       -1.9260425008       -0.4921389686
 C          2.4823313755       -2.6982656918        0.8220060431
 C          2.9927835001       -2.7043677162       -1.6302383690
 C          2.8398754447       -0.4812017465       -0.4122731929
 C          4.3403483545       -0.2957948906       -0.2133930882
 C          4.6929549931        1.1656057665       -0.4918790094
 C          3.6800683106        2.1279975764        0.0690074800
 C          4.0695471061        3.5737372260       -0.0189040673
 C          2.5206376169        1.7396734398        0.5799514768
 C          2.1166097999        0.2934574746        0.6939961165
 H         -8.1950673349        0.9655271507       -1.5593687499
 H         -8.2333990260       -0.6645499825       -0.8881217513
 H         -8.6605772325        0.7158427658        0.1240812458
 H         -6.3258080500        1.5590898700       -0.0176856642
 H         -6.3771369749       -0.0681900740        0.6641911879
 H         -5.8234022917        0.5714195874       -2.2639678571
 H         -5.7629438045       -1.0297563638       -1.5292691849
 H         -3.9500580386        1.3047150698       -0.7614465746
 H         -3.5145135816        0.0286326117       -1.8954888600
 H         -4.1452951419       -0.3591756383        1.0607110777
 H         -3.8207137717       -1.6678759863       -0.0868874242
 H         -2.3636926448        1.1668676403        1.7583158186
 H         -0.6208507347        2.1441572203        2.6464287957
 H         -1.5449079791       -2.0175561365       -0.9696013619
 H          2.1716152131       -3.7298948144        0.6731409659
 H          3.5180460290       -2.6860939112        1.1490135622
 H          1.8555548999       -2.2655790586        1.5976072872
 H          3.0148021741       -2.1057032121       -2.5370857409
 H          2.4124554156       -3.6021848841       -1.8264438486
 H          4.0045606099       -2.9914846976       -1.3617684344
 H          2.5657489966       -0.0168774169       -1.3689150011
 H          4.9114602379       -0.9404724104       -0.8822672050
 H          4.6088216527       -0.5493959748        0.8139145575
 H          5.6800092737        1.3969768465       -0.0817607244
 H          4.7536683698        1.3263559307       -1.5741896449
 H          3.2745758882        4.2146665633        0.3523371387
 H          4.2865340722        3.8462520993       -1.0517708960
 H          4.9695064412        3.7600235134        0.5673605243
 H          1.8311009885        2.4689672513        0.9709116718
 H          2.4611267692       -0.0589263800        1.6783288802
  53
        -68.44734817
 C         -7.7743939814       -0.4555120827       -1.5078277007
 C         -6.2671602224       -0.5628728742       -1.3095699903
 C         -5.6950706428        0.6962116113       -0.6616306343
 C         -4.1712426403        0.6830520645       -0.5459492853
 C         -3.6474021523       -0.3598598265        0.4488156038
 C         -2.1553875600       -0.2535177855        0.5724100451
 C         -1.5807500587        0.5843729976        1.5171944590
 C         -0.2039195535        0.7322416124        1.5967638353
 O          0.3413866236        1.5286970162        2.5658807820
 C          0.6447134908        0.0613494423        0.7118422930
 C          0.0616111337       -0.8389685637       -0.1824801153
 C         -1.3231390040       -0.9725748351       -0.2629949571
 O          0.7709256303       -1.6423988830       -1.0181062866
 C          2.1717169990       -1.8019188762       -0.7661414248
 C          2.3664782104       -2.7591592288        0.4139465343
 C          2.7242926575       -2.4368609409       -2.0440931782
 C          2.7585152971       -0.4054053000       -0.5204001674
 C          4.2758387781       -0.3116175396       -0.4011022444
 C          4.6829731014        1.1590178084       -0.4961812512
 C          3.7564567413        2.0718958795        0.2620769167
 C          4.2115290673        3.4983088031        0.3504953024
 C          2.6131177887        1.6621494010        0.7921692308
 C          2.1450627965        0.2321611202        0.7302749752
 H         -8.0166525404        0.3878603156       -2.1511877178
 H         -8.1666121255       -1.3603264027       -1.9665692911
 H         -8.2751775054       -0.3106010603       -0.5527869402
 H         -6.0520542795       -1.4310684352       -0.6845555109
 H         -5.7843772119       -0.7195602735       -2.2768985611
 H         -6.1330037319        0.8213079751        0.3318620195
 H         -5.9898897119        1.5609286853       -1.2619100986
 H         -3.8316445462        1.6700963597       -0.2223757023
 H         -3.7311699426        0.4900842020       -1.5265543299
 H         -4.1161190072       -0.1929377468        1.4211490501
 H         -3.9130142072       -1.3595704462        0.1047521617
 H         -2.2109556811        1.1275147966        2.2103946204
 H         -0.3693806008        1.8939661918        3.1062568755
 H         -1.7241739579       -1.6649504860       -0.9861206555
 H          3.4195402347       -2.8355771098        0.6689267404
 H          1.8103901663       -2.4164127368        1.2828107270
 H          1.9965255914       -3.7456522730        0.1438735589
 H          2.0883163078       -3.2726898983       -2.3238843452
 H          3.7347767928       -2.8010247448       -1.8874980878
 H          2.7210296509       -1.7164671022       -2.8578966973
 H          2.4490449963        0.2015438946       -1.3816501461
 H          4.7712750910       -0.8768788141       -1.1911674944
 H          4.5947343423       -0.7199856386        0.5597815695
 H          5.7040117342        1.2891659344       -0.1266787075
 H          4.6839911297        1.4700047376       -1.5469963618
 H          5.1550274320        3.5620965275        0.8927598733
 H          3.4747805131        4.1113009703        0.8623774619
 H          4.3760085711        3.9067253201       -0.6466581823
 H          1.9866002455        2.3556374972        1.3276685793
 H          2.5318865560       -0.2709501275        1.6297242533
  53
        -68.44734726
 C         -8.0941099431       -0.0171170786       -0.3577475374
 C         -6.6232138292        0.2540679681       -0.0654768870
 C         -5.7758040129       -1.0053620189       -0.2342662703
 C         -4.3107294462       -0.8115379321        0.1549283322
 C         -3.5494991936        0.1223732173       -0.7938284134
 C         -2.0989279983        0.1847803837       -0.4123924313
 C         -1.6538295379        1.1104307097        0.5203131539
 C         -0.3193979515        1.1608440836        0.8950945537
 O          0.0886695902        2.0571193034        1.8443471394
 C          0.6202781297        0.2940042827        0.3302566200
 C          0.1476075645       -0.6889509371       -0.5420252806
 C         -1.1926365489       -0.7243850895       -0.9218716554
 O          0.9263320892       -1.6675314995       -1.0737730724
 C          2.2162281968       -1.8889828068       -0.4922627966
 C          2.0519679764       -2.6594649330        0.8216445741
 C          2.9558900911       -2.7574391674       -1.5122427312
 C          2.8841404504       -0.5188108215       -0.3150332692
 C          4.3430132645       -0.5206920133        0.1287661349
 C          4.9164941306        0.8819778132       -0.0738335454
 C          3.9546104569        1.9691662876        0.3255048943
 C          4.5314825228        3.3536338456        0.3192226017
 C          2.6878514439        1.7344042870        0.6358027598
 C          2.0917420723        0.3518287376        0.6653209172
 H         -8.6833252502        0.8891437029       -0.2370411738
 H         -8.2198064110       -0.3745667339       -1.3775770595
 H         -8.4855603657       -0.7734796476        0.3194138986
 H         -6.2652596503        1.0338453151       -0.7396786233
 H         -6.5193329002        0.6227386406        0.9578812311
 H         -5.8322473861       -1.3413788204       -1.2723694970
 H         -6.1993076255       -1.7957972460        0.3908372110
 H         -3.8112413497       -1.7830844959        0.1526961384
 H         -4.2526926308       -0.4149073085        1.1712301440
 H         -3.6460311970       -0.2519351733       -1.8145639876
 H         -3.9824680514        1.1225879979       -0.7504601352
 H         -2.3542276233        1.8060381558        0.9655594428
 H         -0.6765574699        2.5595805520        2.1486127337
 H         -1.5019678907       -1.4872026716       -1.6187247759
 H          1.6450323792       -3.6463862730        0.6134009160
 H          3.0122750523       -2.7717597921        1.3166102943
 H          1.3634266235       -2.1437582714        1.4861634254
 H          3.8648439372       -3.1666750938       -1.0826464385
 H          3.2030860517       -2.1765179191       -2.3969188115
 H          2.3075972246       -3.5771618892       -1.8108084477
 H          2.8308265914       -0.0340134910       -1.2989232182
 H          4.9305811126       -1.2389767595       -0.4439428057
 H          4.4058771217       -0.7946506348        1.1836378437
 H          5.8451263634        0.9919942675        0.4931933745
 H          5.1714515788        1.0227677164       -1.1302815850
 H          4.9444058011        3.5882615135       -0.6619085846
 H          5.3414470010        3.4300008382        1.0447947560
 H          3.7738882943        4.0925038139        0.5655837355
 H          2.0410279183        2.5482608749        0.9176038870
 H          2.2215628797       -0.0314634915        1.6890208123
  53
        -68.44734108
 C         -7.8470366720       -0.9344637841       -1.2238028597
 C         -6.3269264061       -0.8869548914       -1.1249314759
 C         -5.8676290668       -0.4746956527        0.2720688890
 C         -4.3510637154       -0.5257893474        0.4536120255
 C         -3.6058299582        0.5364819609       -0.3635570446
 C         -2.1332682693        0.4747150290       -0.0788516516
 C         -1.5836546075        1.1998214522        0.9685045529
 C         -0.2275798435        1.1288355546        1.2512558944
 O          0.2848232024        1.8237920750        2.3120996982
 C          0.6287972976        0.3397468886        0.4783383987
 C          0.0524638178       -0.4510926206       -0.5180856586
 C         -1.3087126436       -0.3637489818       -0.8032175935
 O          0.7447294755       -1.3491365077       -1.2671552522
 C          2.0540695158       -1.7243391065       -0.8246106971
 C          1.9294052849       -2.7105695511        0.3410356394
 C          2.6832599933       -2.4254077902       -2.0305565277
 C          2.8032188380       -0.4369920960       -0.4553883525
 C          4.2840187641       -0.5789811746       -0.1202259051
 C          4.9180799265        0.8121859473       -0.1118679139
 C          4.0407981552        1.8498648086        0.5363920081
 C          4.6886498165        3.1882848132        0.7325335523
 C          2.7843872545        1.6163096106        0.8871092491
 C          2.1190016777        0.2763681503        0.7150854793
 H         -8.2543287433       -1.6530160363       -0.5154815905
 H         -8.2741461404        0.0416167152       -1.0029606142
 H         -8.1577270665       -1.2258981700       -2.2245827091
 H         -5.9173444102       -1.8717439551       -1.3610779827
 H         -5.9447509003       -0.1806075757       -1.8635740448
 H         -6.3272184314       -1.1466412010        1.0016060109
 H         -6.2245632929        0.5359179243        0.4857013433
 H         -3.9820980097       -1.5139746488        0.1710505935
 H         -4.1152226441       -0.3773698070        1.5103335364
 H         -3.7759010298        0.3662006368       -1.4266856818
 H         -3.9946352597        1.5237870102       -0.1050193813
 H         -2.2178309695        1.8318269219        1.5776778687
 H         -0.4327757960        2.2940780741        2.7531468212
 H         -1.7001100720       -0.9760921433       -1.6000873938
 H          1.3115481165       -2.2940848867        1.1324906098
 H          1.4580242568       -3.6260706080       -0.0091330955
 H          2.9107678918       -2.9501445201        0.7401589311
 H          1.9754380269       -3.1506632297       -2.4234279819
 H          3.5936492441       -2.9423522906       -1.7439267454
 H          2.9066752419       -1.7058277935       -2.8138414115
 H          2.7164815148        0.2179490169       -1.3325662793
 H          4.7969732693       -1.2069841644       -0.8493679348
 H          4.3956506300       -1.0397539036        0.8631203135
 H          5.8833070344        0.7803582477        0.4012839372
 H          5.1169145927        1.1286196281       -1.1420323920
 H          5.5434965209        3.1009248670        1.4033169262
 H          3.9872909977        3.9024650219        1.1551802947
 H          5.0539668679        3.5760452082       -0.2184524236
 H          2.1996373473        2.3931057799        1.3506742371
 H          2.2907062383       -0.2885838799        1.6441240318
  53
        -68.44732263
 C         -3.2259863547       -3.0948622263        1.3165476666
 C         -3.6195275218       -1.6254715919        1.2304887588
 C         -4.6014132480       -1.3728861282        0.0868696251
 C         -4.9094128125        0.1122294573       -0.1322284286
 C         -3.9781817837        0.7867487903       -1.1516578786
 C         -2.5378872530        0.7357361946       -0.7348069405
 C         -2.0660358213        1.5788563577        0.2625483955
 C         -0.7491686387        1.5103290162        0.6908100771
 O         -0.3185384925        2.3203119281        1.7052495348
 C          0.1484765511        0.6038753427        0.1184890404
 C         -0.3515522196       -0.2830335519       -0.8367968131
 C         -1.6711584062       -0.1932807863       -1.2762481887
 O          0.3763831507       -1.2878023900       -1.3914320743
 C          1.5968067983       -1.6615417752       -0.7419210833
 C          1.2696395012       -2.4791055147        0.5117647267
 C          2.3239570680       -2.5423489381       -1.7599674264
 C          2.3715879869       -0.3707093177       -0.4440733805
 C          3.7919803549       -0.5292025519        0.0872810311
 C          4.4982998083        0.8243328881        0.0027202185
 C          3.6100174305        1.9742474162        0.3972928959
 C          4.3044397737        3.2997409923        0.4987824452
 C          2.3096689554        1.8408424570        0.6149935002
 C          1.5970973946        0.5167070511        0.5354065288
 H         -2.5537284141       -3.2632480553        2.1549138553
 H         -4.1052520225       -3.7222470049        1.4495936104
 H         -2.7191165011       -3.4024477907        0.4045600776
 H         -4.0800022015       -1.3158655838        2.1722459986
 H         -2.7223587929       -1.0241470620        1.0836331355
 H         -5.5300602445       -1.9053437534        0.3079361825
 H         -4.1948168733       -1.7956988142       -0.8334532021
 H         -4.8450920002        0.6380471039        0.8224768841
 H         -5.9330402702        0.2193569682       -0.4988674312
 H         -4.0948732743        0.2919719833       -2.1173511222
 H         -4.2880785476        1.8288105733       -1.2653678287
 H         -2.7354223028        2.2941818293        0.7236863436
 H         -1.0572655579        2.8619233365        2.0077447283
 H         -1.9987203158       -0.8884819178       -2.0326739728
 H          0.7916287957       -3.4117969800        0.2207884231
 H          2.1776168755       -2.7058378639        1.0630800209
 H          0.5836232945       -1.9362409055        1.1570616166
 H          2.6831926341       -1.9429452722       -2.5923826252
 H          1.6271354131       -3.2818704941       -2.1459203676
 H          3.1604306903       -3.0559182938       -1.2964961590
 H          2.4266422995        0.1676949880       -1.3996098837
 H          4.3511430620       -1.2665173154       -0.4896833919
 H          3.7606483951       -0.8637806722        1.1259678643
 H          5.3904584533        0.8208268013        0.6352259055
 H          4.8390293050        0.9940807549       -1.0249218555
 H          5.0675821351        3.2691256269        1.2765909475
 H          3.5993043541        4.0918689344        0.7352543472
 H          4.8010101455        3.5410906301       -0.4410765884
 H          1.7180372837        2.6956109218        0.8971017030
 H          1.6317501946        0.0730230338        1.5423590291
  53
        -68.44730185
 C         -5.3630006833       -3.2643501868        0.7630256036
 C         -5.5290049189       -1.7496704568        0.7648309489
 C         -4.5405466297       -1.0696120294       -0.1790679751
 C         -4.7011312628        0.4476508118       -0.1794200402
 C         -3.7002010767        1.1375430673       -1.1151789649
 C         -2.2852829566        0.9378145180       -0.6532875708
 C         -1.8065346315        1.6388767175        0.4428739131
 C         -0.5059379491        1.4556312328        0.8889760626
 O         -0.1367228832        2.1483266956        2.0068651366
 C          0.3641553454        0.5854338499        0.2256925792
 C         -0.1553805067       -0.1856482688       -0.8155896983
 C         -1.4597586734        0.0088221072       -1.2607660529
 O          0.5472800977       -1.1671661862       -1.4466281741
 C          1.7240717618       -1.6567193740       -0.7957805814
 C          1.3217900365       -2.5362699302        0.3925329152
 C          2.4297583830       -2.5065881211       -1.8539773937
 C          2.5639515648       -0.4365753839       -0.3933278582
 C          3.9528101907       -0.7089240729        0.1744206772
 C          4.7377159951        0.6055548099        0.2325407094
 C          3.8873232771        1.8072419560        0.5445890906
 C          4.6348425859        3.1038874776        0.6245724841
 C          2.5723022223        1.7406528009        0.7033421998
 C          1.8151414846        0.4360146471        0.6218201662
 H         -4.3569426036       -3.5364771634        1.0749529614
 H         -6.0720519128       -3.7301456400        1.4437928933
 H         -5.5308426796       -3.6651119947       -0.2344023852
 H         -6.5490121265       -1.4961405580        0.4656116640
 H         -5.3782352305       -1.3696461470        1.7779475703
 H         -4.6911287939       -1.4493452532       -1.1925577621
 H         -3.5213109201       -1.3214686662        0.1212340773
 H         -4.5592800590        0.8246930934        0.8354574492
 H         -5.7161414876        0.7039308614       -0.4929590009
 H         -3.8181618740        0.7389007020       -2.1242469894
 H         -3.9235338047        2.2064878525       -1.1408614330
 H         -2.4325709586        2.3376153356        0.9746435342
 H          0.7510940127        1.8864490830        2.2762444356
 H         -1.8084973753       -0.5925587955       -2.0852358192
 H          2.2027680310       -2.8636439956        0.9372788090
 H          0.6616452124       -1.9963781150        1.0669249165
 H          0.7882093415       -3.4110838098        0.0283610881
 H          2.8365895139       -1.8741122521       -2.6385859865
 H          1.7055660674       -3.1826290484       -2.3006992582
 H          3.2289998075       -3.0909444409       -1.4088693431
 H          2.6807082892        0.1551047138       -1.3106517117
 H          4.4967886842       -1.4244438460       -0.4424076234
 H          3.8620027417       -1.1316438636        1.1771336135
 H          5.5429410611        0.5276461643        0.9684380503
 H          5.2143753233        0.7859759850       -0.7370154215
 H          5.3783206352        3.0633885734        1.4205378410
 H          3.9608632923        3.9338400288        0.8193331837
 H          5.1626173099        3.2948284256       -0.3094213287
 H          2.0113905290        2.6505615458        0.8614975237
 H          1.8673052707       -0.0547073922        1.6090826937
  53
        -68.44729754
 C         -5.3652475398        2.5474314223       -1.6238774618
 C         -5.2623557510        1.0272014608       -1.6137731075
 C         -4.5276256780        0.5169555131       -0.3767583710
 C         -4.4234214236       -1.0051509125       -0.3601883717
 C         -3.6772235860       -1.5217848390        0.8765048327
 C         -2.2428867573       -1.0778462706        0.8730181094
 C         -1.8147495528       -0.0375781446        1.6812819338
 C         -0.4980817034        0.4006199297        1.6350216397
 O         -0.1520778462        1.3947179328        2.5054646243
 C          0.4183959716       -0.1724854631        0.7499102604
 C          0.0023076087       -1.2819962624        0.0101900507
 C         -1.3198588799       -1.7104893701        0.0577211513
 O          0.8379807155       -2.0154257361       -0.7767671175
 C          2.2448133691       -1.8649173806       -0.5614524901
 C          2.6406764751       -2.5689133738        0.7404766885
 C          2.8988141626       -2.5696731624       -1.7513029434
 C          2.5467091018       -0.3598832092       -0.5556310434
 C          4.0142261339        0.0517188225       -0.5062402286
 C          4.1255980472        1.5500012470       -0.8064574337
 C          2.9736498101        2.3622263924       -0.2792129694
 C          3.0686518424        3.8346127431       -0.5432347744
 C          1.9331458017        1.8227308737        0.3414556722
 C          1.8336109750        0.3392487388        0.6085191825
 H         -4.3738599089        2.9950599679       -1.6109626780
 H         -5.8869674505        2.8921217676       -2.5139851798
 H         -5.9092287180        2.8985173051       -0.7495247748
 H         -6.2658957461        0.5954144769       -1.6431668397
 H         -4.7330799080        0.6935740918       -2.5093813568
 H         -5.0554246185        0.8527774778        0.5191773436
 H         -3.5233872864        0.9448541703       -0.3499455347
 H         -3.8998211745       -1.3405425865       -1.2578667241
 H         -5.4272990636       -1.4367798259       -0.3764737042
 H         -4.1756948503       -1.1561552533        1.7758824604
 H         -3.7189393856       -2.6133027779        0.8811870044
 H         -2.4872826707        0.4490520834        2.3694465699
 H          0.7963268553        1.5598999919        2.4541733627
 H         -1.6005936495       -2.5587007806       -0.5464304554
 H          2.0439570129       -2.2053575513        1.5734400586
 H          2.4624512200       -3.6369956744        0.6406198137
 H          3.6933816991       -2.4068978313        0.9540375023
 H          3.9647136609       -2.6936513928       -1.5873908602
 H          2.7358098797       -2.0030166618       -2.6643004412
 H          2.4444119557       -3.5495930274       -1.8711796194
 H          2.1146489251        0.0301266746       -1.4864555953
 H          4.6038381343       -0.5048885485       -1.2348786541
 H          4.4204236340       -0.1593114751        0.4851176829
 H          5.0632536717        1.9430257707       -0.4035455104
 H          4.1619207130        1.7005356510       -1.8908315950
 H          2.1930356431        4.3578083674       -0.1683222842
 H          3.1559717841        4.0225511901       -1.6130235389
 H          3.9551272833        4.2485354195       -0.0627988276
 H          1.1084443335        2.4541482271        0.6394779622
 H          2.3862518865        0.1192217440        1.5382453497
  53
        -68.44729443
 C         -5.3355360774        2.5339330994       -1.6614670774
 C         -5.2450287958        1.0132358584       -1.6303418047
 C         -4.5169283382        0.5138721083       -0.3850243127
 C         -4.4232217670       -1.0085651455       -0.3489140079
 C         -3.6797635002       -1.5139456284        0.8939526883
 C         -2.2443677467       -1.0733684411        0.8874276770
 C         -1.8110901103       -0.0368807255        1.6977272757
 C         -0.4936096396        0.3985775450        1.6483150273
 O         -0.1422064157        1.3883808424        2.5215757435
 C          0.4181220772       -0.1725830061        0.7571208498
 C         -0.0029763119       -1.2787009825        0.0151455252
 C         -1.3255424589       -1.7053074685        0.0668147675
 O          0.8278043869       -2.0104089953       -0.7785640653
 C          2.2359883024       -1.8615414302       -0.5712846388
 C          2.6395244665       -2.5716780557        0.7249062943
 C          2.8820317013       -2.5614168032       -1.7683615620
 C          2.5389388760       -0.3567162675       -0.5606732953
 C          4.0071224278        0.0533352911       -0.5181669354
 C          4.1180907433        1.5526799402       -0.8128812412
 C          2.9707648044        2.3637684177       -0.2740536877
 C          3.0661559210        3.8373542789       -0.5308935846
 C          1.9334128610        1.8224806317        0.3503876598
 C          1.8333328877        0.3378005879        0.6107821163
 H         -5.8784728760        2.9014030796       -0.7932503668
 H         -4.3405311569        2.9735591100       -1.6525070112
 H         -5.8525212387        2.8706072615       -2.5573309713
 H         -6.2518997293        0.5891146172       -1.6561906960
 H         -4.7165142438        0.6632103194       -2.5201674810
 H         -5.0443167009        0.8648266122        0.5053516564
 H         -3.5097129355        0.9350008579       -0.3612680039
 H         -3.9021258804       -1.3586763822       -1.2424480049
 H         -5.4298816410       -1.4337977562       -0.3595474611
 H         -4.1782199768       -1.1376908906        1.7889691002
 H         -3.7242015984       -2.6052816686        0.9102297035
 H         -2.4801534044        0.4489970096        2.3897923115
 H          0.8064605662        1.5512974453        2.4678823445
 H         -1.6101505294       -2.5509275063       -0.5391440164
 H          2.0486481569       -2.2110506794        1.5632909677
 H          2.4593868725       -3.6390995021        0.6215804854
 H          3.6937800242       -2.4117438393        0.9323323487
 H          2.7130790184       -1.9908327999       -2.6778100383
 H          2.4265807656       -3.5406946543       -1.8894013719
 H          3.9489603231       -2.6863353441       -1.6120838336
 H          2.1016621665        0.0377406924       -1.4871510000
 H          4.5918453683       -0.5007870490       -1.2525989323
 H          4.4189437749       -0.1621028550        0.4699121040
 H          5.0590270042        1.9429937842       -0.4150226130
 H          4.1468357165        1.7076701297       -1.8968462971
 H          3.9563191962        4.2474208504       -0.0540352546
 H          2.1937320637        4.3597595963       -0.1474954178
 H          3.1468445621        4.0308978334       -1.6001880228
 H          1.1116081887        2.4536326938        0.6568365817
 H          2.3907462826        0.1125789596        1.5364098666
  53
        -68.44723839
 C         -5.9114206120       -1.0459257504        2.5117286697
 C         -5.6281259298       -1.3964777465        1.0561909516
 C         -4.7522457328       -0.3451229044        0.3794313915
 C         -4.4673960229       -0.6910422041       -1.0790167142
 C         -3.5764770076        0.3549891105       -1.7610981834
 C         -2.2077333771        0.4027723781       -1.1448013326
 C         -1.8563054167        1.4130242578       -0.2645854865
 C         -0.5913427381        1.4474246082        0.3067031005
 O         -0.3498950552        2.4507186020        1.2015836888
 C          0.3672179254        0.4829327873       -0.0137006080
 C         -0.0287891389       -0.5848586175       -0.8225429736
 C         -1.2944935606       -0.6065830447       -1.3981716257
 O          0.7656405407       -1.6583733881       -1.0908258987
 C          1.9006864915       -1.8649538181       -0.2439930675
 C          1.4339768910       -2.3904999808        1.1174455565
 C          2.7288331743       -2.9357239779       -0.9564441702
 C          2.6521037632       -0.5294412281       -0.1557130067
 C          3.9983574205       -0.5377549428        0.5604273987
 C          4.7195585055        0.7859598379        0.2868699022
 C          3.7960213598        1.9692365208        0.1787619589
 C          4.4790031376        3.2799181034       -0.0706792224
 C          2.4763520243        1.8661472398        0.2607027560
 C          1.7841773852        0.5465219053        0.5087555567
 H         -6.4301410013       -0.0920922223        2.5800694053
 H         -6.5320172028       -1.8082258416        2.9775208391
 H         -4.9819786723       -0.9692545521        3.0718074587
 H         -5.1279400157       -2.3665821474        1.0075324671
 H         -6.5727798324       -1.4847168798        0.5138612397
 H         -3.8064735621       -0.2601038401        0.9185632395
 H         -5.2512777479        0.6256071438        0.4299766261
 H         -5.4116145686       -0.7639597384       -1.6243951947
 H         -3.9763595246       -1.6650687398       -1.1286570265
 H         -3.4857850286        0.1015498285       -2.8197901017
 H         -4.0498657344        1.3352238461       -1.6833374649
 H         -2.5543345005        2.1907024822        0.0013090345
 H          0.5220004250        2.3350296768        1.5962923320
 H         -1.5452660472       -1.4352994141       -2.0412628749
 H          0.6948363780       -1.7246601345        1.5560336289
 H          0.9721674911       -3.3664365295        0.9876507761
 H          2.2772417798       -2.4882209644        1.7952680723
 H          3.5097121714       -3.3156859077       -0.3050967485
 H          3.1758113619       -2.5302575022       -1.8602979369
 H          2.0738510172       -3.7562419902       -1.2371741380
 H          2.8209904307       -0.2183725270       -1.1949216842
 H          4.6218023658       -1.3634795810        0.2171496466
 H          3.8413724525       -0.6600178825        1.6341043285
 H          5.4635992047        0.9741207173        1.0659655149
 H          5.2668218902        0.7115008458       -0.6590392168
 H          3.7568516925        4.0859076892       -0.1699365245
 H          5.0730271854        3.2294724471       -0.9827977318
 H          5.1557806964        3.5161947093        0.7503443510
 H          1.8662307811        2.7452646884        0.1105444268
 H          1.7727984947        0.3625807015        1.5969757367
  53
        -68.44722291
 C         -6.1966151324        0.6527076098       -2.6886757502
 C         -6.5407185674        0.8386213209       -1.2154741829
 C         -5.8190026836       -0.1506537805       -0.2996666252
 C         -4.3114605289        0.0795110723       -0.2322033779
 C         -3.6370617216       -0.8694777336        0.7653181474
 C         -2.1567179664       -0.6254794453        0.8018059555
 C         -1.6109901829        0.2830286367        1.6970819244
 C         -0.2514682383        0.5581435493        1.6952639616
 O          0.2704713081        1.4232524172        2.6171976403
 C          0.6054939718       -0.0524287131        0.7754332165
 C          0.0599620560       -1.0228192272       -0.0678858352
 C         -1.3087889836       -1.2842582308       -0.0670241915
 O          0.7938120288       -1.7771199507       -0.9278110347
 C          2.2149956121       -1.8024063041       -0.7521683286
 C          2.5611763999       -2.7095922800        0.4327072458
 C          2.7535757388       -2.4144496475       -2.0471380619
 C          2.6828182412       -0.3527579995       -0.5659883376
 C          4.1891637669       -0.1178606855       -0.5341815742
 C          4.4527029034        1.3811965963       -0.6793498686
 C          3.4875182443        2.2235608654        0.1116082312
 C          3.8118024355        3.6875426960        0.1461600294
 C          2.4176692503        1.7237215547        0.7130321876
 C          2.0821736092        0.2556761875        0.7052369356
 H         -6.4045509826       -0.3683771421       -3.0014167918
 H         -6.7901587171        1.3263578689       -3.3028625179
 H         -5.1467059439        0.8628783576       -2.8740185420
 H         -6.2924862923        1.8580377523       -0.9109168223
 H         -7.6182479741        0.7092019299       -1.0867611290
 H         -6.0141666567       -1.1686337526       -0.6452932402
 H         -6.2332078412       -0.0604072426        0.7081499338
 H         -4.1128176012        1.1116329407        0.0661133581
 H         -3.8633297715       -0.0747429935       -1.2144146557
 H         -4.0666807321       -0.7135741661        1.7573936018
 H         -3.8350688423       -1.9003952144        0.4660318131
 H         -2.2495761087        0.7817884722        2.4154543318
 H         -0.4399587457        1.7338296376        3.1911719518
 H         -1.6830609181       -2.0274627902       -0.7530800482
 H          2.2696571875       -3.7318119434        0.2023604378
 H          3.6291122030       -2.6836908370        0.6292710983
 H          2.0239745573       -2.3983516512        1.3249977390
 H          2.1834285318       -3.3113257941       -2.2749685188
 H          3.8004465705       -2.6809154302       -1.9409632070
 H          2.6393989447       -1.7169406430       -2.8727925044
 H          2.2721641795        0.2027974267       -1.4195939736
 H          4.6910934454       -0.6540519958       -1.3402512930
 H          4.5962809075       -0.4724908299        0.4146224878
 H          5.4755938575        1.6129555550       -0.3695394225
 H          4.3687684840        1.6657768377       -1.7342884113
 H          3.0499356761        4.2426990311        0.6864789243
 H          3.8832113783        4.0844557982       -0.8665376811
 H          4.7732068647        3.8513545110        0.6331562783
 H          1.7592632038        2.3696348236        1.2693667932
 H          2.5628926819       -0.1878584118        1.5906248040
  53
        -68.44721176
 C         -6.5505367815       -2.5251116294        0.1082601674
 C         -6.8023992223       -1.0404051084        0.3440518700
 C         -5.9001008685       -0.1360768428       -0.4964111442
 C         -4.4299870443       -0.2072179491       -0.0916067587
 C         -3.5723169858        0.7803799284       -0.8913645507
 C         -2.1317297681        0.6779372377       -0.4823384375
 C         -1.6338047915        1.4541863585        0.5540736313
 C         -0.3101491293        1.3461177041        0.9543961213
 O          0.1480409649        2.0950369415        2.0032317989
 C          0.5661851273        0.4656461925        0.3139854817
 C          0.0344364754       -0.3709095822       -0.6699043869
 C         -1.2932139225       -0.2464522866       -1.0741816747
 O          0.7403265275       -1.3508327674       -1.2931040313
 C          1.9885478580       -1.7496430902       -0.7152596546
 C          1.7193795206       -2.6406446468        0.5015507814
 C          2.6786063348       -2.5648596897       -1.8111350624
 C          2.7684610149       -0.4728574510       -0.3740995038
 C          4.2075172430       -0.6552358582        0.0961496854
 C          4.9081167224        0.7032447015        0.0619022222
 C          4.0336759206        1.8239748183        0.5579630215
 C          4.7298775543        3.1431579505        0.7149858266
 C          2.7424000418        1.6729963736        0.8146839476
 C          2.0269931611        0.3546907822        0.6806296073
 H         -5.5506931379       -2.8072143632        0.4271327558
 H         -7.2657489201       -3.1230385335        0.6688755975
 H         -6.6567351522       -2.7652913372       -0.9475223701
 H         -7.8437889541       -0.8169750550        0.0992225606
 H         -6.6561830505       -0.8114252271        1.4022895144
 H         -6.2438332061        0.8964416803       -0.3908024127
 H         -5.9984691501       -0.4091400313       -1.5497658066
 H         -4.0436379790       -1.2137794668       -0.2558941430
 H         -4.3337548259        0.0165765984        0.9735189254
 H         -3.6703041557        0.5570008765       -1.9553044183
 H         -3.9377351475        1.7953835296       -0.7205572590
 H         -2.2834688211        2.1562560558        1.0616645060
 H         -0.5787873673        2.6278711230        2.3473929473
 H         -1.6480772135       -0.8982582880       -1.8567766822
 H          2.6514499915       -2.8935814441        0.9985530511
 H          1.0608022596       -2.1398440709        1.2065995304
 H          1.2325663977       -3.5575944273        0.1772408107
 H          1.9699883120       -3.2853045320       -2.2113657879
 H          3.5353935806       -3.0988053776       -1.4123379105
 H          3.0012185103       -1.9156380770       -2.6208696035
 H          2.7874320717        0.1185951826       -1.2991448476
 H          4.7465480368       -1.3574973618       -0.5405871435
 H          4.2142194202       -1.0467226055        1.1152108682
 H          5.8246359522        0.6665895150        0.6574281372
 H          5.2074165023        0.9335260627       -0.9668432465
 H          4.0328112087        3.9173287401        1.0237754930
 H          5.1926021010        3.4424846240       -0.2254656149
 H          5.5201578169        3.0679519916        1.4620779521
 H          2.1611223672        2.5072479983        1.1700914136
 H          2.0935166811       -0.1468721727        1.6582701867
  53
        -68.44720313
 C         -6.5202297125        1.9368966372       -1.3412351289
 C         -6.4834175903        0.4426256339       -1.6400686479
 C         -5.7910365702       -0.3731238317       -0.5476777602
 C         -4.2912614547       -0.1046696021       -0.4531008521
 C         -3.6193047668       -1.0047694512        0.5903522156
 C         -2.1490824044       -0.7131890266        0.6664431839
 C         -1.6712788898        0.2896124888        1.4981439703
 C         -0.3216918705        0.6071509362        1.5307723734
 O          0.1323807573        1.5688265172        2.3909584860
 C          0.5942535115       -0.0569981296        0.7100787913
 C          0.1162856840       -1.1170843876       -0.0630864829
 C         -1.2435577452       -1.4204081965       -0.0996781218
 O          0.9107825597       -1.9234446592       -0.8150808800
 C          2.3220198020       -1.8875379996       -0.5732216590
 C          2.6350559484       -2.6695928208        0.7063135850
 C          2.9391638921       -2.5996800170       -1.7788392462
 C          2.7404462279       -0.4127457093       -0.5030016485
 C          4.2364382986       -0.1276314786       -0.4259407732
 C          4.4644569525        1.3593409633       -0.6992662151
 C          3.4395794533        2.2396662409       -0.0348449424
 C          3.7206169767        3.7102759462       -0.1237461417
 C          2.3567645823        1.7633365559        0.5624653620
 C          2.0633681025        0.2907637565        0.6774711286
 H         -6.9921190764        2.1205045399       -0.3781166020
 H         -5.5176614107        2.3557053089       -1.3200727712
 H         -7.0891954254        2.4607216839       -2.1061668232
 H         -7.5088709779        0.0803802717       -1.7474364723
 H         -5.9731073114        0.2755853993       -2.5912970526
 H         -5.9438239988       -1.4354571749       -0.7546908278
 H         -6.2599472454       -0.1550524702        0.4151346746
 H         -4.1133295731        0.9372546426       -0.1830224768
 H         -3.8257859484       -0.2805788074       -1.4252949300
 H         -4.0850384777       -0.8327025168        1.5633858427
 H         -3.7759808059       -2.0498511800        0.3172609195
 H         -2.3565594960        0.8298775424        2.1393438440
 H         -0.6123411224        1.9070775311        2.9024134208
 H         -1.5643258240       -2.2336099109       -0.7312457908
 H          2.0462838537       -2.2948083635        1.5396864286
 H          2.3840420697       -3.7176925990        0.5598718734
 H          3.6909332671       -2.5908356774        0.9486432388
 H          2.4053842909       -3.5314088499       -1.9471167396
 H          3.9865163562       -2.8219025708       -1.6002084180
 H          2.8462419314       -1.9856890771       -2.6708171013
 H          2.3555779532        0.0481837516       -1.4224310768
 H          4.7908666488       -0.7195308484       -1.1549347704
 H          4.6077633091       -0.3798287325        0.5691871878
 H          5.4645538634        1.6517090116       -0.3671165283
 H          4.4229139138        1.5423145536       -1.7789577301
 H          3.8275544925        4.0139169127       -1.1651718624
 H          4.6535033065        3.9494449157        0.3869657302
 H          2.9192325266        4.2881069487        0.3284481780
 H          1.6547008927        2.4363055329        1.0255540934
 H          2.5136612300       -0.0532501266        1.6211880030
  53
        -68.44719396
 C         -6.9586124513       -0.7571671549        1.5472090533
 C         -6.7653887042       -1.2979239873        0.1351560743
 C         -5.8634796382       -0.4161265224       -0.7292909706
 C         -4.4086941613       -0.4037575751       -0.2669148210
 C         -3.5207059568        0.4133362083       -1.2126527364
 C         -2.0985259691        0.4170336090       -0.7324804704
 C         -1.6681914613        1.3600131564        0.1899867897
 C         -0.3617843504        1.3584733194        0.6555965298
 O          0.0292251435        2.2748444957        1.5927709938
 C          0.5654413795        0.4194274832        0.1951591210
 C          0.1004244421       -0.5766643672       -0.6661324572
 C         -1.2109195215       -0.5603410181       -1.1376739463
 O          0.8592630121       -1.6169821344       -1.1003339817
 C          2.0928070097       -1.8777223699       -0.4210099218
 C          1.7981959091       -2.5789495137        0.9087891844
 C          2.8519198396       -2.8278408961       -1.3498432376
 C          2.8207020893       -0.5371364886       -0.2540774562
 C          4.2431304832       -0.5939449382        0.2925206712
 C          4.9052577272        0.7665283621        0.0728528022
 C          3.9785132290        1.9192940294        0.3539612202
 C          4.6289395080        3.2705544504        0.3280713481
 C          2.6824266290        1.7647096927        0.5828329529
 C          2.0116533176        0.4172609436        0.6299804781
 H         -7.6678199452       -1.3746826421        2.0939742139
 H         -6.0206036696       -0.7540895296        2.0960536422
 H         -7.3440161666        0.2599352239        1.5155429703
 H         -6.3420622356       -2.3035963827        0.1867739110
 H         -7.7424102332       -1.3753653852       -0.3482964526
 H         -6.2526130492        0.6051398754       -0.7291448510
 H         -5.8999910247       -0.7817367375       -1.7587419944
 H         -4.0304399479       -1.4273448099       -0.2213772477
 H         -4.3379269038        0.0217948024        0.7352222415
 H         -3.5706041595       -0.0182017810       -2.2139499153
 H         -3.8991683691        1.4367191695       -1.2629367393
 H         -2.3580075415        2.1109247079        0.5546072935
 H         -0.7259766295        2.8302117401        1.8205032635
 H         -1.5131594764       -1.3370401242       -1.8221301306
 H          1.3518047746       -3.5513492021        0.7133597210
 H          2.7153964769       -2.7195015712        1.4734338753
 H          1.0964388572       -1.9983958126        1.5021716843
 H          3.1893769657       -2.3006760593       -2.2383538825
 H          2.1821360418       -3.6261152680       -1.6588739574
 H          3.7063736636       -3.2630179006       -0.8411592075
 H          2.8620065582       -0.0955285927       -1.2586620005
 H          4.8287626517       -1.3670339540       -0.2060224661
 H          4.2177431351       -0.8223825756        1.3597350076
 H          5.7960244093        0.8548851266        0.7011154366
 H          5.2417365530        0.8447678370       -0.9671267284
 H          5.1241896496        3.4350724847       -0.6289118967
 H          5.3869930452        3.3412954381        1.1082556701
 H          3.8968088074        4.0583093698        0.4830026521
 H          2.0628415975        2.6231204724        0.7814379431
 H          2.0507240903        0.0757968832        1.6757368034
  53
        -68.44707591
 C         -3.3888699871        1.2157612824       -2.6615690833
 C         -3.5673303832        1.0128121857       -1.1620363391
 C         -4.5974783286       -0.0751303677       -0.8633614851
 C         -4.7793968811       -0.3503280900        0.6323568881
 C         -3.8214300577       -1.4160046011        1.1844827424
 C         -2.3795614093       -1.0145084603        1.0798331800
 C         -1.8579812468       -0.0483323367        1.9302955458
 C         -0.5436258923        0.3747061667        1.8078040489
 O         -0.0397033613        1.3008175362        2.6789819015
 C          0.2910804735       -0.1463571107        0.8143377958
 C         -0.2127958972       -1.1841375298        0.0281812667
 C         -1.5396201165       -1.5946427347        0.1495275379
 O          0.5227275441       -1.8646523798       -0.8895562045
 C          1.9472655485       -1.7238938231       -0.8445454562
 C          2.5016072521       -2.5664688236        0.3085056118
 C          2.4339480586       -2.2904521879       -2.1801014518
 C          2.2589834263       -0.2272835730       -0.7095749264
 C          3.7245788045        0.1797395068       -0.8169725268
 C          3.7983568112        1.6968274024       -0.9928218132
 C          2.8167290976        2.4350956593       -0.1220697043
 C          2.9705569074        3.9270248675       -0.1253521305
 C          1.8706393774        1.8250358950        0.5771061991
 C          1.7094955953        0.3280816373        0.6081827668
 H         -3.0270358995        0.3012356986       -3.1262440149
 H         -4.3336037453        1.4874509830       -3.1288761322
 H         -2.6685577885        2.0067745978       -2.8569099938
 H         -2.6077233410        0.7444427559       -0.7202339829
 H         -3.8952831874        1.9504954977       -0.7059910912
 H         -4.3015336576       -0.9975751495       -1.3666814658
 H         -5.5560081202        0.2356594745       -1.2876464875
 H         -5.7991197957       -0.7005105401        0.8105039285
 H         -4.6487768924        0.5801538982        1.1884185474
 H         -4.0715770829       -1.5908542865        2.2345761494
 H         -3.9797063684       -2.3490138078        0.6409095179
 H         -2.4827532931        0.3836394709        2.7018630260
 H         -0.7262750237        1.5391128696        3.3133085804
 H         -1.8861397775       -2.3811839984       -0.5017472648
 H          2.3103507700       -3.6188951558        0.1115096690
 H          3.5728159884       -2.4154458706        0.4059745490
 H          2.0153486599       -2.3045575107        1.2447840704
 H          2.1651568153       -1.6241093674       -2.9955907632
 H          1.9539449122       -3.2507588246       -2.3498330515
 H          3.5100033222       -2.4325524306       -2.1689432911
 H          1.7111514898        0.2639459525       -1.5248096450
 H          4.2103320190       -0.3074176031       -1.6630803590
 H          4.2541766882       -0.1112647111        0.0922102850
 H          4.8110687030        2.0494089699       -0.7781425300
 H          3.5880407498        1.9535978799       -2.0372144682
 H          3.9457148761        4.2082049194        0.2725330510
 H          2.2001751915        4.3995686599        0.4778224438
 H          2.9057155575        4.3130448156       -1.1426728199
 H          1.1939630395        2.3995614379        1.1873383032
 H          2.3164992528       -0.0427521990        1.4482645523
  53
        -68.44707260
 C         -3.4718406268        1.2477778727       -2.6590116211
 C         -3.5933555562        1.0097105414       -1.1588050575
 C         -4.6375081084       -0.0603093914       -0.8451409214
 C         -4.7849044732       -0.3538440913        0.6505896730
 C         -3.8150985321       -1.4248483558        1.1701126811
 C         -2.3751873648       -1.0161101354        1.0639944426
 C         -1.8577621659       -0.0476280586        1.9144062737
 C         -0.5436750368        0.3771293254        1.7955692634
 O         -0.0440510782        1.3058068335        2.6664734802
 C          0.2956311953       -0.1455286937        0.8068482261
 C         -0.2043526918       -1.1848965957        0.0203595841
 C         -1.5314350898       -1.5961047716        0.1370255331
 O          0.5358862360       -1.8668678121       -0.8925667635
 C          1.9603161907       -1.7278689669       -0.8383190970
 C          2.5058229771       -2.5682233217        0.3205482775
 C          2.4553487039       -2.2983951271       -2.1690849592
 C          2.2730721095       -0.2313293415       -0.7049946580
 C          3.7398891727        0.1736668684       -0.8030775847
 C          3.8168518094        1.6902910388       -0.9817469931
 C          2.8291123293        2.4319655196       -0.1208532403
 C          2.9841032608        3.9237306932       -0.1278547897
 C          1.8772443955        1.8248382834        0.5729970289
 C          1.7153006398        0.3280453130        0.6075783830
 H         -3.1559752028        0.3366746080       -3.1623215999
 H         -4.4272328683        1.5575734114       -3.0785345403
 H         -2.7382583297        2.0239044512       -2.8644827088
 H         -2.6236334977        0.7069821273       -0.7638524554
 H         -3.8787232870        1.9427717040       -0.6661668268
 H         -4.3767534466       -0.9815317317       -1.3698355915
 H         -5.6008699699        0.2774332843       -1.2368194563
 H         -5.8004209445       -0.7074893334        0.8457158912
 H         -4.6437958575        0.5703591133        1.2144737994
 H         -4.0548651833       -1.6232917476        2.2185751824
 H         -3.9736164876       -2.3472871402        0.6088613800
 H         -2.4853392697        0.3842441275        2.6837202091
 H         -0.7333033951        1.5449094079        3.2975749576
 H         -1.8750834424       -2.3834706917       -0.5148168735
 H          3.5766116694       -2.4186052884        0.4245167059
 H          2.0139771070       -2.3030338815        1.2529757513
 H          2.3142021577       -3.6208780288        0.1251263696
 H          1.9755352314       -3.2586641117       -2.3395312285
 H          3.5311747780       -2.4414982534       -2.1503664520
 H          2.1926550912       -1.6339356106       -2.9880758851
 H          1.7315561178        0.2585225344       -1.5252386767
 H          4.2309564310       -0.3159834136       -1.6446684748
 H          4.2627629365       -0.1160001812        0.1104088121
 H          4.8282366285        2.0421264250       -0.7596719384
 H          3.6154212500        1.9448199055       -2.0284499227
 H          3.9558170657        4.2054992629        0.2780211349
 H          2.2086158990        4.3988742899        0.4666766174
 H          2.9288954388        4.3063417523       -1.1470412181
 H          1.1960875797        2.4016452725        1.1760160424
 H          2.3170094419       -0.0403794741        1.4525165706
  53
        -68.44701225
 C         -3.8083827443        2.4138636690       -1.4825285788
 C         -3.5966508011        0.9169665445       -1.2900023360
 C         -4.7557851114        0.2807941372       -0.5247975735
 C         -4.5811629997       -1.2215195816       -0.2845511278
 C         -3.7952917371       -1.5601342143        0.9901414101
 C         -2.3698996669       -1.0934698245        0.9411427303
 C         -1.9395921696       -0.0237831924        1.7129990037
 C         -0.6344841064        0.4395264579        1.6262280105
 O         -0.2226815959        1.4732685836        2.4212915561
 C          0.2797526428       -0.1459298013        0.7467796836
 C         -0.1353297369       -1.2809482790        0.0458841648
 C         -1.4502075844       -1.7320376184        0.1301506663
 O          0.6837118618       -2.0218814420       -0.7459179890
 C          2.0962995984       -1.8181687970       -0.6254080492
 C          2.5998721085       -2.5093919877        0.6455661845
 C          2.6919706796       -2.5027805470       -1.8574610111
 C          2.3460678607       -0.3040039846       -0.6346406636
 C          3.8002325632        0.1511117574       -0.6931861713
 C          3.8318812673        1.6428323460       -1.0276798275
 C          2.7669212357        2.4270043088       -0.3080189844
 C          2.8658504319        3.9151471877       -0.4666724851
 C          1.7982938778        1.8550969900        0.3925581356
 C          1.6904518738        0.3644943982        0.5777556726
 H         -3.8769577664        2.9158941492       -0.5195941513
 H         -2.9794959198        2.8487357376       -2.0360033476
 H         -4.7277527261        2.6050262378       -2.0328138771
 H         -3.5079642183        0.4357046099       -2.2667751730
 H         -2.6622913776        0.7502564075       -0.7542344698
 H         -5.6727732074        0.4437022304       -1.0975869137
 H         -4.8783203140        0.7889675474        0.4343989332
 H         -4.0815813981       -1.6684989358       -1.1456152391
 H         -5.5675024359       -1.6837513004       -0.1958072412
 H         -4.3009087322       -1.1116651449        1.8480168490
 H         -3.8096743520       -2.6452587103        1.1209191628
 H         -2.6271767793        0.4639692527        2.3925701682
 H         -0.9578896896        1.7485730010        2.9818285020
 H         -1.7272479840       -2.5985141378       -0.4488824085
 H          2.0423782320       -2.1698971466        1.5148061893
 H          2.4590123194       -3.5838646538        0.5525546710
 H          3.6561127677       -2.3042121633        0.7941377491
 H          2.2581341321       -3.4948770249       -1.9518402950
 H          3.7690658329       -2.5977433821       -1.7621873786
 H          2.4562524194       -1.9388308250       -2.7561616602
 H          1.8372339251        0.0743253018       -1.5312872227
 H          4.3586111378       -0.4018459022       -1.4492503466
 H          4.2776911109       -0.0192263922        0.2736635653
 H          4.8142319955        2.0591680351       -0.7875504982
 H          3.6851779067        1.7780109494       -2.1052377821
 H          2.0402268895        4.4158597680        0.0315649395
 H          2.8546431668        4.1859392383       -1.5224937408
 H          3.8014096079        4.2800557517       -0.0425745848
 H          1.0607901611        2.4617745496        0.8909615745
 H          2.2536784470        0.1125199482        1.4893168165
  53
        -68.44701006
 C         -7.8384001962        0.7204938308       -1.7149050760
 C         -6.3349016195        0.9295443778       -1.5817755598
 C         -5.7152122494       -0.0294236438       -0.5681400759
 C         -4.2083463194        0.1716608923       -0.4355098296
 C         -3.5885009553       -0.7929705809        0.5818966520
 C         -2.1068923568       -0.5736345466        0.6753159096
 C         -1.5837925315        0.3287807959        1.5873621217
 C         -0.2194162360        0.5787072723        1.6338569324
 O          0.2142029161        1.4392415418        2.6017935538
 C          0.6553130877       -0.0456642357        0.7405218574
 C          0.1307545914       -1.0212851429       -0.1098494296
 C         -1.2390191726       -1.2607934697       -0.1549282665
 O          0.8975822877       -1.7991444292       -0.9235302963
 C          2.2990697891       -1.8651544346       -0.6411215304
 C          2.5286820767       -2.7218138998        0.6081671801
 C          2.9104080507       -2.5548786103       -1.8620436882
 C          2.8022952111       -0.4228023934       -0.4910710688
 C          4.3077929527       -0.2263578958       -0.3483259520
 C          4.6373650223        1.2608945073       -0.5116343852
 C          3.5816140060        2.1806730073        0.0396954721
 C          3.8893637133        3.6417935734       -0.0905029048
 C          2.4471835067        1.7435044393        0.5696673860
 C          2.1326525834        0.2718298674        0.7012801393
 H         -8.2596705879        1.4129550147       -2.4401433330
 H         -8.0547860768       -0.2939512275       -2.0431791477
 H         -8.3320981398        0.8822543960       -0.7590189641
 H         -5.8602310970        0.7812181802       -2.5544492163
 H         -6.1372744706        1.9582317355       -1.2717966238
 H         -5.9168689064       -1.0582454495       -0.8764969443
 H         -6.1876790306        0.1214707579        0.4055843405
 H         -4.0012827015        1.1979824610       -0.1245856709
 H         -3.7314879714        0.0187404258       -1.4061832407
 H         -4.0510386754       -0.6305436989        1.5572842568
 H         -3.7931259443       -1.8194410401        0.2715244259
 H         -2.2195998013        0.8469896005        2.2873889384
 H          1.1776968542        1.4723668389        2.6030531823
 H         -1.6011595180       -2.0078049620       -0.8433590538
 H          2.2114993657       -3.7425237928        0.4079854865
 H          3.5814596933       -2.7271642802        0.8758723742
 H          1.9457323169       -2.3472784136        1.4459688812
 H          2.8718967637       -1.8983502778       -2.7272936636
 H          2.3336944602       -3.4486259962       -2.0849054637
 H          3.9399891372       -2.8394136272       -1.6687457577
 H          2.4751947435        0.0986636036       -1.4000666939
 H          4.8523502481       -0.7989370022       -1.0993162382
 H          4.6304539888       -0.5720983845        0.6358942712
 H          5.5982359175        1.4846195831       -0.0397914272
 H          4.7485326342        1.4925913635       -1.5764249144
 H          4.0543889230        3.9022562595       -1.1356504628
 H          4.7990464611        3.8869051618        0.4575248133
 H          3.0756444692        4.2499921060        0.2954473307
 H          1.7018173005        2.4578257408        0.8886010860
 H          2.6017999796       -0.0987967031        1.6290357678
  53
        -68.44700798
 C         -8.1386142116       -1.1942153701       -0.1540770082
 C         -6.6747026104       -1.2579235944        0.2641374290
 C         -5.8181848095       -0.2591729696       -0.5104774940
 C         -4.3501266068       -0.3216231857       -0.0986539421
 C         -3.4922001159        0.6796928895       -0.8804543567
 C         -2.0548371896        0.5867617055       -0.4582342229
 C         -1.5812599408        1.3462695239        0.5994653919
 C         -0.2575960908        1.2483594387        1.0048212675
 O          0.1104062388        1.9970755378        2.0862635049
 C          0.6358538680        0.4046120964        0.3393418270
 C          0.1245171055       -0.4302029734       -0.6565486307
 C         -1.2016391061       -0.3199271065       -1.0622037141
 O          0.8584495316       -1.3945182550       -1.2781925153
 C          2.0819057146       -1.7957616085       -0.6533540511
 C          1.7699424093       -2.6509960298        0.5790112197
 C          2.7967755623       -2.6449402115       -1.7059261519
 C          2.8661688941       -0.5179347145       -0.3246121323
 C          4.2874108937       -0.6929266564        0.1996716088
 C          4.9987227312        0.6638560487        0.1818779472
 C          4.0940659627        1.8273509433        0.4860137635
 C          4.7701383690        3.1650182966        0.4939700256
 C          2.7914705121        1.6943679440        0.6970597333
 C          2.1057611961        0.3483212490        0.6872596882
 H         -8.5434425345       -0.2003762740        0.0248799960
 H         -8.2426821584       -1.4192005971       -1.2134357035
 H         -8.7305506744       -1.9122769703        0.4088908588
 H         -6.5930167390       -1.0491807632        1.3333163555
 H         -6.2924684449       -2.2672634497        0.0949979570
 H         -6.1993326819        0.7505586533       -0.3394360708
 H         -5.9027132799       -0.4665819495       -1.5800702290
 H         -3.9646972168       -1.3293133931       -0.2690215306
 H         -4.2597083187       -0.1104050730        0.9691220456
 H         -3.5783733660        0.4670811872       -1.9477743555
 H         -3.8667268874        1.6890779027       -0.7002135197
 H         -2.2275632990        2.0255308600        1.1321300184
 H          1.0197395309        1.7921898034        2.3323434389
 H         -1.5458222301       -0.9656036734       -1.8545293088
 H          1.2765596246       -3.5679303141        0.2654068408
 H          2.6856378484       -2.9067837428        1.1045102518
 H          1.1013971859       -2.1243421032        1.2555422295
 H          2.0958999749       -3.3747742722       -2.1023639237
 H          3.6414490685       -3.1689053732       -1.2696194139
 H          3.1414455898       -2.0209606963       -2.5262949992
 H          2.9169742888        0.0456413309       -1.2653643724
 H          4.8482335241       -1.3999982326       -0.4117820507
 H          4.2563107740       -1.0824225599        1.2193218551
 H          5.8339914102        0.6571622848        0.8877619090
 H          5.4278147465        0.8348989149       -0.8113098450
 H          5.2514057026        3.3514848084       -0.4657108006
 H          5.5436919739        3.1933643303        1.2612743326
 H          4.0583307789        3.9631299580        0.6871772119
 H          2.1865148854        2.5770463631        0.8469932760
 H          2.2191633974       -0.1034348609        1.6878678831
  53
        -68.44698977
 C         -4.2189442437       -0.8652528988        2.8633797623
 C         -3.8556492715       -1.1729593161        1.4155377065
 C         -4.9460932010       -0.7056541422        0.4530485668
 C         -4.6313081311       -0.9906492409       -1.0181728357
 C         -3.7956070350        0.1010976454       -1.7012587114
 C         -2.4127875344        0.2348829043       -1.1329922337
 C         -2.0597258171        1.3323680175       -0.3611354617
 C         -0.7839791735        1.4506321426        0.1719400175
 O         -0.4745872279        2.5194186168        0.9671879697
 C          0.1910573350        0.4801403564       -0.0722315174
 C         -0.1947327264       -0.6552785225       -0.7892056825
 C         -1.4724675070       -0.7583285191       -1.3334366285
 O          0.6148751109       -1.7255175179       -1.0041587696
 C          1.8007871214       -1.8375538857       -0.2092005541
 C          1.4231475246       -2.3222783352        1.1941830589
 C          2.6412518591       -2.9029900384       -0.9161735041
 C          2.4905239723       -0.4667479727       -0.2152730551
 C          3.8726786859       -0.3919334835        0.4243982302
 C          4.5218622929        0.9347887403        0.0293956436
 C          3.5558382029        2.0892567726        0.0569310945
 C          4.1802555545        3.4373889334       -0.1482268710
 C          2.2502631592        1.9347325510        0.2233499834
 C          1.6045048032        0.5928694854        0.4473010007
 H         -3.4384920252       -1.2130659255        3.5361779543
 H         -4.3409740975        0.2065032469        3.0064216815
 H         -5.1518875814       -1.3538316781        3.1378699284
 H         -2.9110676405       -0.6887091584        1.1681435490
 H         -3.7153758460       -2.2501484146        1.2991183658
 H         -5.1124447455        0.3656617099        0.5871105663
 H         -5.8765386676       -1.2142424471        0.7198723345
 H         -5.5708035651       -1.0783717737       -1.5696280160
 H         -4.1110207797       -1.9465682375       -1.0963895573
 H         -3.7171880756       -0.1457692938       -2.7632660630
 H         -4.3214139100        1.0545446684       -1.6165960789
 H         -2.7883559151        2.1073667070       -0.1584280190
 H         -1.2568635867        3.0761026113        1.0607171729
 H         -1.7108090541       -1.6430689320       -1.9019206190
 H          1.0110590047       -3.3268473570        1.1308056985
 H          2.2990440753       -2.3407393097        1.8362651611
 H          0.6685992582       -1.6754077328        1.6345804203
 H          3.0328403895       -2.5170316306       -1.8536723038
 H          2.0095217076       -3.7597704670       -1.1356847005
 H          3.4640828483       -3.2252559144       -0.2858404405
 H          2.5927114812       -0.1918104231       -1.2735391450
 H          4.5060504590       -1.2171566390        0.0972848965
 H          3.7783565065       -0.4462113703        1.5106506155
 H          5.3649552182        1.1505994038        0.6916790415
 H          4.9282308917        0.8541458513       -0.9851353179
 H          3.4244975123        4.2177826504       -0.1686153358
 H          4.7336905221        3.4603114844       -1.0870367829
 H          4.8842964117        3.6551431456        0.6550376491
 H          1.6019644778        2.7947826754        0.2379519520
 H          1.5794798064        0.4264224695        1.5351911517
  53
        -68.44694637
 C         -3.1899638718       -2.4649707831        1.2636933008
 C         -3.9348269759       -1.1680682050        1.5563913815
 C         -5.0906287108       -0.8974191994        0.5914716240
 C         -4.7073683957       -0.7387815524       -0.8808543009
 C         -3.9497732158        0.5551000668       -1.2086444073
 C         -2.5197518416        0.5571638914       -0.7487688813
 C         -2.0679436377        1.4802859151        0.1838855551
 C         -0.7482301542        1.4783919136        0.6124757221
 O         -0.3403031393        2.3707072140        1.5653528213
 C          0.1724624016        0.5580764122        0.1050060330
 C         -0.3051987894       -0.4060746393       -0.7851647960
 C         -1.6254298877       -0.3812464346       -1.2278892365
 O          0.4496272590       -1.4262047872       -1.2725072561
 C          1.6808541101       -1.7209794879       -0.6029545421
 C          1.3778798595       -2.4586373938        0.7051190890
 C          2.4301083450       -2.6497183967       -1.5605439175
 C          2.4204848481       -0.3922502631       -0.3969417790
 C          3.8452723271       -0.4755945693        0.1396883726
 C          4.5147471842        0.8874000348       -0.0398110125
 C          3.5959036150        2.0375542215        0.2763069381
 C          4.2541141068        3.3852268691        0.2826944234
 C          2.2999564333        1.8844935127        0.5069249518
 C          1.6235309848        0.5392482544        0.5217894521
 H         -3.8857285076       -3.2978685996        1.1817021344
 H         -2.6248195746       -2.3866897830        0.3389890347
 H         -2.4883617214       -2.6823270520        2.0662965811
 H         -4.3503596220       -1.2198521851        2.5666493962
 H         -3.2284462814       -0.3389403521        1.5309712074
 H         -5.6119885121        0.0068791943        0.9173750267
 H         -5.8001781922       -1.7264732149        0.6674593909
 H         -5.6320176247       -0.7397326341       -1.4645804417
 H         -4.1188816439       -1.5973891725       -1.2016105037
 H         -3.9598064889        0.6854616684       -2.2946973523
 H         -4.4801429711        1.4016839007       -0.7673288308
 H         -2.7537979010        2.2099457383        0.5971878337
 H         -1.0931094126        2.9130812601        1.8294245833
 H         -1.9289215354       -1.1258289985       -1.9469091981
 H          0.9234127030       -3.4210143801        0.4806041219
 H          2.2927615464       -2.6235281527        1.2669243900
 H          0.6795799836       -1.8901222478        1.3141350301
 H          2.7717302510       -2.0994632115       -2.4333604534
 H          1.7530311156       -3.4325858480       -1.8923814325
 H          3.2808870700       -3.1074172464       -1.0656580478
 H          2.4598309293        0.0804685653       -1.3873766865
 H          4.4234820431       -1.2355457062       -0.3869166540
 H          3.8241304481       -0.7387237087        1.1989808805
 H          5.4067914629        0.9517055951        0.5895663559
 H          4.8505488632        0.9948789022       -1.0774146741
 H          3.5278475176        4.1726032319        0.4648408772
 H          4.7432749274        3.5733253604       -0.6730924910
 H          5.0183339294        3.4299915091        1.0587510167
 H          1.6856563596        2.7405649496        0.7305104599
 H          1.6719271532        0.1673019274        1.5567933670
  53
        -68.44678423
 C         -5.4353719385        2.6163564132       -0.4964123701
 C         -5.3970528750        1.1170238945       -0.2276218716
 C         -4.3806552685        0.4139619254       -1.1244124711
 C         -4.3292839954       -1.0992413242       -0.9166150170
 C         -3.7160221540       -1.5131814598        0.4286302070
 C         -2.2899970346       -1.0572887217        0.5385330060
 C         -1.9524628645        0.0607088789        1.2838319331
 C         -0.6400524254        0.5109619316        1.3326084773
 O         -0.3917490870        1.5893417742        2.1335869177
 C          0.3663862134       -0.1310954363        0.6071380111
 C          0.0346506592       -1.3125034862       -0.0603274749
 C         -1.2837349211       -1.7521995173       -0.1106204657
 O          0.9511471515       -2.1066499209       -0.6806315518
 C          2.3273892884       -1.9141683121       -0.3385630147
 C          2.5908243346       -2.4828645400        1.0594887650
 C          3.1044064390       -2.7204633722       -1.3807621142
 C          2.6187284533       -0.4110918222       -0.4490240055
 C          4.0710956822        0.0261131314       -0.2912347879
 C          4.2041507833        1.4897338767       -0.7241214390
 C          3.0000570097        2.3312409020       -0.3976630808
 C          3.1133957488        3.7725725993       -0.7928958567
 C          1.9045570833        1.8381438954        0.1641996802
 C          1.7859741720        0.3858954288        0.5627800213
 H         -4.4596374068        3.0589552244       -0.3079788508
 H         -5.7054130699        2.8131251001       -1.5320161167
 H         -6.1643151233        3.1044238940        0.1468521529
 H         -5.1422344616        0.9524310435        0.8200564003
 H         -6.3883364578        0.6902793363       -0.4003811196
 H         -3.3882800279        0.8324819296       -0.9447771781
 H         -4.6407980458        0.6135485389       -2.1672506025
 H         -3.7319482348       -1.5420354614       -1.7166308357
 H         -5.3401134550       -1.5085081795       -0.9868360450
 H         -4.3041323145       -1.0959928918        1.2461052312
 H         -3.7561798528       -2.6021922227        0.5045344916
 H         -2.6935905903        0.6017897841        1.8500442841
 H          0.5560673498        1.7622524962        2.1659448939
 H         -1.4962492797       -2.6575600669       -0.6569127965
 H          2.4297255675       -3.5582273405        1.0467990317
 H          3.6149940544       -2.2846064727        1.3625120376
 H          1.9094248165       -2.0498829473        1.7876835859
 H          3.0327781967       -2.2475144958       -2.3566495145
 H          2.6704811381       -3.7144618900       -1.4496874284
 H          4.1484980278       -2.8109985374       -1.0978842908
 H          2.2822900418       -0.1195560384       -1.4525496364
 H          4.7355290067       -0.5892150567       -0.8980767209
 H          4.3744997384       -0.0813593601        0.7522024461
 H          5.0937456432        1.9344137351       -0.2693151124
 H          4.3497385813        1.5349425661       -1.8088260029
 H          3.9440786371        4.2443891199       -0.2682510610
 H          2.2012930371        4.3159255760       -0.5609099205
 H          3.3081078954        3.8578255962       -1.8616130681
 H          1.0504147805        2.4827703572        0.3143415172
 H          2.2408278474        0.2647403246        1.5611284743
  53
        -68.44678216
 C         -6.2844123080       -0.3794216044       -2.0392801045
 C         -4.7626723277       -0.2949881785       -2.0077548786
 C         -4.2343534285        0.7688363901       -1.0443129847
 C         -4.5353000751        0.5064996331        0.4315007960
 C         -3.7942889865       -0.7102807463        1.0029613884
 C         -2.3062980534       -0.5167711381        0.9569314195
 C         -1.6794295167        0.2941974979        1.8934206566
 C         -0.3141894401        0.5279920334        1.8367586499
 O          0.2875851022        1.2949559266        2.7962959116
 C          0.4700176898       -0.0276706062        0.8214303502
 C         -0.1539600047       -0.9068290610       -0.0653369088
 C         -1.5294708788       -1.1266270742       -0.0080391033
 O          0.5044689028       -1.6075127534       -1.0259843197
 C          1.9313347821       -1.6903916698       -0.9354372762
 C          2.3100936115       -2.7050524344        0.1480003395
 C          2.3762040176       -2.2061791982       -2.3057137777
 C          2.4593533063       -0.2766570079       -0.6566432592
 C          3.9726044200       -0.0918840271       -0.6912709924
 C          4.2810622376        1.4052282123       -0.7259794307
 C          3.3908468781        2.2068337713        0.1860282955
 C          3.7687343874        3.6517312030        0.3238780371
 C          2.3378465387        1.6911067368        0.8035561290
 C          1.9505257853        0.2401123713        0.6928277375
 H         -6.6790101483       -0.7250407793       -1.0871500912
 H         -6.7155798885        0.5956934135       -2.2570116062
 H         -6.6078004623       -1.0762169850       -2.8096476519
 H         -4.3506985876       -1.2702172629       -1.7456736572
 H         -4.4032236526       -0.0510975199       -3.0104216804
 H         -4.6712451410        1.7325393240       -1.3193486199
 H         -3.1519448891        0.8478855199       -1.1682378434
 H         -5.6084732666        0.3679672860        0.5720622540
 H         -4.2404949780        1.3904524887        1.0022317815
 H         -4.1107548946       -0.8507037323        2.0397571478
 H         -4.0689161311       -1.6049498825        0.4445177765
 H         -2.2598923133        0.7470910893        2.6876134011
 H         -0.3789974621        1.5771880518        3.4339546551
 H         -1.9623400319       -1.7978639436       -0.7324918785
 H          3.3875100087       -2.7288095032        0.2835489930
 H          1.8346389623       -2.4542789773        1.0928395009
 H          1.9701331510       -3.6945946016       -0.1490213340
 H          3.4173087225       -2.5124033315       -2.2825510139
 H          2.2414888095       -1.4378630348       -3.0625542791
 H          1.7632707433       -3.0626952764       -2.5741561723
 H          2.0229865165        0.3615987194       -1.4365079109
 H          4.4107673777       -0.5727916069       -1.5664393915
 H          4.4176568032       -0.5383450179        0.1999869246
 H          5.3268450317        1.5779219020       -0.4567122950
 H          4.1504009050        1.7809613632       -1.7471018209
 H          3.0580692854        4.1821630726        0.9517310286
 H          3.7986128495        4.1312130610       -0.6545985634
 H          4.7607049899        3.7433957242        0.7664907271
 H          1.7338949859        2.3074174649        1.4483017250
 H          2.4625378390       -0.2915304002        1.5095266188
  53
        -68.44678084
 C         -6.4379198847       -1.8576135140       -1.0825888882
 C         -4.9245652379       -1.9334498166       -0.9160002097
 C         -4.4332589181       -1.3745536778        0.4202242467
 C         -4.6534770728        0.1265251704        0.6088002538
 C         -3.7978883975        0.9962488505       -0.3230563544
 C         -2.3311880972        0.8091467225       -0.0620917614
 C         -1.7373681944        1.4060766068        1.0417437727
 C         -0.3878904603        1.2334500926        1.3082588899
 O          0.1654762797        1.8010680060        2.4230322223
 C          0.4211761472        0.4689297865        0.4624103917
 C         -0.2009209693       -0.1935469770       -0.5972578140
 C         -1.5556237552       -0.0031576242       -0.8654674476
 O          0.4366192834       -1.0596262512       -1.4283312181
 C          1.7225494347       -1.5477380129       -1.0296472689
 C          1.5425727011       -2.6253076475        0.0443411018
 C          2.3083991477       -2.1735037838       -2.2972434117
 C          2.5453926453       -0.3436657536       -0.5521128126
 C          4.0162941917       -0.5989932538       -0.2416326718
 C          4.7288227004        0.7477331689       -0.1143940335
 C          3.9135126035        1.7719146418        0.6293046208
 C          4.6369407207        3.0490264137        0.9378013727
 C          2.6466720212        1.5796410809        0.9673110689
 C          1.9056655749        0.3000665318        0.6821787304
 H         -6.9380083874       -2.3472463063       -0.2493259228
 H         -6.7773184407       -0.8259751511       -1.1290372285
 H         -6.7414316126       -2.3526923967       -2.0025444282
 H         -4.6161796995       -2.9799086080       -0.9790307927
 H         -4.4428486553       -1.4043270521       -1.7390873626
 H         -3.3651920671       -1.5823824035        0.5165487687
 H         -4.9483401058       -1.9032299797        1.2266683258
 H         -4.4069691282        0.3804953011        1.6426048074
 H         -5.7060427439        0.3687335182        0.4538833041
 H         -4.0217187324        0.7538023166       -1.3617290930
 H         -4.0642134233        2.0432178101       -0.1573883534
 H         -2.3327000219        2.0178475707        1.7081555824
 H         -0.5231097232        2.2702967434        2.9090992684
 H         -1.9778474381       -0.5182771553       -1.7134956542
 H          1.0170350739       -3.4766083537       -0.3824241508
 H          2.5090622072       -2.9567173928        0.4129364077
 H          0.9525803249       -2.2459482558        0.8748119084
 H          1.5594498588       -2.8193510356       -2.7481749723
 H          3.1880555614       -2.7650253296       -2.0636962437
 H          2.5715739386       -1.4009826893       -3.0150204054
 H          2.4946169944        0.3910516394       -1.3667166625
 H          4.4909020460       -1.1876611044       -1.0273976316
 H          4.1034684077       -1.1511772557        0.6960803502
 H          5.6916023774        0.6157353392        0.3872375854
 H          4.9435318909        1.1425898805       -1.1138543625
 H          3.9782010034        3.7616665926        1.4265114628
 H          5.0218566655        3.4978305120        0.0220828936
 H          5.4867552903        2.8546650174        1.5922814971
 H          2.1081728635        2.3441192832        1.5018977753
 H          2.0469655991       -0.3541142985        1.5561610654
  53
        -68.44678118
 C         -6.2667185810       -0.3498485553       -2.0529719139
 C         -4.7457032376       -0.2577245447       -2.0090822732
 C         -4.2301354476        0.7892104946       -1.0206269828
 C         -4.5385674417        0.4946130553        0.4475329385
 C         -3.7940126085       -0.7296591482        0.9977963758
 C         -2.3064594269       -0.5320766481        0.9536649920
 C         -1.6832997617        0.2821927571        1.8898450795
 C         -0.3189063228        0.5208126430        1.8340091065
 O          0.2792363598        1.2921214727        2.7923305478
 C          0.4682730742       -0.0341095748        0.8205609232
 C         -0.1514479811       -0.9178636419       -0.0645800078
 C         -1.5264200237       -1.1415947979       -0.0088462408
 O          0.5107674148       -1.6193465851       -1.0219769975
 C          1.9379528651       -1.6953621608       -0.9301481124
 C          2.3209481207       -2.7043912276        0.1570871162
 C          2.3861740631       -2.2139090799       -2.2982750539
 C          2.4590043945       -0.2780995502       -0.6561392282
 C          3.9712351988       -0.0854127698       -0.6916432756
 C          4.2714443951        1.4132423355       -0.7315600319
 C          3.3773806439        2.2129191250        0.1783728833
 C          3.7477500892        3.6601947366        0.3117723648
 C          2.3274238136        1.6934895140        0.7979966830
 C          1.9475432446        0.2401928468        0.6917312214
 H         -6.5807865567       -1.0332443119       -2.8390199533
 H         -6.6660593468       -0.7160370639       -1.1105677987
 H         -6.7017793512        0.6269588851       -2.2548301532
 H         -4.3297821134       -1.2356139609       -1.7638287891
 H         -4.3807124321        0.0085653928       -3.0040260600
 H         -4.6713337503        1.7556929467       -1.2784581602
 H         -3.1474568075        0.8773086779       -1.1360941808
 H         -5.6117733118        0.3475012081        0.5789571613
 H         -4.2519949329        1.3682524948        1.0379377875
 H         -4.1093127503       -0.8882738108        2.0323712504
 H         -4.0668802925       -1.6156196094        0.4248083005
 H         -2.2660756904        0.7343902409        2.6827250051
 H         -0.3889286380        1.5733883967        3.4287477041
 H         -1.9561591441       -1.8157970857       -0.7324325624
 H          3.3983488320       -2.7219650621        0.2938291280
 H          1.8432102914       -2.4529402115        1.1005816044
 H          1.9865372367       -3.6967398530       -0.1368479562
 H          3.4288385547       -2.5146626695       -2.2734346623
 H          2.2478514312       -1.4491624626       -3.0580794741
 H          1.7778172221       -3.0745911124       -2.5637662111
 H          2.0192244443        0.3553936479       -1.4379837050
 H          4.4118638332       -0.5669752246       -1.5652170616
 H          4.4188493592       -0.5262867731        0.2011118695
 H          5.3164808266        1.5926782570       -0.4637705084
 H          4.1378531369        1.7847638362       -1.7538438065
 H          4.7391780731        3.7584720945        0.7541762808
 H          3.0342838068        4.1889033055        0.9378956042
 H          3.7752363339        4.1367880396       -0.6681766717
 H          1.7208506865        2.3083872979        1.4416300897
 H          2.4620187668       -0.2863926085        1.5101325871
  53
        -68.44677878
 C         -6.4525130582       -1.8338507858       -1.0956529419
 C         -4.9390610743       -1.9221161144       -0.9360288516
 C         -4.4387032712       -1.3820355898        0.4046087065
 C         -4.6514289287        0.1175036055        0.6129549324
 C         -3.7962556686        0.9951747802       -0.3118194838
 C         -2.3294570524        0.8062678003       -0.0527511164
 C         -1.7343149236        1.4007235621        1.0517383044
 C         -0.3843713755        1.2280715815        1.3158510747
 O          0.1706486872        1.7935196405        2.4309200072
 C          0.4236509287        0.4657922989        0.4670150654
 C         -0.1998706168       -0.1952296849       -0.5927280730
 C         -1.5550028187       -0.0045861659       -0.8586858123
 O          0.4367929607       -1.0598434906       -1.4260403753
 C          1.7238912936       -1.5473436276       -1.0302620022
 C          1.5469377086       -2.6262481757        0.0428748635
 C          2.3079385761       -2.1712119412       -2.2996068692
 C          2.5465575592       -0.3430625446       -0.5529189710
 C          4.0184072387       -0.5969819090       -0.2457806031
 C          4.7296207396        0.7504405510       -0.1185092842
 C          3.9144212649        1.7729545474        0.6276104606
 C          4.6366743913        3.0509452112        0.9352165916
 C          2.6485810489        1.5786639417        0.9682633844
 C          1.9087250927        0.2983486442        0.6835383122
 H         -6.9527698313       -2.3279131158       -0.2650983840
 H         -6.7845988066       -0.7993896996       -1.1309284990
 H         -6.7631691535       -2.3179093894       -2.0190447335
 H         -4.6382392235       -2.9699105660       -1.0121699896
 H         -4.4568731329       -1.3871076469       -1.7551105742
 H         -3.3711643129       -1.5958583587        0.4929817293
 H         -4.9521685751       -1.9185144996        1.2069703616
 H         -4.3993073667        0.3577182529        1.6487181580
 H         -5.7036220060        0.3659610620        0.4657065827
 H         -4.0204063410        0.7614423041       -1.3524079982
 H         -4.0625060540        2.0407207939       -0.1371981041
 H         -2.3289262129        2.0108640932        1.7202800801
 H         -0.5173152347        2.2614450413        2.9191480586
 H         -1.9782905316       -0.5176540781       -1.7074282698
 H          2.5144478724       -2.9570569721        0.4093488009
 H          0.9581112778       -2.2483517662        0.8748204722
 H          1.0214773081       -3.4776144195       -0.3838342209
 H          2.5689682041       -1.3976652600       -3.0170465574
 H          1.5588356436       -2.8174083258       -2.7498056297
 H          3.1886547219       -2.7620321876       -2.0683148493
 H          2.4932955732        0.3926148737       -1.3664757813
 H          4.4921805164       -1.1840655438       -1.0331930408
 H          4.1082189224       -1.1501285499        0.6910904984
 H          5.6934531433        0.6191355214        0.3812971024
 H          4.9421165668        1.1465002717       -1.1179644630
 H          3.9781255076        3.7622156323        1.4261067033
 H          5.0184410262        3.5010733469        0.0188058528
 H          5.4885513263        2.8575164801        1.5872776226
 H          2.1100628591        2.3420978381        1.5043416516
 H          2.0528130003       -0.3565052238        1.5565457438
  53
        -68.44677365
 C         -4.7109983301        0.0998896655       -3.1490023454
 C         -4.9557727177       -0.3118546138       -1.7025463865
 C         -4.3420420398        0.6877315132       -0.7249253121
 C         -4.5857520682        0.3325383404        0.7413958094
 C         -3.7990688765       -0.8988353426        1.2128399992
 C         -2.3191927597       -0.6673784788        1.1151561583
 C         -1.6675041882        0.0847648838        2.0804466389
 C         -0.3115760001        0.3567243612        1.9721093876
 O          0.2584002764        1.0565539352        2.9973365200
 C          0.4242300419       -0.0906207740        0.8708483004
 C         -0.2177508738       -0.9275781202       -0.0434233580
 C         -1.5798224073       -1.1908572878        0.0695450466
 O          0.4220046718       -1.5421329293       -1.0772881579
 C          1.8498112825       -1.6170785158       -1.0157718059
 C          2.2621968583       -2.6604670077        0.0275723771
 C          2.2760661252       -2.0815281277       -2.4095886831
 C          2.3675245134       -0.2061947305       -0.7030583626
 C          3.8773419878        0.0030426689       -0.7491566519
 C          4.1769521897        1.5049933976       -0.7099358588
 C          3.2132721433        2.2942736062        0.1344869759
 C          3.4973718650        3.7641726901        0.2068508387
 C          2.1697435340        1.7470178767        0.7431787624
 C          1.8794534044        0.2662684855        0.6721408796
 H         -5.1553573664       -0.6185699774       -3.8343891790
 H         -5.1453612100        1.0776175214       -3.3477356086
 H         -3.6433486529        0.1532228013       -3.3510552267
 H         -6.0312012479       -0.3823257692       -1.5205995320
 H         -4.5255509196       -1.3008104519       -1.5392481984
 H         -4.7717952132        1.6736342809       -0.9205886627
 H         -3.2666233563        0.7540128853       -0.9020680224
 H         -5.6523971576        0.1536690748        0.8978265074
 H         -4.2943179181        1.1835348336        1.3608927929
 H         -4.0672417264       -1.1012629388        2.2522334054
 H         -4.0803687227       -1.7667337340        0.6163223809
 H         -2.1950310646        0.4646115267        2.9409188878
 H          1.2118909099        1.1115945465        2.8662688185
 H         -2.0346550009       -1.8245338684       -0.6751180830
 H          3.3429439115       -2.6822382338        0.1351079303
 H          1.8085907406       -2.4434795034        0.9915425996
 H          1.9206016982       -3.6425418819       -0.2908776577
 H          1.6746725170       -2.9417180069       -2.6915614397
 H          3.3234302881       -2.3666918778       -2.4171959947
 H          2.1094991350       -1.2935973094       -3.1394003164
 H          1.9098146295        0.4486249495       -1.4560604374
 H          4.3064993536       -0.4247671352       -1.6553402385
 H          4.3417209546       -0.4904404218        0.1070840257
 H          5.1968926080        1.6732933733       -0.3530608394
 H          4.1286043885        1.9107218181       -1.7262705732
 H          3.5084289631        4.1973881352       -0.7929381407
 H          4.4768507976        3.9384767856        0.6520500162
 H          2.7478553736        4.2797764325        0.8013065795
 H          1.4794399535        2.3797613079        1.2823687200
 H          2.4798300612       -0.2397307797        1.4478639398
  53
        -68.44676255
 C         -6.7026389143        1.1822120005       -0.5493002803
 C         -5.2289103255        1.4779348332       -0.2959029727
 C         -4.2877488259        0.6814289287       -1.2013028810
 C         -4.3013536902       -0.8303222923       -0.9731175754
 C         -3.7232270974       -1.2533179895        0.3843420539
 C         -2.2777554489       -0.8663424895        0.5063399567
 C         -1.8879387416        0.2314264898        1.2591545447
 C         -0.5566619629        0.6174008736        1.3237297469
 O         -0.1925746788        1.6795589183        2.1050455601
 C          0.4289813039       -0.0745479048        0.6155357670
 C          0.0392453159       -1.2269521647       -0.0711683957
 C         -1.3009876130       -1.5994583589       -0.1406222750
 O          0.9067402762       -2.0610285251       -0.7028903653
 C          2.3009081172       -1.9311213833       -0.4022138906
 C          2.5855130832       -2.5715004342        0.9600591458
 C          3.0090574580       -2.7224965911       -1.5039713135
 C          2.6476741623       -0.4371697198       -0.4568880570
 C          4.1234502980       -0.0717972883       -0.3392727094
 C          4.2977995519        1.3919113676       -0.7452690767
 C          3.2025761288        2.2794297597       -0.2165292527
 C          3.4218079981        3.7471687344       -0.4338815055
 C          2.1134680226        1.8087052057        0.3737340473
 C          1.8807315137        0.3409194993        0.6170186384
 H         -6.9471042437        0.1553376435       -0.2901259859
 H         -7.3287493379        1.8390070910        0.0509360724
 H         -6.9471722397        1.3401297963       -1.5976529255
 H         -5.0490156324        2.5417039161       -0.4708668313
 H         -4.9961656354        1.2776095440        0.7509731401
 H         -3.2671642257        1.0434346343       -1.0568763644
 H         -4.5628206587        0.8763974178       -2.2409712069
 H         -3.7061811169       -1.2991735253       -1.7596352518
 H         -5.3208732209       -1.2092729343       -1.0599519089
 H         -4.3015535740       -0.8005601122        1.1904932541
 H         -3.8152424036       -2.3381639373        0.4736442832
 H         -2.6259533247        0.7984985518        1.8124213829
 H         -0.9779057646        2.0289080042        2.5430376257
 H         -1.5517326045       -2.4860904625       -0.7012226307
 H          3.6235768568       -2.4179094576        1.2405091868
 H          1.9401971110       -2.1488532953        1.7259649875
 H          2.3894229152       -3.6399175640        0.9051400170
 H          2.9320262628       -2.2015354177       -2.4547252043
 H          2.5277005501       -3.6918175390       -1.6044758982
 H          4.0554541915       -2.8734588234       -1.2580316874
 H          2.2893479517       -0.0856419346       -1.4336197244
 H          4.7402425438       -0.7020326541       -0.9807902899
 H          4.4549199832       -0.2093040248        0.6917433674
 H          5.2659773047        1.7635981940       -0.3981836810
 H          4.3018946067        1.4692199202       -1.8384033328
 H          4.3170387138        4.0786474832        0.0924238037
 H          2.5743446712        4.3250323105       -0.0754123665
 H          3.5659469113        3.9564602343       -1.4939029960
 H          1.3598072583        2.4869593672        0.7373302169
 H          2.2975251562        0.1104138261        1.6094597607
  53
        -68.44675879
 C         -4.8033574781       -0.0092510500       -3.1533848649
 C         -5.0128351796       -0.3693111386       -1.6877331705
 C         -4.3692792120        0.6593627509       -0.7605217288
 C         -4.5850560335        0.3589374282        0.7223130024
 C         -3.7965575367       -0.8598325479        1.2226588498
 C         -2.3167094782       -0.6316004359        1.1174908770
 C         -1.6572514266        0.1119340574        2.0840318204
 C         -0.2994793223        0.3740297854        1.9741702014
 O          0.2780617237        1.0628700195        3.0025735515
 C          0.4305710663       -0.0732689095        0.8690596428
 C         -0.2208719915       -0.8975794298       -0.0500138779
 C         -1.5843189794       -1.1524577269        0.0655437290
 O          0.4112309655       -1.5085009893       -1.0908927207
 C          1.8378514136       -1.6032077733       -1.0294536381
 C          2.2349575418       -2.6619793942        0.0042911161
 C          2.2584915053       -2.0603486101       -2.4274181523
 C          2.3753823836       -0.2027091396       -0.7035100174
 C          3.8885962759       -0.0172733260       -0.7425079374
 C          4.2134172591        1.4790076270       -0.6869089747
 C          3.2576262135        2.2772105305        0.1580014388
 C          3.5649755092        3.7417239534        0.2430779385
 C          2.2020803900        1.7420790632        0.7567994135
 C          1.8904483860        0.2662726508        0.6740601634
 H         -3.7410713683        0.0326369886       -3.3842680843
 H         -5.2673589700       -0.7494083565       -3.8017288544
 H         -5.2396514555        0.9625977787       -3.3751166794
 H         -6.0836402067       -0.4268670192       -1.4762719052
 H         -4.5842445472       -1.3549834246       -1.5013839469
 H         -4.7951317538        1.6413796050       -0.9825583744
 H         -3.2974628394        0.7097726762       -0.9626917221
 H         -5.6494101705        0.1922902402        0.9055569280
 H         -4.2769052658        1.2294753462        1.3055379195
 H         -4.0622923057       -1.0362443717        2.2673452739
 H         -4.0791470806       -1.7422754964        0.6485365604
 H         -2.1797139816        0.4908178308        2.9480666259
 H          1.2317663947        1.1107104353        2.8702611717
 H         -2.0454416126       -1.7795165454       -0.6808711426
 H          1.7859905689       -2.4461579952        0.9706823909
 H          1.8773596262       -3.6356367758       -0.3223047508
 H          3.3153257417       -2.7019705675        0.1102237343
 H          3.3017482155       -2.3601083436       -2.4371923025
 H          2.1035879111       -1.2632079173       -3.1497756124
 H          1.6452419276       -2.9091943462       -2.7179407916
 H          1.9305058192        0.4651588104       -1.4526200117
 H          4.3138048509       -0.4429358202       -1.6515785318
 H          4.3417345358       -0.5271284377        0.1101138882
 H          5.2335640574        1.6262860513       -0.3212858284
 H          4.1794450400        1.8950421833       -1.6995884923
 H          2.8203187246        4.2650687751        0.8368878840
 H          3.5893961482        4.1822015943       -0.7532909392
 H          4.5443667179        3.8966158357        0.6955782089
 H          1.5182154214        2.3817184771        1.2960388977
 H          2.4823189422       -0.2537647233        1.4470496859
  53
        -68.44674121
 C         -5.8927770618        0.7097987716        2.1845417796
 C         -5.6574952460        0.2621356113        0.7472065875
 C         -4.6521077468       -0.8849344544        0.6757684654
 C         -4.4012022509       -1.3862761056       -0.7459792461
 C         -3.6120013131       -0.3973472840       -1.6158459481
 C         -2.2400159215       -0.1479849722       -1.0591709580
 C         -1.9663806596        0.9903619454       -0.3183704859
 C         -0.6998099530        1.2071379038        0.2071830466
 O         -0.5369431844        2.3287077145        0.9699517761
 C          0.3381451571        0.3014032786       -0.0247878812
 C          0.0279972892       -0.8876584850       -0.6889292617
 C         -1.2417102374       -1.0942021450       -1.2171837712
 O          0.9143015461       -1.9088234704       -0.8536296778
 C          2.0807025926       -1.9085846211       -0.0244885903
 C          1.6932844901       -2.3094297001        1.4026665716
 C          2.9916430467       -2.9761685530       -0.6332056008
 C          2.7047237248       -0.5091323875       -0.1154257841
 C          4.0589718370       -0.3098837559        0.5566728139
 C          4.6478753796        1.0320353184        0.1098725256
 C          3.6158366534        2.1053309373       -0.1080361304
 C          4.1682020807        3.4339928950       -0.5275731584
 C          2.3133298343        1.8931530398        0.0237708152
 C          1.7524371436        0.5550023765        0.4443102967
 H         -4.9621080494        1.0539190390        2.6305686552
 H         -6.6131581756        1.5240295340        2.2210831509
 H         -6.2750716562       -0.1136877415        2.7843974865
 H         -6.6043232302       -0.0589776785        0.3057329979
 H         -5.2922848119        1.1111240630        0.1678989478
 H         -5.0303157357       -1.7160361557        1.2768461760
 H         -3.7045844599       -0.5642465582        1.1134063881
 H         -5.3585699741       -1.5972553715       -1.2287242383
 H         -3.8394860353       -2.3214688700       -0.6934529790
 H         -3.5227289207       -0.8182821628       -2.6198688911
 H         -4.1576908989        0.5431918240       -1.6916317226
 H         -2.7261091472        1.7313799231       -0.1277927202
 H          0.3488328919        2.3407088240        1.3501488060
 H         -1.4272227460       -2.0152397483       -1.7468809758
 H          0.9043503704       -1.6660153939        1.7842273067
 H          1.3219967664       -3.3315287832        1.4013458021
 H          2.5557538144       -2.2497955803        2.0604495585
 H          3.8181223302       -3.2031524484        0.0329681818
 H          3.3796819484       -2.6417816751       -1.5917213714
 H          2.4115007888       -3.8806303838       -0.7958444573
 H          2.8241788250       -0.3099175838       -1.1884020620
 H          4.7505349555       -1.1104400141        0.2936020970
 H          3.9341018458       -0.3176682591        1.6414455752
 H          5.3852564532        1.3780172523        0.8396181958
 H          5.1821970265        0.8959729422       -0.8365881368
 H          3.3718329067        4.1527961765       -0.7011352966
 H          4.7499971043        3.3300032957       -1.4430169625
 H          4.8324334444        3.8274630775        0.2417908013
 H          1.6210605899        2.6891489891       -0.2102623191
 H          1.7785782861        0.5014522203        1.5464304442
  53
        -68.44672049
 C         -6.9575810260        0.0933188146        0.7204845365
 C         -5.5066261327        0.3629059596        1.1019736795
 C         -4.5848661120       -0.8327977725        0.8553793355
 C         -4.3997439503       -1.2096589255       -0.6147848168
 C         -3.6244013599       -0.1630494304       -1.4270077873
 C         -2.2261103156        0.0127984936       -0.9086968136
 C         -1.8862968697        1.0960731154       -0.1118704419
 C         -0.5972767470        1.2456758428        0.3794692415
 O         -0.2991686846        2.3004741002        1.1978991433
 C          0.4037973720        0.3220549951        0.0685237611
 C          0.0329885094       -0.8060636997       -0.6672544121
 C         -1.2604343583       -0.9419322893       -1.1656207480
 O          0.8729667280       -1.8374351165       -0.9465022903
 C          2.0975151574       -1.9239853710       -0.2091075983
 C          1.8051416891       -2.4692795321        1.1923957456
 C          2.9475220995       -2.9297524413       -0.9885969170
 C          2.7303870632       -0.5260288669       -0.1986123965
 C          4.1344949153       -0.4148587168        0.3856813040
 C          4.7135747922        0.9490747614        0.0089957151
 C          3.7048170213        2.0615780895        0.1157720517
 C          4.2662647312        3.4400999248       -0.0685945174
 C          2.4146673729        1.8484652814        0.3306196667
 C          1.8319783226        0.4749662020        0.5348181988
 H         -7.5846527649        0.9378594592        0.9983547058
 H         -7.0592294331       -0.0630798662       -0.3503099714
 H         -7.3275538213       -0.7915577303        1.2341700856
 H         -5.1449853070        1.2317647058        0.5500516315
 H         -5.4636712631        0.6120455085        2.1653987411
 H         -4.9925517165       -1.6971947909        1.3856996220
 H         -3.6027725012       -0.6173026669        1.2827095547
 H         -5.3728564804       -1.3723145065       -1.0806857501
 H         -3.8508905966       -2.1527682419       -0.6583940321
 H         -3.5825657519       -0.4973984165       -2.4661305361
 H         -4.1537702349        0.7901173113       -1.4030018677
 H         -2.6322912488        1.8400712900        0.1376156505
 H         -1.0972517912        2.8249124245        1.3346529016
 H         -1.4876356687       -1.8184431354       -1.7515659550
 H          1.0482411440       -1.8675113758        1.6890124145
 H          1.4291715789       -3.4868031023        1.1129996840
 H          2.7103899660       -2.4741701826        1.7926355970
 H          3.2792196729       -2.4977727839       -1.9291377957
 H          2.3419235968       -3.8051464331       -1.2084030205
 H          3.8111358641       -3.2367568639       -0.4070903870
 H          2.7762635123       -0.2138826687       -1.2504591942
 H          4.7855522515       -1.2027419529        0.0055075721
 H          4.0885024593       -0.5072648836        1.4724798137
 H          5.5750914130        1.1776928428        0.6426818767
 H          5.0789988538        0.9176436704       -1.0236681334
 H          4.7792887884        3.5157923217       -1.0273632576
 H          4.9935062005        3.6607888216        0.7129083305
 H          3.4799284521        4.1890772975       -0.0326054260
 H          1.7342013924        2.6804018133        0.4013958458
 H          1.8587549831        0.2726669648        1.6165559566
  53
        -68.44661784
 C         -3.3463163219        1.8817261796       -1.1445341472
 C         -3.6699407788        0.4872167600       -1.6663786845
 C         -4.9065346760       -0.1338533767       -1.0150420768
 C         -4.8256706837       -0.3484616095        0.4970933409
 C         -3.8353016527       -1.4369763151        0.9343145768
 C         -2.3969976037       -1.0075096874        0.8781878989
 C         -1.9406864434        0.0206167000        1.6926117731
 C         -0.6255789714        0.4543460800        1.6267513864
 O         -0.1899443254        1.4459928957        2.4622282513
 C          0.2782179151       -0.1209432629        0.7291690480
 C         -0.1608590343       -1.2204363129       -0.0101930474
 C         -1.4886830010       -1.6403845844        0.0518725039
 O          0.6418595530       -1.9543530073       -0.8248141998
 C          2.0585993867       -1.7866002743       -0.6974760080
 C          2.5453761222       -2.5331892390        0.5484641936
 C          2.6394819894       -2.4409059286       -1.9528364763
 C          2.3425896659       -0.2790233864       -0.6536104048
 C          3.8068173789        0.1445135482       -0.6957379916
 C          3.8726832269        1.6459409355       -0.9777044553
 C          2.8258430108        2.4286159537       -0.2303179564
 C          2.9596912241        3.9187674825       -0.3355176228
 C          1.8435768010        1.8547452738        0.4493178032
 C          1.7008001571        0.3614765618        0.5810951490
 H         -3.0119575268        1.8395716524       -0.1115224298
 H         -2.5474914811        2.3257508471       -1.7341205912
 H         -4.2199103401        2.5284082489       -1.2052025257
 H         -3.8552386896        0.5478259217       -2.7421833983
 H         -2.8065251381       -0.1597997551       -1.5149898033
 H         -5.1049891334       -1.0963004009       -1.4938638784
 H         -5.7645302043        0.5141683196       -1.2175799776
 H         -5.8208368637       -0.6432249393        0.8415801271
 H         -4.5776926629        0.5922578868        0.9885686094
 H         -4.0714471667       -1.7142476563        1.9662706444
 H         -3.9772664533       -2.3215685631        0.3112615417
 H         -2.6147336402        0.4897915455        2.3988074893
 H         -0.9167615392        1.7135403311        3.0373136347
 H         -1.7822994441       -2.4782310740       -0.5612013526
 H          2.3802078139       -3.6002777498        0.4179247161
 H          3.6059008511       -2.3573975819        0.7039637886
 H          1.9951602954       -2.2116687943        1.4291190324
 H          2.1834688254       -3.4190643376       -2.0818618279
 H          3.7140912114       -2.5634285373       -1.8610820556
 H          2.4171222549       -1.8406812176       -2.8312270282
 H          1.8434265893        0.1419826607       -1.5365501874
 H          4.3532950507       -0.3942337429       -1.4705333081
 H          4.2791871207       -0.0704284267        0.2647032039
 H          4.8642692695        2.0308866284       -0.7236344696
 H          3.7294215496        1.8222248230       -2.0497745462
 H          2.1455200322        4.4204795827        0.1802322646
 H          2.9557582330        4.2273656038       -1.3809378071
 H          3.9031599346        4.2462871943        0.1014144647
 H          1.1198076685        2.4600734479        0.9690508409
 H          2.2560921504        0.0640874574        1.4838064442
  53
        -68.44657409
 C         -6.0420130105       -0.8523389020       -2.3822679487
 C         -6.4428248063       -0.5673374088       -0.9396804939
 C         -5.8039847819        0.7030367852       -0.3758144243
 C         -4.2763107753        0.6866789897       -0.3200181465
 C         -3.7129024029       -0.4015389297        0.6013195061
 C         -2.2186972858       -0.2866906286        0.6813271413
 C         -1.6194657286        0.5073060485        1.6484325423
 C         -0.2421287002        0.6656065156        1.6889895986
 O          0.3289765712        1.4162727446        2.6795927651
 C          0.5816342791        0.0507228936        0.7419914696
 C         -0.0236544558       -0.8085143846       -0.1776212045
 C         -1.4090478979       -0.9527335982       -0.2178451160
 O          0.6634607235       -1.5600501368       -1.0775888412
 C          2.0737910600       -1.7160969793       -0.8831377109
 C          2.3197968941       -2.7312983484        0.2374128913
 C          2.5870780894       -2.2770131237       -2.2111520180
 C          2.6556172685       -0.3278073699       -0.5846764992
 C          4.1751974258       -0.2227839161       -0.5132906453
 C          4.5644770690        1.2553903438       -0.5454372485
 C          3.6565587585        2.1168436315        0.2913827299
 C          4.1007035959        3.5417848424        0.4387782688
 C          2.5365871671        1.6669768232        0.8385992951
 C          2.0801068737        0.2369337497        0.7179165251
 H         -6.2507776520        0.0096019192       -3.0126706402
 H         -4.9828863009       -1.0842169668       -2.4561080293
 H         -6.6013109299       -1.7021111264       -2.7677542786
 H         -7.5284984888       -0.4499867964       -0.8912357295
 H         -6.1817582441       -1.4219271266       -0.3132820710
 H         -6.1909562948        0.8674647580        0.6334257757
 H         -6.1163208853        1.5519750914       -0.9895982731
 H         -3.9331168601        1.6591948496        0.0421354700
 H         -3.8659675811        0.5525606993       -1.3214652221
 H         -4.1517452349       -0.2912872964        1.5954941217
 H         -3.9798796722       -1.3847715944        0.2136295181
 H         -2.2303946024        1.0066842262        2.3901000369
 H         -0.3660938672        1.7453304937        3.2620156487
 H         -1.8276140573       -1.6120726851       -0.9617546155
 H          1.9494041344       -3.7063454145       -0.0708864683
 H          3.3819908958       -2.8093393337        0.4506448463
 H          1.7921379197       -2.4405051629        1.1421895274
 H          3.6061949173       -2.6365108433       -2.1094104380
 H          2.5474172268       -1.5153262999       -2.9854480857
 H          1.9502523934       -3.1048681139       -2.5119717644
 H          2.3101772326        0.3196217393       -1.4016062092
 H          4.6479944588       -0.7406092394       -1.3484551062
 H          4.5314721896       -0.6768330408        0.4133510631
 H          5.5965816733        1.3778084286       -0.2052796108
 H          4.5254767406        1.6205990135       -1.5779353646
 H          3.3762167645        4.1189804803        1.0067462407
 H          4.2266809647        4.0032455401       -0.5406620458
 H          5.0617435278        3.5880419206        0.9512264946
 H          1.9226214229        2.3244944724        1.4309889210
 H          2.5028770596       -0.3081006850        1.5757919326
  53
        -68.44657227
 C         -6.0489065653       -0.8118348054       -2.3928986964
 C         -6.4443984859       -0.5546134730       -0.9436926185
 C         -5.8048388726        0.7056115558       -0.3583661059
 C         -4.2769780400        0.6885587776       -0.3063125875
 C         -3.7112896159       -0.4138715859        0.5966849293
 C         -2.2172747756       -0.2974684786        0.6777077681
 C         -1.6205738559        0.4976622591        1.6455955221
 C         -0.2437123270        0.6592351245        1.6870080772
 O          0.3255412885        1.4118714956        2.6771404323
 C          0.5820032925        0.0460294504        0.7406543253
 C         -0.0203292767       -0.8153752801       -0.1786833490
 C         -1.4055043290       -0.9621934445       -0.2204925558
 O          0.6699120270       -1.5663488291       -1.0768452141
 C          2.0800706278       -1.7197770802       -0.8788057242
 C          2.3250194985       -2.7314429735        0.2451617126
 C          2.5973270917       -2.2833404998       -2.2041065304
 C          2.6583832906       -0.3294446374       -0.5830711563
 C          4.1775568688       -0.2207916204       -0.5088222871
 C          4.5633495080        1.2583042690       -0.5440204989
 C          3.6499124048        2.1207458365        0.2858859359
 C          4.0882140383        3.5482666264        0.4263782680
 C          2.5302937327        1.6695453394        0.8326680937
 C          2.0796645535        0.2372996324        0.7172537120
 H         -4.9898431248       -1.0409832030       -2.4749667634
 H         -6.6085787452       -1.6548100695       -2.7923220106
 H         -6.2610623279        0.0616305194       -3.0060363723
 H         -7.5300421539       -0.4396701576       -0.8891432257
 H         -6.1800264722       -1.4206029001       -0.3345773004
 H         -6.1898712101        0.8516274197        0.6544323240
 H         -6.1188182667        1.5652613675       -0.9561268108
 H         -3.9333918049        1.6553200686        0.0704567369
 H         -3.8684457396        0.5706760906       -1.3105234727
 H         -4.1495407982       -0.3204820662        1.5929053680
 H         -3.9768759106       -1.3911083391        0.1932696937
 H         -2.2333630151        0.9959460442        2.3864650962
 H         -0.3702736068        1.7394817769        3.2594767170
 H         -1.8220751574       -1.6223881065       -0.9647523386
 H          3.3868755857       -2.8068472782        0.4609794779
 H          1.7948662705       -2.4389990786        1.1479602989
 H          1.9571376902       -3.7080759685       -0.0611859461
 H          1.9628243084       -3.1133060030       -2.5040215334
 H          3.6169288507       -2.6405124782       -2.0990130483
 H          2.5579016257       -1.5238819573       -2.9806076118
 H          2.3131402495        0.3151211387       -1.4023821219
 H          4.6533672299       -0.7395542849       -1.3416834162
 H          4.5331590223       -0.6715443262        0.4196699219
 H          5.5937561584        1.3843771748       -0.1999829732
 H          4.5278450533        1.6200215808       -1.5778456223
 H          3.3609082669        4.1253654251        0.9907841745
 H          4.2130015305        4.0052128401       -0.5553706338
 H          5.0486362604        3.6012665177        0.9392780725
 H          1.9124163826        2.3275821755        1.4204650262
 H          2.5036345702       -0.3028898095        1.5775676010
  53
        -68.44656606
 C         -6.1616962289       -1.9418013010       -1.6178326668
 C         -6.4941413616       -0.5955880863       -0.9853405830
 C         -5.9423144398       -0.4422519778        0.4330481205
 C         -4.4194568044       -0.5196379119        0.5441896772
 C         -3.6964475879        0.5969779206       -0.2181282717
 C         -2.2175262230        0.5208016777        0.0268626266
 C         -1.6420314435        1.1871471923        1.0990031964
 C         -0.2794374248        1.1023360891        1.3437131875
 O          0.2594593542        1.7383809953        2.4281004875
 C          0.5573114452        0.3580687332        0.5074867130
 C         -0.0435698688       -0.3774273826       -0.5164022249
 C         -1.4112303895       -0.2755642645       -0.7628006141
 O          0.6297712748       -1.2325296131       -1.3301813868
 C          1.9493279176       -1.6301510467       -0.9406387688
 C          1.8527314220       -2.6782083727        0.1725629891
 C          2.5486930292       -2.2642577680       -2.1977619809
 C          2.7079123512       -0.3641045389       -0.5205492244
 C          4.1963816754       -0.5225807655       -0.2297167997
 C          4.8309122622        0.8667594129       -0.1613771720
 C          3.9695269908        1.8674434794        0.5620131087
 C          4.6218322371        3.1945695885        0.8127407881
 C          2.7220375365        1.6139469005        0.9302446374
 C          2.0528769817        0.2840966731        0.7032924876
 H         -5.0925521357       -2.0429056228       -1.7839773501
 H         -6.4891519616       -2.7558963899       -0.9744488063
 H         -6.6632280100       -2.0410698543       -2.5780756994
 H         -6.1146982787        0.2080801617       -1.6185513022
 H         -7.5807037177       -0.4858424862       -0.9390842709
 H         -6.3730707565       -1.2264415738        1.0611731850
 H         -6.2758920537        0.5191600019        0.8327478326
 H         -4.0655526746       -1.4854404866        0.1818598665
 H         -4.1466528926       -0.4514357632        1.6004932478
 H         -3.8902109389        0.4967878222       -1.2861871664
 H         -4.0810193802        1.5639498891        0.1136646548
 H         -2.2609311974        1.7837132144        1.7576189700
 H         -0.4467753576        2.1828441210        2.9121426487
 H         -1.8213884185       -0.8428238268       -1.5833352437
 H          1.3723244261       -3.5737617757       -0.2149751490
 H          2.8434792754       -2.9383608401        0.5338573359
 H          1.2548620228       -2.3056788902        1.0004540060
 H          2.7530268150       -1.5031380918       -2.9462263800
 H          1.8314079367       -2.9680846190       -2.6118688821
 H          3.4657498764       -2.7948593403       -1.9617977109
 H          2.6000307686        0.3373887394       -1.3585299208
 H          4.6913424024       -1.1095698998       -1.0040754291
 H          4.3317775672       -1.0359095663        0.7241973582
 H          5.8078679186        0.8082246001        0.3266246100
 H          5.0057797685        1.2382597135       -1.1774252021
 H          5.4927837385        3.0731045544        1.4569167955
 H          3.9308908987        3.8844279937        1.2894881535
 H          4.9637023549        3.6325309853       -0.1250628437
 H          2.1485389152        2.3642997501        1.4481672497
 H          2.2478574128       -0.3296334666        1.5960631290
  53
        -68.44651070
 C         -4.9134491314        2.2335723812       -1.4851552936
 C         -5.1998245097        0.7926169402       -1.8917273170
 C         -4.3072397103       -0.2208576929       -1.1751568566
 C         -4.6029002431       -0.3333542841        0.3179175596
 C         -3.7219178298       -1.3898864777        0.9965334597
 C         -2.2730031106       -0.9987439031        0.9498227756
 C         -1.7936493374       -0.0079886988        1.7931911322
 C         -0.4705718077        0.4027253019        1.7246553498
 O         -0.0722811893        1.3455356469        2.6293243257
 C          0.4042463332       -0.1492165633        0.7842092372
 C         -0.0609432334       -1.2126462868        0.0087390192
 C         -1.3925860438       -1.6123031647        0.0771800326
 O          0.7311505246       -1.9270038387       -0.8384452484
 C          2.1473594743       -1.8181651459       -0.6631788322
 C          2.5679421286       -2.5911533381        0.5909683628
 C          2.7459663574       -2.4805007523       -1.9053593559
 C          2.4849306823       -0.3221511926       -0.5974388904
 C          3.9625621142        0.0541917045       -0.5773187572
 C          4.0996281827        1.5620886143       -0.8115029501
 C          2.9845682787        2.3739149835       -0.2096262054
 C          3.1057002367        3.8545754740       -0.4085555043
 C          1.9519503350        1.8289855417        0.4194542244
 C          1.8259705279        0.3371210526        0.6206324186
 H         -5.5067699377        2.9210005655       -2.0843963590
 H         -5.1567571553        2.4011297040       -0.4393665986
 H         -3.8613861240        2.4666835344       -1.6346314976
 H         -6.2481519455        0.5594056944       -1.6894681533
 H         -5.0424553110        0.6940962751       -2.9686462029
 H         -3.2605745530        0.0582912803       -1.3128872711
 H         -4.4508770018       -1.2019131016       -1.6352323192
 H         -5.6533781379       -0.5996329170        0.4593791781
 H         -4.4289318199        0.6281244648        0.8018563067
 H         -4.0361190754       -1.4934828586        2.0377152681
 H         -3.8621314591       -2.3513737600        0.4994617136
 H         -2.4324459465        0.4564012466        2.5275411803
 H          0.8777372354        1.4910045423        2.5541942708
 H         -1.7118851697       -2.4211120051       -0.5606989879
 H          3.6306389072       -2.4632903097        0.7764251065
 H          2.0074875114       -2.2536285219        1.4593149997
 H          2.3606628575       -3.6490287376        0.4479432709
 H          2.5664717198       -1.8684733509       -2.7853532447
 H          2.2654409314       -3.4437233689       -2.0548159946
 H          3.8134758821       -2.6348747728       -1.7830966894
 H          2.0328831306        0.1207057079       -1.4945274839
 H          4.5154220507       -0.4804681639       -1.3498751846
 H          4.3949578584       -0.2120642017        0.3893594519
 H          5.0586417641        1.9149879013       -0.4219943131
 H          4.1049155671        1.7624177725       -1.8883799982
 H          4.0165908118        4.2258539664        0.0608850916
 H          2.2550672631        4.3787804547        0.0188173415
 H          3.1632097632        4.0904824506       -1.4708412698
 H          1.1521690338        2.4636944264        0.7732148106
 H          2.4025554191        0.0613682830        1.5204933345
  53
        -68.44649251
 C         -6.6659408301        1.5418976343       -0.0311384919
 C         -6.6420878464        0.0493788775       -0.3393365321
 C         -5.6321964950       -0.3269266265       -1.4250066064
 C         -4.1734283720       -0.0226592872       -1.0832987225
 C         -3.6573250424       -0.8052064966        0.1300196413
 C         -2.1915098206       -0.5481448871        0.3241798309
 C         -1.7576051544        0.5018470055        1.1206166469
 C         -0.4063863567        0.7840453127        1.2562312604
 O         -0.0004541665        1.7958070699        2.0824267253
 C          0.5573120047        0.0349461751        0.5755196476
 C          0.1158886834       -1.0678362291       -0.1589674754
 C         -1.2442256085       -1.3365722552       -0.2992178091
 O          0.9472910999       -1.9497980654       -0.7736020409
 C          2.3320546407       -1.9321990191       -0.4086051686
 C          2.5056853796       -2.6250161266        0.9466404979
 C          3.0295937286       -2.7474787062       -1.4996551634
 C          2.7903188434       -0.4676254179       -0.4066886641
 C          4.2821457907       -0.2171320581       -0.2143989181
 C          4.5826887385        1.2387006362       -0.5719329288
 C          3.5331123159        2.1928437558       -0.0672154947
 C          3.8700399365        3.6448579522       -0.2337666616
 C          2.3863136064        1.7910748766        0.4614811691
 C          2.0343426579        0.3395246479        0.6534740251
 H         -5.7275016619        1.8653812851        0.4114161908
 H         -6.8329860285        2.1155305719       -0.9404503266
 H         -7.4661042826        1.7699813036        0.6697768977
 H         -6.4282693708       -0.5083538880        0.5739975326
 H         -7.6348353431       -0.2557452071       -0.6797953947
 H         -5.8898984494        0.2101022353       -2.3415591007
 H         -5.7279932545       -1.3958452124       -1.6322278870
 H         -4.0459350573        1.0456786633       -0.9027058129
 H         -3.5548151287       -0.2805113772       -1.9461882151
 H         -4.2036670646       -0.5014694054        1.0239557606
 H         -3.8284693201       -1.8707698085       -0.0340153108
 H         -2.4790968959        1.1087841157        1.6535224310
 H         -0.7767677709        2.1920735770        2.4958291233
 H         -1.5338333285       -2.1868334520       -0.8961472513
 H          2.2339585635       -3.6740544386        0.8535729368
 H          3.5382684413       -2.5565909850        1.2766277018
 H          1.8587889739       -2.1738953063        1.6947402362
 H          2.4827481493       -3.6749709381       -1.6482770654
 H          4.0494242172       -2.9829080015       -1.2119950507
 H          3.0354148763       -2.1990825908       -2.4380031092
 H          2.5040359229       -0.0665893034       -1.3880890032
 H          4.8792965135       -0.8762549163       -0.8453803419
 H          4.5549903571       -0.4040450253        0.8259779389
 H          5.5588787446        1.5280352647       -0.1727828301
 H          4.6422955140        1.3419670944       -1.6612946983
 H          4.7616949443        3.8953806968        0.3411107657
 H          3.0517027243        4.2757512419        0.1022243783
 H          4.0786152663        3.8684115739       -1.2800535863
 H          1.6691620837        2.5151064078        0.8103111057
 H          2.3864640562        0.0541252751        1.6566236287
  53
        -68.44649242
 C         -6.6731985295        1.5302942830       -0.0341520790
 C         -6.6442425162        0.0379647747       -0.3427867119
 C         -5.6314762649       -0.3347467103       -1.4269752993
 C         -4.1744171791       -0.0237457483       -1.0840736600
 C         -3.6581102027       -0.7990318642        0.1338384754
 C         -2.1920108282       -0.5419545706        0.3260869010
 C         -1.7563133377        0.5073233820        1.1224190599
 C         -0.4046011419        0.7878798072        1.2572370907
 O          0.0028520261        1.7988588258        2.0836434504
 C          0.5578369017        0.0379710903        0.5756608421
 C          0.1144846559       -1.0635191454       -0.1596197901
 C         -1.2459891628       -1.3307943914       -0.2987746864
 O          0.9442011561       -1.9457826526       -0.7760906681
 C          2.3292042123       -1.9309093485       -0.4120560849
 C          2.5026457275       -2.6265585961        0.9417405761
 C          3.0246413843       -2.7452874253       -1.5051264292
 C          2.7898397300       -0.4670863957       -0.4078033128
 C          4.2821860135       -0.2198270749       -0.2153470380
 C          4.5856453707        1.2360502886       -0.5700342620
 C          3.5383750807        2.1912745355       -0.0626439044
 C          3.8786711435        3.6429405095       -0.2253898678
 C          2.3907420880        1.7907475041        0.4651888537
 C          2.0355056810        0.3395725064        0.6539220520
 H         -5.7365834074        1.8563790845        0.4103143934
 H         -6.8401935087        2.1038127415       -0.9435093458
 H         -7.4753605776        1.7555623734        0.6653642489
 H         -6.4299997532       -0.5195105666        0.5705952673
 H         -7.6354850982       -0.2701433999       -0.6849152936
 H         -5.8905422195        0.2001989997       -2.3443456513
 H         -5.7223151597       -1.4042717039       -1.6332702913
 H         -4.0510622113        1.0458384238       -0.9080728254
 H         -3.5534766807       -0.2832461986       -1.9447883945
 H         -4.2039977441       -0.4898071473        1.0261796193
 H         -3.8297384645       -1.8655010540       -0.0239137337
 H         -2.4766744476        1.1149184368        1.6561333446
 H         -0.7728472206        2.1959708345        2.4973849230
 H         -1.5369741049       -2.1805023530       -0.8958231915
 H          2.2289862668       -3.6749214932        0.8469190875
 H          3.5355633541       -2.5605628243        1.2711252848
 H          1.8570646826       -2.1756811867        1.6910923232
 H          4.0442904705       -2.9829388274       -1.2186903078
 H          3.0306556411       -2.1951513608       -2.4424532150
 H          2.4761601886       -3.6715927847       -1.6550888371
 H          2.5040957805       -0.0637922029       -1.3884322573
 H          4.8778856255       -0.8789437689       -0.8476996038
 H          4.5548465350       -0.4092488652        0.8246127731
 H          5.5626844804        1.5224654445       -0.1708891523
 H          4.6447550807        1.3414719065       -1.6591979964
 H          4.7715866875        3.8895402959        0.3491803278
 H          3.0622726347        4.2748147514        0.1134494910
 H          4.0866110806        3.8690326409       -1.2712421520
 H          1.6754108199        2.5155597406        0.8160982778
 H          2.3870314366        0.0512924426        1.6564735484
  53
        -68.44648265
 C         -6.8546216492        0.7135235507        0.8991503267
 C         -6.6953855304       -0.0171294734       -0.4289708587
 C         -5.7933663724       -1.2491484394       -0.3361416155
 C         -4.3488157989       -0.9623314969        0.0742655646
 C         -3.5966436152       -0.0779438815       -0.9272442613
 C         -2.1560941071        0.0536787634       -0.5263732129
 C         -1.7519709419        1.0644475264        0.3338435985
 C         -0.4268849414        1.1798558355        0.7270927599
 O         -0.0592022567        2.1619965877        1.6053010107
 C          0.5442378740        0.2932212137        0.2537795909
 C          0.1128506809       -0.7703077899       -0.5420686822
 C         -1.2181214462       -0.8710706609       -0.9419611496
 O          0.9253464345       -1.7694880972       -0.9759956748
 C          2.2074077264       -1.9098832726       -0.3534338133
 C          2.0332351753       -2.5724544663        1.0168342216
 C          2.9883738836       -2.8413037191       -1.2830632283
 C          2.8396110729       -0.5136221883       -0.2784357294
 C          4.2882307334       -0.4424231805        0.1924097811
 C          4.8335207416        0.9522675091       -0.1157741082
 C          3.8380673102        2.0448901820        0.1704913196
 C          4.3825180173        3.4378595096        0.0574257121
 C          2.5706970979        1.8055796865        0.4747761575
 C          2.0066794039        0.4158484750        0.6099902923
 H         -7.1998917900        0.0289179225        1.6711357086
 H         -5.9124601213        1.1484989700        1.2221045035
 H         -7.5818754932        1.5169119227        0.8033291727
 H         -7.6805769291       -0.3437723852       -0.7713912819
 H         -6.3043571718        0.6717303775       -1.1796544587
 H         -5.7886763447       -1.7493676534       -1.3079571247
 H         -6.2256913680       -1.9434901683        0.3890814493
 H         -3.8179751016       -1.9136001319        0.1586392107
 H         -4.3257195099       -0.4916410522        1.0582478044
 H         -3.6639652877       -0.5270922721       -1.9198719133
 H         -4.0565856638        0.9104277520       -0.9637630044
 H         -2.4768791703        1.7774039145        0.7068075385
 H         -0.8417107846        2.6692008015        1.8522993073
 H         -1.4951897345       -1.6964045394       -1.5785515473
 H          2.9853523071       -2.6201990177        1.5373963828
 H          1.3196895645       -2.0201514617        1.6230148348
 H          1.6529506875       -3.5827585662        0.8839470567
 H          3.8972780296       -3.1907721261       -0.8034830278
 H          3.2407078930       -2.3298087827       -2.2082389093
 H          2.3656945625       -3.6988227902       -1.5245483361
 H          2.7963330864       -0.1138210591       -1.3003008961
 H          4.9044380861       -1.1911764201       -0.3064047896
 H          4.3345612500       -0.6259311050        1.2675591667
 H          5.7463061806        1.1325123166        0.4589820035
 H          5.1090270897        1.0104008788       -1.1748489382
 H          4.8113629731        3.5985574538       -0.9317303519
 H          5.1743389762        3.5959307716        0.7897827708
 H          3.6026998493        4.1757963282        0.2245343069
 H          1.8990948555        2.6238930822        0.6734918515
 H          2.1243165489        0.1232034615        1.6646284434
  53
        -68.44644946
 C         -6.4838527544        1.0798646294       -1.8658727403
 C         -4.9694328522        1.2501448755       -1.8215708000
 C         -4.2472192223        0.0691925549       -1.1726744157
 C         -4.5367685853       -0.0680050266        0.3197510247
 C         -3.7029638064       -1.1827818710        0.9651210291
 C         -2.2372317389       -0.8591634394        0.9345975406
 C         -1.7127530844        0.0708471932        1.8192178165
 C         -0.3715096903        0.4205389701        1.7678406700
 O          0.0698632177        1.3036392487        2.7118425209
 C          0.4775081011       -0.1314951995        0.8040914646
 C         -0.0361186914       -1.1380645218       -0.0153963628
 C         -1.3852737845       -1.4768621687        0.0367923756
 O          0.7224015265       -1.8526327154       -0.8925233872
 C          2.1421793658       -1.8158059257       -0.7160402167
 C          2.5276247410       -2.6596954733        0.5032322653
 C          2.7094748513       -2.4515043256       -1.9865193653
 C          2.5474948403       -0.3407967687       -0.5879722326
 C          4.0407083284       -0.0330416558       -0.5560846164
 C          4.2456550451        1.4755851014       -0.7272770506
 C          3.1694098723        2.3108107803       -0.0880005294
 C          3.3571228605        3.7915373320       -0.2246448634
 C          2.1140134254        1.7870501827        0.5208810870
 C          1.9201814262        0.2952651230        0.6587951301
 H         -6.7473408356        0.1517663209       -2.3689253419
 H         -6.9045533871        1.0601910351       -0.8639809288
 H         -6.9414775204        1.9046091689       -2.4080326079
 H         -4.5988329054        1.3651219205       -2.8431760301
 H         -4.7228753859        2.1646611751       -1.2771898113
 H         -3.1709782384        0.1997282177       -1.3063510163
 H         -4.5352605044       -0.8530545974       -1.6831642956
 H         -5.5940831004       -0.2904043251        0.4734477033
 H         -4.3129931407        0.8776741038        0.8178295947
 H         -4.0245058362       -1.3056061662        2.0019557133
 H         -3.8863127020       -2.1199676088        0.4367253207
 H         -2.3303213156        0.5336277884        2.5724822796
 H          1.0257858867        1.4071186918        2.6421155757
 H         -1.7413283779       -2.2427695653       -0.6338302567
 H          2.2729111756       -3.7001537747        0.3158936473
 H          3.5950180870       -2.5877210510        0.6918307975
 H          1.9830117688       -2.3344882546        1.3862321502
 H          2.5577764634       -1.7951039417       -2.8393428340
 H          2.1853868025       -3.3845891154       -2.1755350388
 H          3.7688626770       -2.6594735317       -1.8733767982
 H          2.1151497215        0.1598815821       -1.4641348385
 H          4.5681036114       -0.5592219627       -1.3519234492
 H          4.4614463853       -0.3588808305        0.3974094484
 H          5.2202910759        1.7680880646       -0.3266426131
 H          4.2581887910        1.7205871293       -1.7948166790
 H          4.2850787510        4.1011053256        0.2559610592
 H          2.5321158590        4.3349388912        0.2281931138
 H          3.4224504334        4.0693121236       -1.2762869592
 H          1.3444330592        2.4417910811        0.9038444353
 H          2.4837482681       -0.0448225357        1.5447734803
  53
        -68.44642839
 C         -5.2879884293       -3.2026816353        1.1578769340
 C         -5.4773441505       -1.6990653042        0.9994264458
 C         -4.5217446998       -1.1131026063       -0.0368790300
 C         -4.7061641941        0.3928250083       -0.1983703315
 C         -3.7391964066        0.9890733643       -1.2292883177
 C         -2.3108621492        0.8603272197       -0.7833691856
 C         -1.8170089125        1.6912772079        0.2110212830
 C         -0.5047082536        1.5737460435        0.6447430367
 O         -0.1031402141        2.4091986645        1.6457077561
 C          0.3529945508        0.6250708433        0.0805534636
 C         -0.1695059558       -0.2488100487       -0.8730215321
 C         -1.4846343850       -0.1168532797       -1.3093014447
 O          0.5457858561       -1.2674025625       -1.4274221418
 C          1.7392257937       -1.6726733235       -0.7520371586
 C          1.3541844848       -2.4528499266        0.5097042033
 C          2.4630670489       -2.5892118023       -1.7391074694
 C          2.5661157422       -0.4089889697       -0.4628446715
 C          3.9849136641       -0.6530049088        0.0636260493
 C          4.4703022863        0.4774931618        0.9973544153
 C          3.8624077988        1.8037297013        0.6391217624
 C          4.7595876254        2.9948890444        0.5564256755
 C          2.5516256766        1.8354249724        0.4276671171
 C          1.8012187317        0.5299002872        0.4881161039
 H         -4.2709503689       -3.4263155304        1.4728554074
 H         -5.9739966934       -3.6007767863        1.9022442889
 H         -5.4723551458       -3.7117404224        0.2141723565
 H         -6.5078045426       -1.4928950704        0.6997368710
 H         -5.3090497272       -1.2090775383        1.9612750481
 H         -4.6896416734       -1.6031337454       -0.9990456461
 H         -3.4919694844       -1.3172355509        0.2637931314
 H         -4.5454893281        0.8804681463        0.7652967104
 H         -5.7323674364        0.6001270642       -0.5116755867
 H         -3.8744639932        0.4802342307       -2.1852369419
 H         -3.9805937289        2.0455019979       -1.3664646288
 H         -2.4386806400        2.4457186665        0.6662380796
 H          0.8298311472        2.2571248971        1.8419782696
 H         -1.8403560449       -0.8015773126       -2.0626974270
 H          2.2331966471       -2.7124801401        1.0924385055
 H          0.6760832775       -1.8694604091        1.1278723376
 H          0.8436112244       -3.3688165709        0.2219181318
 H          2.7769507483       -2.0239277258       -2.6125812931
 H          1.7833104086       -3.3720926514       -2.0646965509
 H          3.3326453431       -3.0428436453       -1.2740787864
 H          2.6374231886        0.1188685696       -1.4224867086
 H          4.6673517209       -0.7332859825       -0.7829843187
 H          4.0320483569       -1.5947709645        0.6116570787
 H          4.1797366930        0.2315917155        2.0242352597
 H          5.5588694515        0.5325030001        0.9729033929
 H          5.2837049326        3.1411920803        1.5009619391
 H          4.1932168386        3.8936068399        0.3258934221
 H          5.5106428681        2.8455301081       -0.2191835655
 H          2.0399624891        2.7327888752        0.1138882026
 H          1.8755077279        0.1206849608        1.5087868575
  53
        -68.44640948
 C         -5.1877108337        1.0667778845       -2.9722352597
 C         -5.3549737612        0.9634178854       -1.4612274520
 C         -4.4423832316       -0.1034087399       -0.8616144824
 C         -4.6107697488       -0.2165899855        0.6506081440
 C         -3.6891072382       -1.2816453290        1.2586271892
 C         -2.2434588457       -0.9035171555        1.1105238867
 C         -1.6855061219        0.0468315735        1.9522946984
 C         -0.3642331266        0.4402987899        1.7987644237
 O          0.1193380758        1.3562798045        2.6865699513
 C          0.4305328267       -0.1019561748        0.7846720570
 C         -0.1189885094       -1.1029186857       -0.0166884014
 C         -1.4491189142       -1.4831091738        0.1372149919
 O          0.5858640870       -1.7642965323       -0.9772641606
 C          2.0123288554       -1.6933881596       -0.9068462640
 C          2.4960705777       -2.5736164836        0.2506726042
 C          2.5047603960       -2.2568488596       -2.2403720952
 C          2.4009454715       -0.2133574401       -0.7549690006
 C          3.8977420232        0.0933453434       -0.8790014599
 C          4.3227022191        1.3119923448       -0.0306605797
 C          3.2121333487        2.3135105926        0.1121714131
 C          3.5270505014        3.7566109577       -0.1092309379
 C          2.0120656015        1.8488125298        0.4405009412
 C          1.8500806493        0.3557340948        0.5654854279
 H         -5.8411723444        1.8346116430       -3.3803216865
 H         -4.1600960144        1.3196836804       -3.2240330500
 H         -5.4320913869        0.1195600359       -3.4483565280
 H         -5.1278260017        1.9293243231       -1.0041153561
 H         -6.3951934530        0.7238274253       -1.2268898996
 H         -3.4024208178        0.1395373840       -1.0892980216
 H         -4.6661449499       -1.0684340692       -1.3228765580
 H         -5.6484829588       -0.4705653371        0.8808144260
 H         -4.3921849584        0.7489203351        1.1116060278
 H         -3.9281719300       -1.3885670817        2.3190516032
 H         -3.8737415123       -2.2386728567        0.7676120513
 H         -2.2617771304        0.4942078407        2.7464876173
 H          1.0361051463        1.5673638470        2.4696694360
 H         -1.8367406511       -2.2485643915       -0.5160812968
 H          3.5698557388       -2.4846644710        0.3874326930
 H          1.9945679134       -2.2988708265        1.1754934510
 H          2.2569638271       -3.6120787664        0.0343436565
 H          2.2013229299       -1.6060823539       -3.0561878492
 H          2.0607587555       -3.2356849840       -2.4006436452
 H          3.5860471788       -2.3515861578       -2.2404861326
 H          1.8709283078        0.3118297881       -1.5598626344
 H          4.1333874416        0.2885553131       -1.9255500666
 H          4.4908999332       -0.7665548078       -0.5655767067
 H          4.6014743038        0.9619950791        0.9689323948
 H          5.2064503265        1.7753002802       -0.4699197941
 H          3.8757947450        3.9119781982       -1.1300490658
 H          4.3210003543        4.0790910946        0.5644597566
 H          2.6502372089        4.3767656792        0.0586154739
 H          1.1459194048        2.4892391253        0.5127286094
 H          2.4882059947       -0.0061830706        1.3880416092
  53
        -68.44640487
 C         -5.5380856544        2.4167322070       -1.6188347829
 C         -5.3916323873        0.9011225483       -1.5617217677
 C         -4.6019237581        0.4536572766       -0.3342704070
 C         -4.4581327522       -1.0638209728       -0.2681161379
 C         -3.6615125674       -1.5185005650        0.9615437097
 C         -2.2360305689       -1.0511215648        0.8942981447
 C         -1.8082580985        0.0419351592        1.6304808864
 C         -0.5001629818        0.4959435740        1.5284399741
 O         -0.1495217551        1.5591494761        2.3079481454
 C          0.4098693854       -0.1295502440        0.6727379818
 C         -0.0113599368       -1.2679113523       -0.0166306474
 C         -1.3266201849       -1.7084669666        0.0828909785
 O          0.8124797117       -2.0109115498       -0.8079402746
 C          2.2207228038       -1.8375026579       -0.6303757828
 C          2.6421365317       -2.5103137624        0.6805221891
 C          2.8625507220       -2.5517547221       -1.8204234026
 C          2.5149886087       -0.3286695511       -0.6669625236
 C          3.9984673917        0.0548626768       -0.7111011032
 C          4.2789445570        1.4078622094       -0.0210747044
 C          3.1079671300        2.3437601669       -0.1192553836
 C          3.3639996861        3.7581373248       -0.5250574797
 C          1.9097091010        1.8523998374        0.1750887865
 C          1.8170118514        0.3849349660        0.5053954033
 H         -6.0622297484        2.7824673071       -0.7384054098
 H         -4.5601224042        2.8917269191       -1.6551176515
 H         -6.0990624479        2.7163245970       -2.5012893218
 H         -6.3829528223        0.4414932909       -1.5421106037
 H         -4.8835303563        0.5515141048       -2.4634776493
 H         -5.1075985790        0.8080489905        0.5672711704
 H         -3.6087881114        0.9069046127       -0.3573769077
 H         -3.9543828909       -1.4183224718       -1.1698245947
 H         -5.4508559007       -1.5197803286       -0.2373718108
 H         -4.1372319622       -1.1270044128        1.8623621499
 H         -3.6825902566       -2.6095262085        1.0093941246
 H         -2.4758455276        0.5606026718        2.2997728887
 H          0.7701873680        1.7984536371        2.1377171032
 H         -1.6136690459       -2.5834397161       -0.4786085303
 H          2.0438028437       -2.1405409762        1.5097192775
 H          2.4796925633       -3.5825455086        0.6006441872
 H          3.6925362304       -2.3320318667        0.8914936250
 H          2.4873544964       -3.5704014060       -1.8708462955
 H          3.9427566247       -2.5746000223       -1.7165686053
 H          2.6015222397       -2.0450597407       -2.7457415848
 H          2.0332921520        0.0407000679       -1.5813668129
 H          4.3180415814        0.1130332304       -1.7519745475
 H          4.6052951137       -0.7102958888       -0.2255705590
 H          4.4845770624        1.2237742133        1.0387461731
 H          5.1726399149        1.8611533487       -0.4505412789
 H          4.0754794544        4.2251073744        0.1560618458
 H          2.4437314718        4.3366495976       -0.5226403161
 H          3.7946430029        3.7889945482       -1.5257794288
 H          1.0076357727        2.4380450422        0.0810247206
 H          2.3963448171        0.1867668623        1.4218423030
  53
        -68.44636424
 C         -5.8325357539       -0.7065249224        2.6914279454
 C         -5.5814529759       -1.2500789688        1.2902547723
 C         -4.7314123400       -0.2956225366        0.4554670699
 C         -4.4801543093       -0.8337770888       -0.9499291744
 C         -3.6141102891        0.1144524912       -1.7889663247
 C         -2.2299613358        0.2457030182       -1.2209534290
 C         -1.8629192894        1.3634381019       -0.4890302344
 C         -0.5851293832        1.4728291032        0.0427856378
 O         -0.3101601096        2.5918648491        0.7730178083
 C          0.3615739653        0.4649895065       -0.1561827322
 C         -0.0371047225       -0.6867768304       -0.8366388510
 C         -1.3148430067       -0.7817849819       -1.3770736298
 O          0.7716257041       -1.7689955101       -1.0141533291
 C          1.9236486976       -1.8698844083       -0.1731196530
 C          1.4750341971       -2.2667864552        1.2376246141
 C          2.7705319577       -2.9833533444       -0.7904963745
 C          2.6605018419       -0.5213610170       -0.2249477105
 C          4.0420719972       -0.4965210544        0.4383911245
 C          4.3950826778        0.8926664489        1.0139111656
 C          3.7510088325        2.0053002649        0.2366600930
 C          4.5906878277        3.1793245776       -0.1470229696
 C          2.4610954881        1.8787377008       -0.0531466158
 C          1.7750258327        0.5990441994        0.3507031853
 H         -6.3582508858        0.2446647492        2.6426740064
 H         -6.4345353589       -1.4020242638        3.2720072638
 H         -4.8904904501       -0.5488725087        3.2120928613
 H         -5.0741364194       -2.2151198692        1.3610951882
 H         -6.5381350464       -1.4162589947        0.7888366130
 H         -3.7733028415       -0.1338174811        0.9537194084
 H         -5.2371289381        0.6705781455        0.3874336694
 H         -5.4370172933       -0.9833312806       -1.4561970324
 H         -3.9830635686       -1.8036066357       -0.8807407499
 H         -3.5503376859       -0.2770529946       -2.8067534595
 H         -4.0910248874        1.0952644832       -1.8288639180
 H         -2.5566248667        2.1706609479       -0.3163567361
 H          0.6101592636        2.5726214454        1.0641382592
 H         -1.5729525196       -1.6790376181       -1.9170358038
 H          0.7189969854       -1.5778477513        1.6064291493
 H          1.0373666925       -3.2617822670        1.2072920883
 H          2.3146208903       -2.2765934821        1.9265703109
 H          3.6197195000       -3.2157864280       -0.1556377796
 H          3.1276527314       -2.6811219283       -1.7714171590
 H          2.1590755495       -3.8739022572       -0.9087524621
 H          2.7835094563       -0.2968353503       -1.2922398843
 H          4.7938717578       -0.7778546846       -0.2995928084
 H          4.0901650461       -1.2258523206        1.2479216229
 H          4.0379691212        0.9437364132        2.0479632960
 H          5.4780535834        1.0157613969        1.0387242488
 H          5.0312143872        3.6364950630        0.7390744413
 H          3.9996067219        3.9261955595       -0.6708554879
 H          5.4066955115        2.8606019962       -0.7954561710
 H          1.9311783464        2.6036456403       -0.6524674001
 H          1.7871423723        0.5166775218        1.4496372946
  53
        -68.44630734
 C         -7.9913506752        0.4047390015       -0.6451145290
 C         -6.5343138697        0.5162195108       -0.2123382080
 C         -5.5825620469        0.1034872124       -1.3332135387
 C         -4.1081329604        0.3072774753       -0.9869326920
 C         -3.6095951519       -0.6302897237        0.1194042283
 C         -2.1357909919       -0.4406508007        0.3298051403
 C         -1.6703400955        0.5139397474        1.2199815121
 C         -0.3091755402        0.7373928685        1.3715153598
 O          0.0612028638        1.6571582651        2.3109105670
 C          0.6233376630        0.0305791237        0.6072800447
 C          0.1491201632       -0.9935135170       -0.2150525701
 C         -1.2175481675       -1.2055505964       -0.3674370613
 O          0.9629943995       -1.8459054278       -0.8978425669
 C          2.3318673881       -1.9196268498       -0.4867431123
 C          2.4275354767       -2.6852138613        0.8369123754
 C          3.0293994818       -2.7109602830       -1.5945576754
 C          2.8587782741       -0.4807250023       -0.3970136719
 C          4.3508023156       -0.3045786731       -0.1356874403
 C          4.7325704212        1.1595020557       -0.3763363647
 C          3.6578215438        2.1387554276        0.0117192071
 C          4.0144610852        3.5797303684       -0.1955669637
 C          2.4704263580        1.7650382434        0.4692881367
 C          2.1064345005        0.3138074999        0.6777986079
 H         -8.2270945465       -0.6188041729       -0.9290212885
 H         -8.6560530811        0.6976190938        0.1644959787
 H         -8.1871334830        1.0491655044       -1.4996698463
 H         -6.3204548778        1.5471858156        0.0789562468
 H         -6.3738838297       -0.1177227265        0.6611317584
 H         -5.8150496139        0.6951241214       -2.2225490354
 H         -5.7535934111       -0.9464599823       -1.5831080295
 H         -3.9448328786        1.3417158256       -0.6770376177
 H         -3.5060377488        0.1326329270       -1.8817989614
 H         -4.1410920456       -0.4176759972        1.0474009242
 H         -3.8139441623       -1.6629957196       -0.1694596138
 H         -2.3511520899        1.0953826512        1.8210562195
 H          1.0213994796        1.6698055710        2.3961697796
 H         -1.5379435693       -1.9920755801       -1.0321931522
 H          1.7827216328       -2.2379453377        1.5893536892
 H          2.1026940005       -3.7115964002        0.6834052724
 H          3.4520212231       -2.6911522000        1.1981277269
 H          4.0299115724       -3.0011946549       -1.2894017795
 H          3.0849237106       -2.1202382286       -2.5051124274
 H          2.4506274428       -3.6069070282       -1.8027560076
 H          2.6261675039       -0.0216423880       -1.3667258263
 H          4.9433748639       -0.9422750542       -0.7919133600
 H          4.5772237200       -0.5824869607        0.8957376004
 H          5.6546777196        1.3983233073        0.1609064131
 H          4.9414032748        1.3090429773       -1.4411350004
 H          3.1866050658        4.2310645617        0.0716700513
 H          4.2768171770        3.7586950541       -1.2379307259
 H          4.8790642953        3.8465348017        0.4120397809
 H          1.7197204105        2.5159729292        0.6694941484
 H          2.4824403103        0.0033715935        1.6679575424
  53
        -68.44629747
 C         -7.7714657510       -0.3636688875       -1.5183307617
 C         -6.2645408337       -0.4860627001       -1.3263279237
 C         -5.6891254640        0.7328037354       -0.6081683087
 C         -4.1652654194        0.7104803870       -0.4953555061
 C         -3.6417762618       -0.3897184764        0.4358060531
 C         -2.1504361862       -0.2856819410        0.5679900068
 C         -1.5845549781        0.5162962216        1.5462056191
 C         -0.2074888888        0.6651570646        1.6311375495
 O          0.2652157238        1.4291293058        2.6599684277
 C          0.6397847785        0.0388073048        0.7129780989
 C          0.0663196697       -0.8410382866       -0.2072774266
 C         -1.3157372860       -0.9787306623       -0.2907065924
 O          0.7939477501       -1.6184545343       -1.0566091704
 C          2.1814877781       -1.8001848471       -0.7565719350
 C          2.3260399622       -2.7471823439        0.4391484324
 C          2.7688289135       -2.4534345200       -2.0088985342
 C          2.7796631114       -0.4088330209       -0.5067155565
 C          4.2919573893       -0.3266917021       -0.3288625997
 C          4.7253158599        1.1414734272       -0.3918530919
 C          3.7242166449        2.0958095240        0.2011688873
 C          4.1332065766        3.5374375053        0.1690635555
 C          2.5526430932        1.7058631829        0.6852260529
 C          2.1358859172        0.2542002045        0.7173859837
 H         -8.0113172374        0.5152741983       -2.1132276974
 H         -8.1664312804       -1.2401254717       -2.0271285345
 H         -8.2716991656       -0.2710251902       -0.5565618039
 H         -6.0519467810       -1.3886264699       -0.7512454499
 H         -5.7820661052       -0.5892906194       -2.3010543986
 H         -6.1249710943        0.8016100161        0.3915083357
 H         -5.9832050297        1.6309810784       -1.1574916910
 H         -3.8237150459        1.6751629430       -0.1128016727
 H         -3.7268473227        0.5756273622       -1.4865842278
 H         -4.1102490841       -0.2797682800        1.4157892801
 H         -3.9053359767       -1.3678709676        0.0327981961
 H         -2.1972868537        1.0324317425        2.2680490882
 H          1.2284371864        1.3939703292        2.6782928550
 H         -1.7147896420       -1.6513542706       -1.0333413319
 H          3.3702201687       -2.8420400139        0.7234232720
 H          1.7524884560       -2.3863743406        1.2893837183
 H          1.9444685392       -3.7290014771        0.1689546591
 H          2.7936085917       -1.7430825301       -2.8310616587
 H          2.1366095892       -3.2888875832       -2.2975901256
 H          3.7721175130       -2.8209407788       -1.8173070229
 H          2.5068665893        0.1903049301       -1.3852550353
 H          4.8107409306       -0.8874579327       -1.1065320722
 H          4.5709813876       -0.7549790494        0.6360524107
 H          5.6899421358        1.2680785013        0.1076116798
 H          4.8725421813        1.4311271598       -1.4379226976
 H          5.0466496460        3.6844091710        0.7452375767
 H          3.3553516414        4.1750827493        0.5805754711
 H          4.3358242361        3.8506952108       -0.8547533994
 H          1.8518876117        2.4485739713        1.0386398163
 H          2.5601282125       -0.2058905283        1.6265242403
  53
        -68.44629579
 C         -7.8615477251       -0.8408125968       -1.2333107401
 C         -6.3403196251       -0.8206386486       -1.1434391899
 C         -5.8656221353       -0.4828928525        0.2682977697
 C         -4.3482651882       -0.5561578279        0.4348150735
 C         -3.6000581961        0.5344840995       -0.3411581948
 C         -2.1285507608        0.4629912480       -0.0532973842
 C         -1.5891984290        1.1420880577        1.0274483243
 C         -0.2324073628        1.0634353453        1.3077868818
 O          0.2040598554        1.7247042630        2.4203457133
 C          0.6268847621        0.3227613384        0.4915834305
 C          0.0581465862       -0.4382117029       -0.5319021692
 C         -1.3018715812       -0.3477835979       -0.8108096217
 O          0.7667655992       -1.3092706037       -1.3027401307
 C          2.0543300811       -1.7132399140       -0.8261305936
 C          1.8835239082       -2.6912121429        0.3408461197
 C          2.7017001290       -2.4299973072       -2.0124367878
 C          2.8198505060       -0.4386002916       -0.4448932892
 C          4.2872371484       -0.6002595605       -0.0626741018
 C          4.9470069667        0.7814565560       -0.0109087584
 C          4.0333901335        1.8721755008        0.4792234786
 C          4.6609781596        3.2310267746        0.5580287461
 C          2.7599804962        1.6647830139        0.7864603617
 C          2.1229118987        0.2973717075        0.7062464135
 H         -8.2751322244       -1.5860243780       -0.5569039110
 H         -8.2718751447        0.1299399245       -0.9629558603
 H         -8.1834615829       -1.0794087711       -2.2445028438
 H         -5.9470503521       -1.7987899547       -1.4300850101
 H         -5.9526103212       -0.0849037520       -1.8497827664
 H         -6.3261354381       -1.1856982161        0.9675672280
 H         -6.2105301618        0.5191139469        0.5347176310
 H         -3.9910503992       -1.5349014743        0.1071695384
 H         -4.1025454774       -0.4539112079        1.4944297007
 H         -3.7674122156        0.4041807259       -1.4105768453
 H         -3.9875447578        1.5112806657       -0.0453491532
 H         -2.2086073071        1.7421244277        1.6749486169
 H          1.1379183858        1.5363079386        2.5680096446
 H         -1.6927932052       -0.9324989544       -1.6284352173
 H          2.8508016962       -2.9547649220        0.7591115114
 H          1.2601415742       -2.2584731765        1.1193961499
 H          1.3963121555       -3.5956537732       -0.0157428327
 H          2.9497444511       -1.7186855849       -2.7958037580
 H          1.9941686634       -3.1497487826       -2.4154607170
 H          3.5997543010       -2.9549562968       -1.7021398047
 H          2.7674304643        0.2109257968       -1.3284085019
 H          4.8157217973       -1.2232118529       -0.7844735883
 H          4.3602217399       -1.0832277830        0.9139299830
 H          5.8413687889        0.7451052081        0.6173869638
 H          5.2801196614        1.0617189486       -1.0160477239
 H          5.4978816373        3.2212899358        1.2562142858
 H          3.9418778016        3.9766928667        0.8864638923
 H          5.0488341683        3.5259564956       -0.4166159358
 H          2.1406671466        2.5032624427        1.0709090287
 H          2.3401619956       -0.2395032541        1.6457890734
  53
        -68.44616519
 C         -6.5275938976        2.0041857892       -1.2080646260
 C         -6.4889350350        0.5300788861       -1.5940481678
 C         -5.7904624080       -0.3459870408       -0.5534495394
 C         -4.2909215388       -0.0799499373       -0.4493184839
 C         -3.6137374491       -1.0349202725        0.5404135644
 C         -2.1452150019       -0.7395862446        0.6318229054
 C         -1.6802802301        0.2413140210        1.4936176046
 C         -0.3312669428        0.5624650913        1.5399434531
 O          0.0452805214        1.5016362617        2.4574383818
 C          0.5863046106       -0.0709930596        0.6971270637
 C          0.1231379751       -1.1215407781       -0.0974560303
 C         -1.2328704116       -1.4307665199       -0.1451457843
 O          0.9398203853       -1.9091524714       -0.8510599490
 C          2.3378955489       -1.8888473449       -0.5454629172
 C          2.5871261927       -2.6531295751        0.7588099788
 C          3.0025858946       -2.6231158948       -1.7112487275
 C          2.7686626263       -0.4169821605       -0.4801872133
 C          4.2602778439       -0.1377624328       -0.3299795485
 C          4.5196845639        1.3510106317       -0.5822196914
 C          3.4111181571        2.2499884609       -0.1052263314
 C          3.6491715726        3.7135115082       -0.3243039295
 C          2.2907480267        1.7910845430        0.4361992102
 C          2.0466855124        0.3166999644        0.6568791169
 H         -6.9966422711        2.1297898680       -0.2344419805
 H         -5.5256799840        2.4226057906       -1.1643603697
 H         -7.0996721818        2.5711591542       -1.9392973993
 H         -7.5140179214        0.1721502436       -1.7185906325
 H         -5.9819979442        0.4199280818       -2.5554348792
 H         -5.9422677675       -1.3950693550       -0.8206300126
 H         -6.2552893121       -0.1844823301        0.4222352050
 H         -4.1138700470        0.9446878678       -0.1203123035
 H         -3.8288404230       -0.1997781055       -1.4318412755
 H         -4.0773482760       -0.9177099216        1.5221011543
 H         -3.7665495850       -2.0639681504        0.2097878240
 H         -2.3512104993        0.7671027287        2.1541370810
 H          1.0058110847        1.5833847852        2.4671962333
 H         -1.5474002067       -2.2342994556       -0.7921022110
 H          1.9721506708       -2.2563134856        1.5627848575
 H          2.3236231482       -3.6988884498        0.6192721216
 H          3.6341003805       -2.5893054849        1.0413527150
 H          2.9474640535       -2.0250676082       -2.6170288288
 H          2.4735707987       -3.5563898288       -1.8849081803
 H          4.0411898168       -2.8439074878       -1.4855769793
 H          2.4317767765        0.0299091089       -1.4246449277
 H          4.8443496585       -0.7282941178       -1.0360089980
 H          4.5830704691       -0.4051549616        0.6783024363
 H          5.4602578982        1.6512042758       -0.1118573632
 H          4.6378631616        1.5209705702       -1.6578501094
 H          4.5359384677        4.0381214694        0.2199435197
 H          2.7999288033        4.3034365837        0.0099878837
 H          3.8195925446        3.9152192227       -1.3814783243
 H          1.5060047252        2.4858919095        0.6988963732
 H          2.5184029918        0.0288095157        1.6122896147
  53
        -68.44616094
 C         -6.9655403191       -0.7345830070        1.5441755658
 C         -6.7695581072       -1.2798695711        0.1343372414
 C         -5.8626577454       -0.4022906926       -0.7291430687
 C         -4.4080440817       -0.3990327109       -0.2662338506
 C         -3.5167160232        0.4241846453       -1.2032744491
 C         -2.0960847873        0.4197451985       -0.7187612430
 C         -1.6822918502        1.3244067053        0.2462109426
 C         -0.3762880406        1.3126733077        0.7145052792
 O         -0.0698744981        2.2054107306        1.7018076709
 C          0.5609209371        0.4106408038        0.2031535639
 C          0.1090172787       -0.5599218086       -0.6932442822
 C         -1.2010535249       -0.5376811538       -1.1618028380
 O          0.8877499536       -1.5782875352       -1.1532203553
 C          2.0914681226       -1.8638095257       -0.4336804787
 C          1.7445058218       -2.5603343676        0.8861399570
 C          2.8674861456       -2.8233611537       -1.3376754070
 C          2.8354796949       -0.5348016654       -0.2431369557
 C          4.2354085325       -0.6052361908        0.3574921627
 C          4.9209121796        0.7549939634        0.1930054310
 C          3.9817271322        1.9254502000        0.3049654195
 C          4.6311569861        3.2692294131        0.1670649880
 C          2.6737872389        1.7888392703        0.4768924939
 C          2.0150578725        0.4364008516        0.6148865267
 H         -7.3512322864        0.2820798304        1.5080354981
 H         -7.6752639938       -1.3504779770        2.0921608087
 H         -6.0284041748       -0.7281919626        2.0941740805
 H         -6.3490328602       -2.2866312803        0.1899217123
 H         -7.7454349500       -1.3560741302       -0.3517567381
 H         -6.2454335207        0.6211644638       -0.7270193508
 H         -5.9015769253       -0.7660036598       -1.7592617979
 H         -4.0337778939       -1.4246196194       -0.2295474142
 H         -4.3354407387        0.0183329308        0.7387824419
 H         -3.5664856234        0.0035298290       -2.2093642318
 H         -3.8908899029        1.4491923744       -1.2412551309
 H         -2.3633542544        2.0530928364        0.6562310438
 H          0.8313819545        2.0564366103        2.0099262349
 H         -1.4985266086       -1.2912212379       -1.8737470902
 H          2.6420181274       -2.7236802015        1.4759227965
 H          1.0380754636       -1.9673407943        1.4617739880
 H          1.2825362675       -3.5218977114        0.6750661214
 H          2.1990284815       -3.6159407393       -1.6632952293
 H          3.7032392410       -3.2648476421       -0.8038299047
 H          3.2341435307       -2.3019767610       -2.2179387674
 H          2.9167013844       -0.0969723813       -1.2465886940
 H          4.8361316715       -1.3712426648       -0.1331522831
 H          4.1668122545       -0.8605229365        1.4169647433
 H          5.7237159310        0.8601049082        0.9281560425
 H          5.3907095461        0.8067868962       -0.7951260000
 H          5.1522649243        3.3417203264       -0.7871463847
 H          5.3680250762        3.4159782389        0.9566445881
 H          3.8961946803        4.0677298148        0.2237255888
 H          2.0461263021        2.6683312329        0.4841432631
 H          2.0932711211        0.1212403884        1.6697533007
  53
        -68.44615457
 C         -6.5470874203        2.0220118991       -1.1370368866
 C         -6.4994197611        0.5615330455       -1.5709646198
 C         -5.7931584117       -0.3430775410       -0.5604674124
 C         -4.2942718652       -0.0741892361       -0.4542037483
 C         -3.6113496922       -1.0483878296        0.5124997137
 C         -2.1439700135       -0.7490686609        0.6092429649
 C         -1.6869552145        0.2386216719        1.4676844781
 C         -0.3393675736        0.5642618729        1.5198788478
 O          0.0289941980        1.5110833599        2.4328699207
 C          0.5852244748       -0.0725164430        0.6872062774
 C          0.1299830198       -1.1299092325       -0.1027943733
 C         -1.2250534673       -1.4428267842       -0.1573604510
 O          0.9537662179       -1.9208594094       -0.8450696375
 C          2.3495668940       -1.8949092087       -0.5295910903
 C          2.5911616341       -2.6481131138        0.7825835812
 C          3.0244663709       -2.6367907084       -1.6845889129
 C          2.7762408802       -0.4214963248       -0.4729103950
 C          4.2659997001       -0.1368087041       -0.3148390642
 C          4.5228946590        1.3506800373       -0.5771462306
 C          3.4083598270        2.2501964829       -0.1152068951
 C          3.6434698445        3.7125653090       -0.3449851187
 C          2.2857680184        1.7923742463        0.4224666681
 C          2.0446780255        0.3191164093        0.6534148681
 H         -7.0159793220        2.1126805482       -0.1594482643
 H         -5.5478898521        2.4454193331       -1.0806524893
 H         -7.1235696074        2.6088796325       -1.8488361242
 H         -7.5224174866        0.2012206559       -1.7053284117
 H         -5.9936277526        0.4861184177       -2.5362987765
 H         -5.9420894561       -1.3842034779       -0.8585472315
 H         -6.2545181090       -0.2129192494        0.4215798916
 H         -4.1199408414        0.9435844611       -0.1032649907
 H         -3.8344793037       -0.1706506187       -1.4403941969
 H         -4.0740611536       -0.9548504649        1.4972793446
 H         -3.7604279945       -2.0705503818        0.1596427187
 H         -2.3634186349        0.7665275547        2.1208931532
 H          0.9891760417        1.5961739775        2.4472759242
 H         -1.5332291032       -2.2512237861       -0.8013182703
 H          1.9694175421       -2.2464382774        1.5789062500
 H          2.3311712520       -3.6956154016        0.6495413406
 H          3.6359008827       -2.5794296537        1.0721360012
 H          4.0619947152       -2.8528881095       -1.4496607737
 H          2.9742854164       -2.0461990690       -2.5955562044
 H          2.4992097815       -3.5728909962       -1.8543733108
 H          2.4445641430        0.0170753191       -1.4231422669
 H          4.8565653784       -0.7312117174       -1.0121307251
 H          4.5826869828       -0.3952524212        0.6977361356
 H          5.4592693630        1.6574476360       -0.1027476268
 H          4.6480871747        1.5123364440       -1.6532865952
 H          4.5259264805        4.0443438450        0.2019605380
 H          2.7904395605        4.3026758727       -0.0208672699
 H          3.8198537092        3.9059258063       -1.4027588212
 H          1.4972455131        2.4868640438        0.6745174111
 H          2.5109681631        0.0402563293        1.6141506520
  53
        -68.44613324
 C         -7.9301919139        0.5541587466       -1.6022233787
 C         -6.4259252146        0.7863688990       -1.5296058146
 C         -5.7620420504       -0.1101482645       -0.4872146510
 C         -4.2548546687        0.1165018041       -0.4121013860
 C         -3.5907670198       -0.7861822397        0.6338143258
 C         -2.1107439320       -0.5402642143        0.6749373147
 C         -1.5813070351        0.4234526007        1.5185826229
 C         -0.2200459451        0.6934021456        1.5177770631
 O          0.2280168299        1.6326113554        2.3997626088
 C          0.6440514654        0.0115002942        0.6568376288
 C          0.1118597657       -0.9994030171       -0.1445505555
 C         -1.2556446543       -1.2553501260       -0.1452866147
 O          0.8701205828       -1.7885041854       -0.9561865661
 C          2.2768457609       -1.8275152497       -0.7022859108
 C          2.5295046090       -2.6519527251        0.5646408885
 C          2.8810653306       -2.5300627885       -1.9187283367
 C          2.7744606824       -0.3763300000       -0.5984811780
 C          4.2963721117       -0.2014488542       -0.5442407238
 C          4.7186240057        1.0425879221        0.2678608935
 C          3.6920493649        2.1370692536        0.1963812013
 C          4.1587703379        3.5288696040       -0.0789999082
 C          2.4239406231        1.7962625654        0.3954364099
 C          2.1152830240        0.3350614265        0.5974520712
 H         -8.1442015279       -0.4787844009       -1.8684579718
 H         -8.3950683994        0.7618709203       -0.6407830503
 H         -8.3831715565        1.2018414022       -2.3493445412
 H         -5.9807763226        0.5914879698       -2.5080026186
 H         -6.2315300502        1.8322526112       -1.2812598690
 H         -5.9585120336       -1.1562023367       -0.7350136416
 H         -6.2066657762        0.0858387786        0.4915972877
 H         -4.0532274353        1.1601173017       -0.1607667596
 H         -3.8055713560       -0.0803313284       -1.3880209619
 H         -4.0288593652       -0.5818902613        1.6126305869
 H         -3.7869310385       -1.8299536428        0.3810658852
 H         -2.2106897247        0.9783748962        2.1958833172
 H          1.1801216990        1.7516586944        2.2926879849
 H         -1.6268377289       -2.0337965477       -0.7928337347
 H          1.9411993873       -2.2676523265        1.3943891652
 H          2.2282058793       -3.6816268895        0.3874147130
 H          3.5809169258       -2.6386946569        0.8366783714
 H          2.7432242054       -1.9216028089       -2.8086008108
 H          2.3743084709       -3.4791509546       -2.0716315984
 H          3.9406727020       -2.7118204868       -1.7692246518
 H          2.3988131331        0.1262872486       -1.4989446112
 H          4.6783536221       -0.1091843097       -1.5613548895
 H          4.7658534593       -1.0786178458       -0.0974084272
 H          4.8387027615        0.7512309799        1.3167041570
 H          5.6876725451        1.3986278490       -0.0825532616
 H          4.6434556850        3.5757130756       -1.0540512476
 H          4.8886938796        3.8390224561        0.6687988734
 H          3.3263474587        4.2278249545       -0.0686853358
 H          1.6157865845        2.5069892972        0.3100041490
 H          2.6102563474       -0.0119242809        1.5190288469
  53
        -68.44612571
 C         -8.1240502267       -1.2558823340        0.0756111547
 C         -6.6478990086       -1.2736532398        0.4532453404
 C         -5.8266987154       -0.3270434536       -0.4189589872
 C         -4.3469850703       -0.3423353491       -0.0462184763
 C         -3.5238840009        0.6040022554       -0.9275241687
 C         -2.0748302535        0.5604930386       -0.5382357358
 C         -1.5815417919        1.4174206470        0.4327994901
 C         -0.2474574032        1.3639555140        0.8113251639
 O          0.1562709919        2.2241888966        1.7899964061
 C          0.6288842425        0.4523688353        0.2165004868
 C          0.1081563066       -0.4532103229       -0.7088410712
 C         -1.2275889949       -0.3838811974       -1.0913128613
 O          0.8465689493       -1.4424669722       -1.2854554586
 C          2.0841667570       -1.7862796810       -0.6570110145
 C          1.7881576497       -2.5701968313        0.6262346476
 C          2.8079106019       -2.6786487502       -1.6660431151
 C          2.8630251087       -0.4831748283       -0.4130939379
 C          4.3124879823       -0.6567223368        0.0543527776
 C          4.7843585412        0.5046155862        0.9566302588
 C          4.0999797693        1.7975744157        0.6148918914
 C          4.9361141271        3.0282302359        0.4837608950
 C          2.7812315493        1.7663505962        0.4607066397
 C          2.0959649708        0.4279941026        0.5626959913
 H         -8.2562430557       -1.5595632166       -0.9607265494
 H         -8.6903082550       -1.9363934840        0.7073879797
 H         -8.5357431606       -0.2557452458        0.1931185756
 H         -6.5375416388       -0.9848848981        1.5010221920
 H         -6.2584875190       -2.2889382269        0.3480895887
 H         -6.2158986673        0.6885421851       -0.3133181642
 H         -5.9386159901       -0.6155536904       -1.4670487053
 H         -3.9538663521       -1.3561506988       -0.1494462279
 H         -4.2290928707       -0.0480272636        0.9989992736
 H         -3.6354602128        0.3069445500       -1.9721163964
 H         -3.9073297971        1.6199910949       -0.8167510013
 H         -2.2189303016        2.1434928878        0.9117615417
 H          1.1026725532        2.1166181782        1.9477447835
 H         -1.5837252254       -1.0886781326       -1.8258139181
 H          1.3124457695       -3.5132559802        0.3678707179
 H          2.7012379467       -2.7798194982        1.1757685191
 H          1.1067025449       -2.0138764588        1.2652722126
 H          3.0597467916       -2.1084157510       -2.5562884315
 H          2.1516018655       -3.4944942263       -1.9569229838
 H          3.7154597612       -3.0880946484       -1.2337285410
 H          2.8692706101        0.0385134122       -1.3786905315
 H          4.9613987787       -0.7146776020       -0.8199913343
 H          4.4261885455       -1.5895856456        0.6079108211
 H          4.5506706646        0.2560031592        1.9972847749
 H          5.8670756230        0.6098694721        0.8839238994
 H          4.3189687606        3.8974906985        0.2714976415
 H          5.6588045207        2.9062985097       -0.3229452288
 H          5.4934771860        3.2078944567        1.4031474426
 H          2.2148496798        2.6361077885        0.1636598485
 H          2.2321610774        0.0319516667        1.5821129046
  53
        -68.44608666
 C         -3.6303073243        2.4729320839       -1.3478483344
 C         -3.5364112727        0.9535498265       -1.2801507683
 C         -4.6833393272        0.3563484511       -0.4664520256
 C         -4.5845934611       -1.1636672830       -0.3024017590
 C         -3.8028185710       -1.5968529558        0.9464101046
 C         -2.3762121521       -1.1333439738        0.9215025432
 C         -1.9549782248       -0.0836707095        1.7219053929
 C         -0.6511346514        0.3869792511        1.6448582825
 O         -0.3109869671        1.3950186935        2.5011047185
 C          0.2586558762       -0.1673752220        0.7411705511
 C         -0.1425414332       -1.2957377779        0.0216487172
 C         -1.4522968345       -1.7563931052        0.0988665390
 O          0.6959558595       -2.0143222283       -0.7755397532
 C          2.1024265214       -1.8150148103       -0.6010347506
 C          2.5570339504       -2.4892539410        0.6974514711
 C          2.7466179600       -2.5127645978       -1.8002733267
 C          2.3538954482       -0.3008178195       -0.6211646319
 C          3.8072668496        0.1607458007       -0.6197242742
 C          3.8581784477        1.6582968005       -0.9396727943
 C          2.6946469708        2.4373957505       -0.3883019678
 C          2.7305854726        3.9086139284       -0.6724469624
 C          1.6920377763        1.8705608926        0.2692294300
 C          1.6517872433        0.3878899777        0.5556082685
 H         -4.5756903152        2.7812806626       -1.7903762028
 H         -3.5637491914        2.9005374343       -0.3497878058
 H         -2.8205363729        2.8799502592       -1.9491969851
 H         -3.5647456288        0.5424342086       -2.2923301127
 H         -2.5827711875        0.6718697215       -0.8338396675
 H         -5.6233403096        0.6031492526       -0.9671797129
 H         -4.7063116816        0.8254428825        0.5191191608
 H         -4.1146014536       -1.5925316066       -1.1892271206
 H         -5.5904797739       -1.5833806616       -0.2245453938
 H         -4.3013416970       -1.1989519048        1.8322325850
 H         -3.8269559839       -2.6879300244        1.0049845263
 H         -2.6244309118        0.3917362864        2.4208019300
 H          0.6299472730        1.5891206474        2.4217702541
 H         -1.7256809914       -2.6137671875       -0.4953344222
 H          3.6090638459       -2.2893113750        0.8800348122
 H          1.9712682311       -2.1357175319        1.5424092437
 H          2.4124709842       -3.5638757292        0.6147772757
 H          3.8202664556       -2.5985614278       -1.6650365917
 H          2.5390059198       -1.9637362045       -2.7149608359
 H          2.3226946867       -3.5088952688       -1.8955181425
 H          1.8818028356        0.0631842244       -1.5430963497
 H          4.3941152326       -0.3841622886       -1.3593514077
 H          4.2492701291       -0.0244382018        0.3614493294
 H          4.7929883925        2.0878712042       -0.5687404352
 H          3.8580899081        1.7966868852       -2.0262589116
 H          2.7798787947        4.0857332841       -1.7464854092
 H          3.6157938706        4.3589985782       -0.2235576551
 H          1.8485790987        4.4059783315       -0.2778954543
 H          0.8545579793        2.4765663638        0.5839598180
 H          2.2377762300        0.1974552965        1.4713235168
  53
        -68.44604953
 C         -3.4229795576        1.3272436174       -2.6093583987
 C         -3.5673955588        1.0593613526       -1.1161761847
 C         -4.6147156390       -0.0176543410       -0.8393515389
 C         -4.7744800508       -0.3475583669        0.6476471834
 C         -3.8169000739       -1.4398500773        1.1447925672
 C         -2.3746375595       -1.0364024934        1.0536094674
 C         -1.8564429331       -0.0976698107        1.9335086318
 C         -0.5404572547        0.3258578497        1.8226809544
 O         -0.1004506418        1.2173080989        2.7592715105
 C          0.2875594076       -0.1629227077        0.8075299066
 C         -0.2089240769       -1.1865983881       -0.0013189606
 C         -1.5335096543       -1.5997142493        0.1103861655
 O          0.5435526630       -1.8464282490       -0.9248572870
 C          1.9659631251       -1.7272187220       -0.8215965051
 C          2.4638531631       -2.5614898203        0.3630883538
 C          2.5021137822       -2.3125678688       -2.1292539839
 C          2.2898877591       -0.2323047069       -0.6923097678
 C          3.7619889078        0.1633860203       -0.7336118062
 C          3.8685118642        1.6836409889       -0.8912410350
 C          2.7804456864        2.4452435713       -0.1835670694
 C          2.8735388485        3.9361714639       -0.3061980472
 C          1.7913252912        1.8519400791        0.4710381357
 C          1.6932895567        0.3496532290        0.5952079445
 H         -4.3726682720        1.6422674580       -3.0378410467
 H         -2.6890045592        2.1096030469       -2.7885708549
 H         -3.0963713775        0.4270661718       -3.1255198794
 H         -2.6040559221        0.7495331341       -0.7114848894
 H         -3.8609857246        1.9816940467       -0.6089026297
 H         -4.3493330539       -0.9256512037       -1.3847433705
 H         -5.5742890975        0.3300983719       -1.2316195336
 H         -5.7943614481       -0.6963333418        0.8278656658
 H         -4.6258475822        0.5592550441        1.2365166754
 H         -4.0613600326       -1.6594462138        2.1873765529
 H         -3.9804708789       -2.3475858814        0.5610229829
 H         -2.4608587574        0.3198454971        2.7227567272
 H          0.8431345614        1.3764871574        2.6424220226
 H         -1.8798934190       -2.3731414920       -0.5565515759
 H          3.5335403433       -2.4281874109        0.4975053872
 H          1.9480713626       -2.2802716290        1.2779434584
 H          2.2616137336       -3.6129719175        0.1732192831
 H          2.2673899073       -1.6561042008       -2.9630069592
 H          2.0248597172       -3.2729686520       -2.3051250649
 H          3.5764030874       -2.4582909130       -2.0742947644
 H          1.7828327108        0.2525098283       -1.5367968592
 H          4.2764321181       -0.3202546608       -1.5641511473
 H          4.2511775175       -0.1490172105        0.1912997504
 H          4.8441411117        2.0283843646       -0.5372699678
 H          3.8102510368        1.9426183876       -1.9539577506
 H          2.8664625535        4.2309635844       -1.3552189878
 H          3.8060312312        4.2940615213        0.1300360757
 H          2.0434388780        4.4238327635        0.1978860692
 H          1.0058938387        2.4545649155        0.9041630989
 H          2.3216525238        0.0324080919        1.4453525433
  53
        -68.44599898
 C         -4.0858267382       -1.0080923856        2.8505392880
 C         -3.8107491764       -1.2947921288        1.3793623131
 C         -4.8977995757       -0.7067878099        0.4813802109
 C         -4.6438453168       -0.9325255954       -1.0122250465
 C         -3.8126565432        0.1765288853       -1.6731524883
 C         -2.4268900336        0.2897847712       -1.1081853556
 C         -2.0836913504        1.3397933996       -0.2719291773
 C         -0.8051839501        1.4332671831        0.2614030892
 O         -0.5742070950        2.4693857211        1.1205421578
 C          0.1757850541        0.4912721180       -0.0579129855
 C         -0.2041003541       -0.6091725401       -0.8303458257
 C         -1.4831391815       -0.6896345265       -1.3695953923
 O          0.6197781826       -1.6617729374       -1.0926634837
 C          1.7739986569       -1.8146049680       -0.2604935096
 C          1.3441495634       -2.3179832964        1.1213306820
 C          2.6208950730       -2.8793156038       -0.9597315426
 C          2.4878416728       -0.4563586070       -0.2192209584
 C          3.8453829178       -0.4072335476        0.4735739042
 C          4.5225007124        0.9299273843        0.1556850138
 C          3.5629043370        2.0824334948        0.0307179278
 C          4.2029448374        3.4052340653       -0.2641254662
 C          2.2482359588        1.9432457532        0.1368646610
 C          1.6002983886        0.6111239115        0.4328359226
 H         -4.0968732769        0.0644975926        3.0315492163
 H         -5.0502044077       -1.4155484680        3.1480296963
 H         -3.3171427754       -1.4532535554        3.4783562880
 H         -2.8422581301       -0.8767704900        1.1052194758
 H         -3.7638536790       -2.3753513882        1.2227224863
 H         -4.9841978904        0.3640134110        0.6760409775
 H         -5.8516703046       -1.1660638847        0.7544671924
 H         -5.6026835815       -0.9804482256       -1.5342663306
 H         -4.1434297893       -1.8923117477       -1.1517650865
 H         -3.7443642336       -0.0393324625       -2.7425379189
 H         -4.3335656828        1.1282775236       -1.5532977278
 H         -2.8003747616        2.0997054341       -0.0042898130
 H          0.3100634900        2.3926210845        1.4967201726
 H         -1.7231314107       -1.5442776155       -1.9818346822
 H          2.2006407084       -2.3755086574        1.7870504090
 H          0.5937736189       -1.6621201139        1.5559760865
 H          0.9073969951       -3.3090685225        1.0235454538
 H          3.4233389579       -3.2194936272       -0.3126201911
 H          3.0406491718       -2.4848267823       -1.8813354680
 H          1.9855712063       -3.7253872191       -1.2078925244
 H          2.6303584369       -0.1677436785       -1.2688113283
 H          4.4873820138       -1.2225563663        0.1397419124
 H          3.7097553483       -0.5076240177        1.5524154223
 H          5.2714243634        1.1601967222        0.9186370333
 H          5.0585454139        0.8471313407       -0.7959456169
 H          3.4555165689        4.1856451233       -0.3795099787
 H          4.7900268123        3.3460506886       -1.1801704454
 H          4.8794956542        3.6861572196        0.5429469423
 H          1.6099142316        2.7994872087       -0.0275451345
 H          1.6148650937        0.4563367200        1.5255807203
  53
        -68.44594344
 C         -3.3053910723        1.9436955076       -1.0273323809
 C         -3.6391494883        0.5797845872       -1.6191899527
 C         -4.8862049174       -0.0600662236       -1.0073305914
 C         -4.8177768820       -0.3491845236        0.4929049152
 C         -3.8363369776       -1.4631248977        0.8825392613
 C         -2.3967352335       -1.0362492900        0.8499244178
 C         -1.9480467096       -0.0322670840        1.6950421739
 C         -0.6328744770        0.4050299588        1.6418122848
 O         -0.2704045858        1.3707144459        2.5374451454
 C          0.2680190513       -0.1405651781        0.7232680496
 C         -0.1590505545       -1.2308455009       -0.0364935037
 C         -1.4837143434       -1.6551407478        0.0140101942
 O          0.6632108116       -1.9453055242       -0.8538203618
 C          2.0737514399       -1.7882935784       -0.6690515070
 C          2.5064751498       -2.5192131222        0.6060354555
 C          2.7038669854       -2.4598970842       -1.8904969322
 C          2.3640201506       -0.2812543467       -0.6351647526
 C          3.8287695822        0.1422653193       -0.6145749940
 C          3.9188596474        1.6481736587       -0.8822211544
 C          2.7752444383        2.4373172199       -0.3041452547
 C          2.8505330610        3.9163417256       -0.5349260863
 C          1.7566892303        1.8737966962        0.3313417037
 C          1.6761556828        0.3833993006        0.5636360430
 H         -2.4993432838        2.4084546605       -1.5910840056
 H         -4.1724327348        2.6008237444       -1.0620696585
 H         -2.9786713360        1.8484250507        0.0045874992
 H         -3.8161003153        0.6946015948       -2.6922227849
 H         -2.7836064126       -0.0832041524       -1.4942438966
 H         -5.0905103791       -0.9957289441       -1.5347406687
 H         -5.7363034305        0.6057242362       -1.1837010114
 H         -5.8169616662       -0.6545020979        0.8153835012
 H         -4.5659994063        0.5632692436        1.0324107277
 H         -4.0762006671       -1.7839689997        1.9005020744
 H         -3.9811567095       -2.3182854953        0.2198990033
 H         -2.6047294116        0.4250816363        2.4182555589
 H          0.6761816525        1.5403901275        2.4708359445
 H         -1.7742909374       -2.4818375286       -0.6154148893
 H          3.5625363397       -2.3525462982        0.7984605911
 H          1.9267252144       -2.1809202164        1.4613222926
 H          2.3351493248       -3.5862221032        0.4850379926
 H          2.5135667082       -1.8738885735       -2.7858110546
 H          2.2547984743       -3.4407966292       -2.0218390914
 H          3.7744711564       -2.5781243219       -1.7556579850
 H          1.9040893377        0.1270417984       -1.5445905858
 H          4.4037189110       -0.3915637093       -1.3714337481
 H          4.2628761115       -0.0880842217        0.3605438794
 H          4.8640255821        2.0401662614       -0.4962632083
 H          3.9236511710        1.8242488385       -1.9633325108
 H          3.7470660023        4.3265100011       -0.0703209760
 H          1.9817631910        4.4223216299       -0.1223841314
 H          2.9051992273        4.1307894592       -1.6018580769
 H          0.9349247532        2.4899116433        0.6669823162
 H          2.2530443009        0.1444903545        1.4737642642
  53
        -68.44591632
 C         -7.9851498044       -0.4027678615       -1.7984130114
 C         -6.4751411374       -0.6016072705       -1.8448641691
 C         -5.7994148578       -0.1309823112       -0.5591714381
 C         -4.2852150664       -0.3244600357       -0.6032025112
 C         -3.6278229524        0.1271139164        0.6980810601
 C         -2.1216411739        0.1126089946        0.6961394681
 C         -1.4473987180        0.8161801630        1.6880195058
 C         -0.0630533749        0.8414894306        1.7402935711
 O          0.5695970545        1.5083079351        2.7530565947
 C          0.7048247761        0.1775290751        0.7789119799
 C          0.0219844350       -0.5904256153       -0.1644024121
 C         -1.3722115941       -0.6037537683       -0.2147313994
 O          0.6360098810       -1.3772487253       -1.0874044322
 C          2.0243676779       -1.6738053270       -0.8992994409
 C          2.1686870262       -2.7435535797        0.1877962301
 C          2.4844716582       -2.2384458273       -2.2451436176
 C          2.7366653629       -0.3582507605       -0.5569923531
 C          4.2589847868       -0.4042975392       -0.4812139002
 C          4.7907951529        1.0290143480       -0.4647963318
 C          3.9686337231        1.9472978784        0.3997790707
 C          4.5501790567        3.3159392337        0.5951226589
 C          2.8078204287        1.5916737062        0.9309787382
 C          2.2142013349        0.2180735150        0.7628137277
 H         -8.4461187074       -0.7454138965       -2.7219824253
 H         -8.4181279289       -0.9611756196       -0.9710206081
 H         -8.2274586249        0.6493334002       -1.6638376541
 H         -6.2535007596       -1.6597524097       -2.0018650558
 H         -6.0618956255       -0.0487434431       -2.6915644083
 H         -6.2109803721       -0.6868748507        0.2871699230
 H         -6.0264636717        0.9263113893       -0.4009724880
 H         -3.8703963583        0.2483293969       -1.4353022204
 H         -4.0697625448       -1.3798137023       -0.7787536144
 H         -3.9604721510        1.1436086327        0.9278482914
 H         -3.9783715238       -0.5135404892        1.5145099570
 H         -2.0117871952        1.3529858758        2.4408074527
 H         -0.0952263307        1.8866442620        3.3408312326
 H         -1.8298704624       -1.2024747356       -0.9835575278
 H          3.2178377596       -2.9306691766        0.3974534046
 H          1.6695690395       -2.4323611271        1.1018990969
 H          1.7065995839       -3.6678302056       -0.1514013809
 H          2.5204965174       -1.4518053718       -2.9942694901
 H          1.7713141668       -2.9906536958       -2.5722422556
 H          3.4638658387       -2.6978232148       -2.1556686407
 H          2.4587708280        0.3451143191       -1.3531611012
 H          4.6822626131       -0.9384590463       -1.3324988126
 H          4.5658800417       -0.9205675484        0.4303982240
 H          5.8288379000        1.0387929534       -0.1207920427
 H          4.7910717134        1.4297375623       -1.4847533139
 H          4.7251195524        3.7951275869       -0.3681675678
 H          5.5089390222        3.2503326259        1.1097353595
 H          3.8836735605        3.9424517821        1.1814863818
 H          2.2590306083        2.2858607678        1.5450817523
 H          2.5779654231       -0.3930941333        1.6030227582
  53
        -68.44591374
 C         -8.0637491348       -1.0389416847       -1.3770164826
 C         -6.5507987827       -1.2102227961       -1.4351128901
 C         -5.8307341551       -0.2199892957       -0.5229951601
 C         -4.3140765132       -0.3913038073       -0.5745611507
 C         -3.6087109858        0.6192572538        0.3255043594
 C         -2.1158907914        0.4533415937        0.4377574556
 C         -1.4518008907        1.0941602014        1.4780235869
 C         -0.0751325154        1.0149991558        1.6123093542
 O          0.5437716265        1.6240429235        2.6690334763
 C          0.6969664021        0.2997607955        0.6919487286
 C          0.0162091399       -0.4077742499       -0.2988334504
 C         -1.3689093318       -0.3102670780       -0.4359048992
 O          0.6230861464       -1.2356593143       -1.1901184614
 C          1.9714882949       -1.6371593998       -0.9225282253
 C          1.9700687965       -2.7196510797        0.1615359591
 C          2.4677108342       -2.2289158112       -2.2436759602
 C          2.7583038862       -0.3804040233       -0.5267342402
 C          4.2660470814       -0.5394312430       -0.3635360518
 C          4.8996400234        0.8507103202       -0.3039423386
 C          4.0984495948        1.8226663509        0.5208201651
 C          4.7664379317        3.1437598322        0.7620161846
 C          2.8860582939        1.5508048672        0.9815477326
 C          2.2033254179        0.2261214573        0.7659415384
 H         -8.5562998619       -1.7519240957       -2.0341413649
 H         -8.4272346978       -1.1982788764       -0.3639834261
 H         -8.3462532276       -0.0349701448       -1.6868027799
 H         -6.2890536345       -2.2285176282       -1.1385392122
 H         -6.2088679863       -1.0674728685       -2.4627726174
 H         -6.1777765164       -0.3603980229        0.5038296486
 H         -6.0904454125        0.7985471871       -0.8224909643
 H         -3.9788934917       -0.2633333219       -1.6052683262
 H         -4.0535142120       -1.4030841511       -0.2566427472
 H         -3.8131375441        1.6289616922       -0.0466966833
 H         -4.0386898194        0.5590770208        1.3297334224
 H         -2.0183415713        1.6665682859        2.2024131714
 H         -0.1246893889        2.0488231209        3.2197979548
 H         -1.8221396567       -0.8639487175       -1.2402387998
 H          2.9879848398       -2.9847447034        0.4324126218
 H          1.4405459350       -2.3763964109        1.0466159756
 H          1.4627062852       -3.6057014840       -0.2132614989
 H          2.6072045612       -1.4439668983       -2.9823629780
 H          1.7211626573       -2.9239447494       -2.6191473393
 H          3.4028995077       -2.7610243000       -2.1004245193
 H          2.5800748110        0.3458904106       -1.3308577711
 H          4.6977592205       -1.0995399644       -1.1936386579
 H          4.4806273657       -1.0810085045        0.5597241026
 H          5.9142113074        0.7825155528        0.0985699500
 H          4.9875226303        1.2553004386       -1.3185792596
 H          5.0316101239        3.6134974403       -0.1852274349
 H          5.6863287031        3.0052049777        1.3303403130
 H          4.1146312039        3.8147552334        1.3147623708
 H          2.3554066662        2.2801811292        1.5703605571
 H          2.4700769142       -0.4149874890        1.6200760625
  53
        -68.44590882
 C         -8.0057686779       -0.5591107047       -1.7378360410
 C         -6.4950440918       -0.7533657997       -1.7810250540
 C         -5.8089617339       -0.1526396615       -0.5564881666
 C         -4.2943110211       -0.3439772038       -0.5961482008
 C         -3.6259018920        0.2520414852        0.6388085599
 C         -2.1205245161        0.1953551011        0.6527551730
 C         -1.4430697546        0.8758582068        1.6590971177
 C         -0.0594962312        0.8743032457        1.7257763136
 O          0.5755994713        1.5193367381        2.7511283261
 C          0.7054650374        0.2039950010        0.7661880658
 C          0.0178806880       -0.5422835382       -0.1905852001
 C         -1.3759928273       -0.5269083664       -0.2568821568
 O          0.6262013981       -1.3340706723       -1.1131892042
 C          2.0065401483       -1.6587730946       -0.9125953274
 C          2.1188897702       -2.7382594912        0.1686275905
 C          2.4700648726       -2.2232104705       -2.2573262481
 C          2.7399510558       -0.3593359798       -0.5537171450
 C          4.2603710444       -0.4335901024       -0.4638095936
 C          4.8175508778        0.9898381693       -0.4322612589
 C          4.0035361460        1.9168868958        0.4307755164
 C          4.6070893785        3.2739098188        0.6403635322
 C          2.8317228186        1.5783708327        0.9488279795
 C          2.2153568760        0.2168205242        0.7652862786
 H         -8.4740254877       -0.9936579290       -2.6179754793
 H         -8.4265809590       -1.0354969284       -0.8547879843
 H         -8.2533936791        0.4997847649       -1.7049715510
 H         -6.2679819518       -1.8206379253       -1.8339258988
 H         -6.0946336792       -0.2856021096       -2.6833853435
 H         -6.2099722809       -0.6212506619        0.3458903011
 H         -6.0390904354        0.9145104336       -0.5039832873
 H         -3.8937974846        0.1349533202       -1.4920111814
 H         -4.0734203926       -1.4113828071       -0.6545230619
 H         -3.9284227986        1.2995240017        0.7334752357
 H         -3.9980031036       -0.2661254073        1.5290796005
 H         -2.0056091643        1.4161890389        2.4107510598
 H         -0.0878695118        1.9051152444        3.3355505067
 H         -1.8358387709       -1.1090351040       -1.0369887670
 H          3.1620767542       -2.9457816689        0.3888131629
 H          1.6151088083       -2.4240244164        1.0791488762
 H          1.6439933329       -3.6517197332       -0.1821245881
 H          2.5290797090       -1.4325283792       -3.0006604818
 H          1.7462655011       -2.9594365921       -2.5970349248
 H          3.4394776705       -2.7018287665       -2.1606584919
 H          2.4826310690        0.3547841247       -1.3472507799
 H          4.6821666929       -0.9694330867       -1.3147828698
 H          4.5491353009       -0.9615867909        0.4470089150
 H          5.8522116463        0.9786793826       -0.0781956317
 H          4.8348412996        1.3974167498       -1.4493545340
 H          5.5599858646        3.1883421710        1.1629412555
 H          3.9462356401        3.9081709908        1.2249183338
 H          4.7988127568        3.7561556013       -0.3182519697
 H          2.2894886177        2.2779757409        1.5626558298
 H          2.5598756763       -0.4067583821        1.6044675346
  53
        -68.44586582
 C         -5.8093733860        0.9177414917        2.1958638116
 C         -5.6213711045        0.3274255736        0.8038182650
 C         -4.6141708113       -0.8202059587        0.8141691981
 C         -4.4095167973       -1.4623382399       -0.5575015867
 C         -3.6544695871       -0.5654460840       -1.5490052602
 C         -2.2664461330       -0.2592597172       -1.0650332859
 C         -1.9742713406        0.9515440799       -0.4577205654
 C         -0.6938655712        1.2198514604        0.0069348683
 O         -0.4955493053        2.4227359159        0.6194866070
 C          0.3313881179        0.2822913477       -0.1384546834
 C          0.0136750411       -0.9587511714       -0.6928453676
 C         -1.2690875849       -1.2146998082       -1.1647777668
 O          0.9094978717       -1.9792770199       -0.8062925929
 C          2.0941528884       -1.9017323855       -0.0093185373
 C          1.7315847826       -2.2024774470        1.4490838244
 C          3.0156429447       -2.9908683394       -0.5596853307
 C          2.7054777080       -0.5056733900       -0.2133294558
 C          4.1007874820       -0.3004950871        0.3872101971
 C          4.3459394353        1.1605103322        0.8241316700
 C          3.5811937972        2.1376503555       -0.0228054340
 C          4.3002916017        3.3391913804       -0.5422813200
 C          2.2992209478        1.8743697581       -0.2488251358
 C          1.7433421326        0.5835492761        0.2952910623
 H         -4.8654041598        1.3059175924        2.5723801237
 H         -6.5314794387        1.7309932011        2.1747498922
 H         -6.1674991333        0.1588487110        2.8886700602
 H         -6.5813966207       -0.0373992663        0.4299561614
 H         -5.2796813729        1.1138473923        0.1296148417
 H         -4.9680625079       -1.5866123172        1.5087473610
 H         -3.6537707269       -0.4559431359        1.1844888787
 H         -5.3818074256       -1.7220018924       -0.9833651472
 H         -3.8422260376       -2.3868706247       -0.4301096668
 H         -3.5961174558       -1.0859673411       -2.5076003210
 H         -4.2070764617        0.3616619725       -1.7015227407
 H         -2.7285318133        1.7117628619       -0.3321198194
 H          0.4320534881        2.5103479613        0.8722993569
 H         -1.4652913046       -2.1790289345       -1.6061573225
 H          2.5916979562       -2.0755659016        2.1000431318
 H          0.9297225235       -1.5500428461        1.7860923524
 H          1.3841417830       -3.2299403285        1.5266977359
 H          3.3104114568       -2.7517564281       -1.5780265423
 H          2.4826041275       -3.9378007847       -0.5715362134
 H          3.9035355276       -3.0893769353        0.0568474155
 H          2.7720789562       -0.3721912954       -1.3007060835
 H          4.8496311580       -0.5808021168       -0.3541329528
 H          4.2420237872       -0.9465467341        1.2545262948
 H          4.0179424939        1.2744586870        1.8628105970
 H          5.4138275411        1.3782150653        0.7958629861
 H          4.7255353867        3.9122886303        0.2817035376
 H          3.6288059974        3.9808760599       -1.1070499660
 H          5.1209217584        3.0334673008       -1.1910645753
 H          1.6880940162        2.4925947218       -0.8890608912
 H          1.7988838259        0.6047222805        1.3958334179
  53
        -68.44584833
 C         -3.5782697176       -1.1461993604        2.2484795928
 C         -3.8202629120       -1.9050617608        0.9492895580
 C         -5.0195170003       -1.3843847149        0.1554941822
 C         -4.9342727011        0.0718088606       -0.3046578861
 C         -3.8890210377        0.3369433022       -1.3972929806
 C         -2.4755296228        0.3771932678       -0.8905953723
 C         -2.0901329167        1.3417363715        0.0279481520
 C         -0.7884959185        1.3886800983        0.5055798021
 O         -0.5181868482        2.3335837672        1.4542475339
 C          0.1785516268        0.4915108796        0.0444186249
 C         -0.2358473134       -0.5233151871       -0.8199331462
 C         -1.5417521533       -0.5586877439       -1.2998100470
 O          0.5754064932       -1.5373811517       -1.2310116450
 C          1.7669565311       -1.7702014018       -0.4730751447
 C          1.4007926195       -2.4160264616        0.8672344487
 C          2.5810900380       -2.7522487568       -1.3171164445
 C          2.4810478005       -0.4196298843       -0.3240036877
 C          3.8701043679       -0.4347393876        0.3048499207
 C          4.5298255852        0.9323076418        0.0960159255
 C          3.5641581994        2.0857625930        0.1373437779
 C          4.1878270012        3.4358253705       -0.0493994675
 C          2.2562382623        1.9284568038        0.2909159102
 C          1.6245235282        0.5689302069        0.4770567956
 H         -4.4912138357       -1.0931949591        2.8387229308
 H         -2.8170383949       -1.6503871772        2.8402730051
 H         -3.2313661701       -0.1361137017        2.0479024175
 H         -2.9215054963       -1.8587582764        0.3352361406
 H         -4.0082819954       -2.9563863773        1.1846019067
 H         -5.9137656807       -1.4888197003        0.7771544742
 H         -5.1573840623       -2.0211458276       -0.7224376647
 H         -4.7394957235        0.7171983826        0.5512186742
 H         -5.9138217317        0.3473910658       -0.7051453748
 H         -3.9787703595       -0.4259689811       -2.1727791817
 H         -4.1153014316        1.3053957465       -1.8525875419
 H         -2.7896905494        2.0758469767        0.3955151906
 H          0.3838026884        2.2253018334        1.7767300178
 H         -1.8066336666       -1.3487487636       -1.9853782085
 H          2.2863512817       -2.5349785336        1.4850376482
 H          0.6684805769       -1.8135862988        1.3991929212
 H          0.9630544675       -3.3951379033        0.6874076595
 H          1.9353131491       -3.5712109416       -1.6226187581
 H          3.4124107916       -3.1536707421       -0.7460072004
 H          2.9580879495       -2.2621404151       -2.2109152344
 H          2.5731411952       -0.0224784357       -1.3433558600
 H          4.4962045818       -1.2070675414       -0.1422062388
 H          3.7864039442       -0.6475561933        1.3725850690
 H          5.3141923299        1.0866469868        0.8423099407
 H          5.0197623528        0.9520991687       -0.8834882490
 H          4.9079440421        3.6330254676        0.7446692194
 H          3.4356140436        4.2201885823       -0.0401720852
 H          4.7235349427        3.4774280223       -0.9974283128
 H          1.6100816257        2.7934826535        0.2470435114
 H          1.6911555051        0.3015346642        1.5458072556
  53
        -68.44573647
 C         -6.2420936188       -0.2781937546       -2.0487132663
 C         -4.7228269251       -0.1612206013       -2.0035661733
 C         -4.2229264071        0.8471561016       -0.9678808215
 C         -4.5336074294        0.4869006044        0.4851183580
 C         -3.7912440511       -0.7612976784        0.9812622715
 C         -2.3037719553       -0.5618317717        0.9450129773
 C         -1.6848451644        0.2193667390        1.9091635989
 C         -0.3197060633        0.4593194629        1.8590134089
 O          0.2129706615        1.1942659547        2.8798433582
 C          0.4611641622       -0.0534132921        0.8189292367
 C         -0.1520185465       -0.9186971785       -0.0886151616
 C         -1.5240470175       -1.1474945484       -0.0359452646
 O          0.5259871994       -1.5952657293       -1.0571881576
 C          1.9466473716       -1.6960753969       -0.9169497786
 C          2.2807089982       -2.6960806326        0.1947180363
 C          2.4339797426       -2.2356429107       -2.2628265352
 C          2.4792789330       -0.2825195200       -0.6440210654
 C          3.9936888901       -0.1053335877       -0.6214896296
 C          4.3236749895        1.3906491507       -0.6374104138
 C          3.3362961980        2.2379037788        0.1188390647
 C          3.6488405825        3.7037067661        0.1374332793
 C          2.2515131833        1.7408286997        0.6977181411
 C          1.9323243040        0.2644310818        0.6804159470
 H         -6.6315224186       -0.6967780566       -1.1242563504
 H         -6.6949444817        0.6993774178       -2.2016090255
 H         -6.5466550525       -0.9279935791       -2.8664140641
 H         -4.2890770728       -1.1419506229       -1.8051407124
 H         -4.3651820682        0.1576178985       -2.9857674648
 H         -4.6731598229        1.8193180199       -1.1856265738
 H         -3.1408141258        0.9514836773       -1.0747224987
 H         -5.6072033361        0.3356361995        0.6081565140
 H         -4.2453686772        1.3315669777        1.1148794687
 H         -4.1043352390       -0.9616279993        2.0087943347
 H         -4.0660040730       -1.6221901908        0.3717455519
 H         -2.2463653712        0.6474969708        2.7242687300
 H          1.1728536371        1.2242722187        2.7956902571
 H         -1.9539533089       -1.8044838811       -0.7751493471
 H          1.9353913051       -3.6855961765       -0.0954334557
 H          3.3535207992       -2.7331442188        0.3612872476
 H          1.7814381883       -2.4246358232        1.1215851733
 H          3.4733891850       -2.5426089687       -2.2012860434
 H          2.3239922243       -1.4803864277       -3.0365733591
 H          1.8281051856       -3.0955956319       -2.5356835288
 H          2.0749285027        0.3444077424       -1.4494489243
 H          4.4588697995       -0.5844926281       -1.4831127120
 H          4.4029131042       -0.5660472349        0.2799725524
 H          5.3278647077        1.5561005297       -0.2371489378
 H          4.3351194614        1.7480577762       -1.6727803773
 H          2.8820878251        4.2616231827        0.6683185425
 H          3.7194551565        4.0886671460       -0.8795123195
 H          4.6084423723        3.8796801351        0.6233673612
 H          1.5490871454        2.4118800350        1.1709592783
 H          2.4807140116       -0.2160238063        1.5090821911
  53
        -68.44570703
 C         -8.4086614056        0.3317145495       -0.3631425559
 C         -7.0129968933        0.7260905293        0.1039454458
 C         -5.9323997072       -0.1392136157       -0.5402381536
 C         -4.5310480467        0.2496472957       -0.0741027823
 C         -3.4647493959       -0.6168231816       -0.7378380465
 C         -2.0439648544       -0.3530933136       -0.3111259885
 C         -1.6784844342        0.6926639695        0.5215890567
 C         -0.3478320338        0.9063351613        0.8588031927
 O         -0.0231707297        1.9212880916        1.7167841722
 C          0.6685629328        0.0939718971        0.3538523126
 C          0.2842017072       -1.0055894430       -0.4180202859
 C         -1.0499049733       -1.2070897706       -0.7580209700
 O          1.1500497990       -1.9451244137       -0.8813337298
 C          2.4643456478       -1.9840614217       -0.3136418191
 C          2.3992074292       -2.6485655503        1.0651975415
 C          3.2731842245       -2.8605288917       -1.2724992743
 C          2.9923880779       -0.5436990727       -0.2708798148
 C          4.4507061070       -0.3610850936        0.1357158064
 C          4.8756021856        1.0685566464       -0.2003671534
 C          3.8156105032        2.0852108305        0.1306294099
 C          4.2495281377        3.5144968785       -0.0055749218
 C          2.5843284443        1.7532499312        0.4908772872
 C          2.1309924541        0.3261887724        0.6501355884
 H         -9.1624228510        0.9599623855        0.1059088534
 H         -8.4942806620        0.4403587406       -1.4422470910
 H         -8.6177349180       -0.7047208184       -0.1068787311
 H         -6.8308956519        1.7745669105       -0.1439077188
 H         -6.9532829645        0.6282090563        1.1905455445
 H         -5.9926677814       -0.0393737278       -1.6267501680
 H         -6.1179248570       -1.1875958869       -0.2943544716
 H         -4.4716659253        0.1360196374        1.0108288347
 H         -4.3568045002        1.2999399169       -0.3181446727
 H         -3.6904189535       -1.6687135203       -0.5401740698
 H         -3.5230962433       -0.4800819477       -1.8223643929
 H         -2.4235024965        1.3610105367        0.9291196527
 H         -0.8324427898        2.3680124830        1.9929617620
 H         -1.2904835237       -2.0583415618       -1.3754415129
 H          2.0922733816       -3.6858600672        0.9521748651
 H          3.3731567328       -2.6197530392        1.5452314881
 H          1.6713155657       -2.1483562752        1.6989013807
 H          3.4471047760       -2.3377109283       -2.2093340565
 H          2.7068993826       -3.7637555015       -1.4843252880
 H          4.2251700432       -3.1378693891       -0.8308619493
 H          2.8747736311       -0.1548772774       -1.2911156589
 H          5.0991317580       -1.0646213777       -0.3874758160
 H          4.5575755538       -0.5336743613        1.2083538819
 H          5.7981935689        1.3193463702        0.3306196318
 H          5.0962185320        1.1413669268       -1.2713338926
 H          5.0592917847        3.7326481570        0.6908702234
 H          3.4252298254        4.1928057496        0.1969819143
 H          4.6206826563        3.7042402090       -1.0128144152
 H          1.8633223459        2.5197648149        0.7206785334
 H          2.3129313460        0.0472714549        1.6993290075
  53
        -68.44567930
 C         -6.9670481952        0.0526894868        0.7016122917
 C         -5.5234076680        0.3052384211        1.1210566533
 C         -4.5931886829       -0.8732857654        0.8289129247
 C         -4.3954406079       -1.1844026201       -0.6548542860
 C         -3.6220754835       -0.0975059329       -1.4142039271
 C         -2.2247147203        0.0560924515       -0.8866514847
 C         -1.8932069075        1.0937677877       -0.0308864601
 C         -0.6019073835        1.2208938365        0.4630208069
 O         -0.3802674652        2.2429159783        1.3418533051
 C          0.4023491402        0.3262630370        0.0855165175
 C          0.0360048182       -0.7700683400       -0.6987505289
 C         -1.2577316993       -0.8857612781       -1.1950895264
 O          0.8883735781       -1.7840462037       -1.0166107263
 C          2.0836947129       -1.9067998000       -0.2394086885
 C          1.7377063399       -2.4620380244        1.1460741543
 C          2.9426958789       -2.9166840369       -1.0024807241
 C          2.7415084544       -0.5207177210       -0.1927660410
 C          4.1244538484       -0.4315404907        0.4435833769
 C          4.7323925304        0.9397291197        0.1318383010
 C          3.7222271325        2.0539827791        0.0808232877
 C          4.2944486282        3.4098776917       -0.2030153878
 C          2.4201955413        1.8571494496        0.2386758883
 C          1.8394446218        0.4920021830        0.5236284429
 H         -7.6017302027        0.8780044741        1.0173003574
 H         -7.0516155484       -0.0421612269       -0.3779151199
 H         -7.3419160592       -0.8613581903        1.1578482643
 H         -5.1535213213        1.2022460043        0.6230264466
 H         -5.4984776279        0.4982858919        2.1963903131
 H         -4.9986392491       -1.7631651419        1.3176740759
 H         -3.6162406811       -0.6681211251        1.2722794965
 H         -5.3643964209       -1.3323320726       -1.1341768103
 H         -3.8407201104       -2.1218097984       -0.7366837526
 H         -3.5790638965       -0.3800122372       -2.4687254537
 H         -4.1520968385        0.8522128620       -1.3414237715
 H         -2.6255509932        1.8227221990        0.2770888558
 H          0.5188615781        2.1903110408        1.6855522660
 H         -1.4868703315       -1.7338456410       -1.8208395272
 H          1.3399174536       -3.4687125173        1.0414438189
 H          2.6246102816       -2.4980577568        1.7722921923
 H          0.9801674561       -1.8501171062        1.6295318544
 H          2.3325975062       -3.7824500618       -1.2459826758
 H          3.7860418805       -3.2386602306       -0.3995699939
 H          3.3051137895       -2.4817946214       -1.9302104991
 H          2.8266683836       -0.2006278788       -1.2394449345
 H          4.7840698771       -1.2113231251        0.0625204883
 H          4.0394511784       -0.5628190534        1.5242845493
 H          5.5054383962        1.1816232083        0.8666330818
 H          5.2273203040        0.9029016398       -0.8446358840
 H          4.9939008934        3.6970099671        0.5820296264
 H          3.5116074031        4.1611925729       -0.2637640565
 H          4.8425398310        3.4000124732       -1.1447205668
 H          1.7413504404        2.6903082873        0.1264142099
 H          1.9048943341        0.3099192555        1.6102665290
  53
        -68.44567034
 C         -5.4638371883        2.4059410614       -1.6860863821
 C         -5.3541340710        0.8891249174       -1.5906591658
 C         -4.5688561540        0.4536687887       -0.3561951716
 C         -4.4555240162       -1.0646688895       -0.2560649957
 C         -3.6666665246       -1.5082362934        0.9826064691
 C         -2.2376307627       -1.0514088963        0.9137918358
 C         -1.7996341450        0.0394506874        1.6517474074
 C         -0.4915339469        0.4882192938        1.5452235969
 O         -0.0511458014        1.5463043777        2.2889888327
 C          0.4125349070       -0.1371403162        0.6844992575
 C         -0.0153549838       -1.2728702449       -0.0029380253
 C         -1.3336944456       -1.7097864937        0.1004189413
 O          0.8004706258       -2.0173229733       -0.7960328272
 C          2.2123162921       -1.8336804037       -0.6409180581
 C          2.6567702726       -2.5115130234        0.6592533921
 C          2.8366295935       -2.5400895507       -1.8450506699
 C          2.4978052243       -0.3234288888       -0.6719352983
 C          3.9787942468        0.0643559774       -0.7431986841
 C          4.2653511022        1.4173901971       -0.0585674025
 C          3.0848376996        2.3472421742       -0.1094448622
 C          3.3310699405        3.7729573458       -0.4859114022
 C          1.8970482391        1.8490308244        0.2071955028
 C          1.8137432041        0.3798552568        0.5133251927
 H         -5.9739289505        2.8075832607       -0.8129151651
 H         -4.4748080615        2.8557165725       -1.7409671592
 H         -6.0227388593        2.6959252745       -2.5729096398
 H         -6.3560433111        0.4542954247       -1.5547371819
 H         -4.8588371434        0.5045142889       -2.4850234635
 H         -5.0637718552        0.8394505077        0.5388553988
 H         -3.5663865321        0.8852322175       -0.3954477807
 H         -3.9590187530       -1.4480295554       -1.1496464501
 H         -5.4568875171       -1.5003131292       -0.2150221522
 H         -4.1446288987       -1.1031669125        1.8768664683
 H         -3.6955391446       -2.5982543703        1.0449186935
 H         -2.4818464329        0.5487958689        2.3205178895
 H         -0.7758433664        1.8687940553        2.8376856132
 H         -1.6267420365       -2.5822440352       -0.4618429416
 H          2.0810473959       -2.1355751930        1.5012865804
 H          2.4852052443       -3.5827881205        0.5825681659
 H          3.7126414607       -2.3399050730        0.8462030254
 H          2.4674759501       -3.5612053787       -1.8933008620
 H          3.9185552666       -2.5560980665       -1.7603512368
 H          2.5565472975       -2.0309576169       -2.7634506467
 H          2.0001814605        0.0496505691       -1.5765561471
 H          4.2791820092        0.1224109719       -1.7902076173
 H          4.5968573754       -0.6991975476       -0.2689232625
 H          4.5033475442        1.2318253707        0.9939952571
 H          5.1418654801        1.8802208277       -0.5136888647
 H          3.7392116874        3.8325038905       -1.4951787689
 H          4.0554158264        4.2244116517        0.1921376700
 H          2.4096198210        4.3479133942       -0.4465458613
 H          0.9964502165        2.4390213534        0.1986420667
 H          2.3851495212        0.1861075471        1.4319807318
  53
        -68.44563916
 C         -5.3948357368        2.3170914406       -1.8388077878
 C         -5.3183314464        0.8068876199       -1.6513155241
 C         -4.5451200734        0.4292015385       -0.3904699734
 C         -4.4596610359       -1.0828997237       -0.2044796383
 C         -3.6730649432       -1.4691845786        1.0541435942
 C         -2.2421044944       -1.0210905199        0.9660391713
 C         -1.7824305301        0.0552447274        1.7118430011
 C         -0.4713792312        0.4925405215        1.5926146928
 O         -0.0095133392        1.5337362450        2.3471137105
 C          0.4128734553       -0.1270751485        0.7075164538
 C         -0.0373478155       -1.2473752094        0.0088759879
 C         -1.3568802090       -1.6757269703        0.1292885348
 O          0.7563122434       -1.9843478749       -0.8130373317
 C          2.1725261830       -1.8142221588       -0.6861006578
 C          2.6403481051       -2.5235395967        0.5888261489
 C          2.7634460242       -2.4991024208       -1.9192342910
 C          2.4702253395       -0.3059793506       -0.6914593208
 C          3.9532943301        0.0698011357       -0.7858268816
 C          4.2700640648        1.3982325302       -0.0676056525
 C          3.1016697711        2.3444485323       -0.0742532073
 C          3.3602249652        3.7760745318       -0.4185437879
 C          1.9130082178        1.8529975197        0.2495395451
 C          1.8167058989        0.3780833860        0.5221114905
 H         -5.8978396598        2.7819980397       -0.9933953831
 H         -4.3960546636        2.7410252693       -1.9174466561
 H         -5.9453719843        2.5646404396       -2.7435900192
 H         -6.3294481803        0.3965190432       -1.5927430366
 H         -4.8295311091        0.3585139660       -2.5191950093
 H         -5.0348782571        0.8744857179        0.4793291091
 H         -3.5345191395        0.8391007901       -0.4501447403
 H         -3.9744789916       -1.5244219901       -1.0770316309
 H         -5.4684337560       -1.4974988126       -0.1356203836
 H         -4.1496666339       -1.0206590661        1.9281195066
 H         -3.7058028829       -2.5550870042        1.1688263742
 H         -2.4494719571        0.5621322051        2.3975920209
 H         -0.7226430970        1.8537680264        2.9121288501
 H         -1.6658491291       -2.5382121327       -0.4397529660
 H          3.7013975933       -2.3639509635        0.7561816606
 H          2.0861352097       -2.1617649592        1.4512344163
 H          2.4585976819       -3.5915757574        0.4927906791
 H          3.8468536990       -2.5254198763       -1.8601769598
 H          2.4665010159       -1.9679028636       -2.8197003744
 H          2.3847363622       -3.5159721142       -1.9809982292
 H          1.9572475998        0.0904115996       -1.5773888025
 H          4.2296767272        0.1572107456       -1.8374014338
 H          4.5746589855       -0.7136857981       -0.3500134962
 H          4.5215744822        1.1792027056        0.9753296792
 H          5.1458932249        1.8616043836       -0.5234368309
 H          2.4473423960        4.3616410205       -0.3481105611
 H          3.7516194884        3.8564797756       -1.4329599528
 H          4.1021862619        4.2003882072        0.2579870998
 H          1.0200159457        2.4540128167        0.2705948022
 H          2.4024532954        0.1557956816        1.4251873759
  53
        -68.44563591
 C         -5.2706089958       -3.2557650298        1.0501051574
 C         -5.4657068001       -1.7479699708        0.9495089393
 C         -4.5152531565       -1.1206327722       -0.0671463786
 C         -4.7040679869        0.3896983013       -0.1721662681
 C         -3.7429153588        1.0267554688       -1.1845363532
 C         -2.3117721972        0.8857159572       -0.7512607120
 C         -1.8046348306        1.7021679248        0.2516708189
 C         -0.4914493138        1.5722287274        0.6752109199
 O          0.0039949180        2.3588624240        1.6764336414
 C          0.3574219565        0.6252655148        0.0970365861
 C         -0.1762786267       -0.2338955830       -0.8622419420
 C         -1.4941632846       -0.0880123303       -1.2919944027
 O          0.5264829593       -1.2501539454       -1.4296643079
 C          1.7310769956       -1.6617252556       -0.7735078415
 C          1.3595254486       -2.4622048749        0.4790337954
 C          2.4428018906       -2.5623798770       -1.7839180788
 C          2.5583357365       -0.4017012686       -0.4717365164
 C          3.9836383549       -0.6559874860        0.0307208841
 C          4.4841918667        0.4630429237        0.9682466894
 C          3.8589706929        1.7946087256        0.6569873860
 C          4.7507208674        2.9934743472        0.6079456610
 C          2.5466148121        1.8274121645        0.4673286568
 C          1.8022801082        0.5219528756        0.4992577451
 H         -5.9521032846       -3.6840828435        1.7817238991
 H         -5.4573780827       -3.7290773148        0.0884959741
 H         -4.2514652171       -3.4873854162        1.3520497715
 H         -6.4979175502       -1.5339153692        0.6612846355
 H         -5.2958274579       -1.2945557819        1.9290096385
 H         -4.6855727557       -1.5742657567       -1.0463891247
 H         -3.4839103527       -1.3334804803        0.2217534824
 H         -4.5428061290        0.8414303066        0.8092613650
 H         -5.7320014650        0.6057577667       -0.4737257886
 H         -3.8810530576        0.5514968098       -2.1569438802
 H         -3.9895127393        2.0865753680       -1.2845783910
 H         -2.4380974464        2.4525629237        0.7077465509
 H         -0.6892148300        2.9571373286        1.9793193600
 H         -1.8581800591       -0.7606969850       -2.0521866132
 H          2.2468324781       -2.7440507300        1.0380442205
 H          0.7042069152       -1.8807035786        1.1226268968
 H          0.8309746041       -3.3658405211        0.1838499655
 H          3.3197697136       -3.0200304758       -1.3372525161
 H          2.7439232733       -1.9833937587       -2.6529420167
 H          1.7610851843       -3.3427216109       -2.1118978118
 H          2.6203878154        0.1420124707       -1.4233970203
 H          4.6530418892       -0.7302050326       -0.8272702118
 H          4.0358505325       -1.6042043207        0.5675005483
 H          4.2204424640        0.1992540957        1.9977004330
 H          5.5718760672        0.5253409753        0.9168094352
 H          5.4959680251        2.8783036984       -0.1794795001
 H          5.2816124394        3.1100977460        1.5528282469
 H          4.1755811643        3.8954794397        0.4160997406
 H          2.0132369090        2.7342436151        0.2385512937
 H          1.8665518680        0.1128643555        1.5173448049
  53
        -68.44563145
 C         -5.1633047572        1.0426067031       -2.9961460988
 C         -5.3379706402        0.9560107039       -1.4849994933
 C         -4.4323108037       -0.1082668724       -0.8705457707
 C         -4.6074216191       -0.2055080217        0.6419416071
 C         -3.6917764364       -1.2674169419        1.2650112836
 C         -2.2435554175       -0.8988837162        1.1162948545
 C         -1.6778707890        0.0513139539        1.9570998965
 C         -0.3563333954        0.4385933785        1.8015653396
 O          0.2112451100        1.3519425437        2.6443458308
 C          0.4354142669       -0.1067933621        0.7880166297
 C         -0.1185215497       -1.1070415925       -0.0093435244
 C         -1.4520285102       -1.4822584980        0.1456664927
 O          0.5811295809       -1.7732243719       -0.9661344585
 C          2.0099130915       -1.6919256474       -0.9102097973
 C          2.5081395766       -2.5742012833        0.2390284151
 C          2.4895085652       -2.2501575536       -2.2507642534
 C          2.3927160970       -0.2111100210       -0.7550320197
 C          3.8865035949        0.1000975610       -0.8984789703
 C          4.3154316816        1.3214597971       -0.0583642337
 C          3.2000187368        2.3135026502        0.1219142697
 C          3.5122422240        3.7626405483       -0.0719345544
 C          2.0090652907        1.8419103955        0.4662072303
 C          1.8507727985        0.3509057843        0.5708271624
 H         -5.4098049414        0.0915119149       -3.4632851535
 H         -5.8114374948        1.8090685604       -3.4152012489
 H         -4.1334191459        1.2882373553       -3.2457576060
 H         -5.1088680436        1.9260862423       -1.0374767205
 H         -6.3802681658        0.7232895179       -1.2528013178
 H         -3.3904252996        0.1277563450       -1.0966664794
 H         -4.6583733759       -1.0770903434       -1.3222833635
 H         -5.6468042163       -0.4539494155        0.8707418933
 H         -4.3894634331        0.7652504455        1.0929580231
 H         -3.9359713213       -1.3637509731        2.3257833749
 H         -3.8792056209       -2.2284732008        0.7835364978
 H         -2.2714769617        0.4931290642        2.7475557513
 H         -0.4449141861        1.6320616365        3.2933536399
 H         -1.8439017275       -2.2466948009       -0.5062422778
 H          3.5847611641       -2.4915550996        0.3544714054
 H          2.0278173644       -2.2915549280        1.1724060433
 H          2.2578896614       -3.6117332613        0.0296477364
 H          2.0506458565       -3.2318952219       -2.4084359786
 H          3.5712891530       -2.3372363261       -2.2637567418
 H          2.1726249794       -1.5992860002       -3.0613587625
 H          1.8530562725        0.3156681610       -1.5527986027
 H          4.1083465235        0.2927266536       -1.9489527993
 H          4.4866081486       -0.7573082981       -0.5908338142
 H          4.6199374208        0.9723526676        0.9337807868
 H          5.1839330939        1.7954399950       -0.5173443142
 H          2.6374418556        4.3765269969        0.1257731632
 H          3.8449146615        3.9443797479       -1.0941986576
 H          4.3152884081        4.0702909518        0.5978920219
 H          1.1521302361        2.4761768215        0.6164615692
 H          2.4768758626       -0.0048942763        1.4011136493
  53
        -68.44561759
 C         -5.8143835155       -0.6426591686        2.7017292959
 C         -5.5820714773       -1.2095803010        1.3065294870
 C         -4.7175662209       -0.2838446514        0.4545505507
 C         -4.4800734572       -0.8475847908       -0.9433322674
 C         -3.6098297900        0.0772701730       -1.8041407628
 C         -2.2254495481        0.2161514828       -1.2381469404
 C         -1.8565671414        1.3474137232       -0.5235723645
 C         -0.5821950114        1.4637402103        0.0113791477
 O         -0.2247951530        2.5655219435        0.7360009114
 C          0.3639577939        0.4523151533       -0.1651540272
 C         -0.0339044920       -0.7091882182       -0.8270713149
 C         -1.3113028743       -0.8126570513       -1.3721816696
 O          0.7712340454       -1.7937611788       -0.9824951799
 C          1.9314495573       -1.8756380757       -0.1469321975
 C          1.4914112470       -2.2600727547        1.2694752503
 C          2.7793982372       -2.9921139422       -0.7577988450
 C          2.6590260275       -0.5232270304       -0.2156399803
 C          4.0446699224       -0.4885006448        0.4382821618
 C          4.3959804437        0.9067387409        0.9963109244
 C          3.7319883787        2.0152636464        0.2274739364
 C          4.5591591680        3.2034212080       -0.1452870878
 C          2.4427153636        1.8806624479       -0.0534491008
 C          1.7693461178        0.5983404443        0.3483353339
 H         -6.3204779954        0.3187884638        2.6437370127
 H         -6.4281388632       -1.3177105544        3.2937727131
 H         -4.8666981993       -0.4992617488        3.2164357834
 H         -5.0934056443       -2.1831690193        1.3875437441
 H         -6.5444872320       -1.3629791184        0.8122618768
 H         -3.7548640793       -0.1340191316        0.9480928599
 H         -5.2065261100        0.6904026332        0.3736045556
 H         -5.4413516279       -0.9962930832       -1.4413261198
 H         -3.9914328230       -1.8203423130       -0.8602626842
 H         -3.5471065077       -0.3385693870       -2.8120951559
 H         -4.0846423288        1.0583223101       -1.8693859982
 H         -2.5672101046        2.1513867863       -0.3796400111
 H         -0.9738854893        3.1716714365        0.7774271254
 H         -1.5688397382       -1.7184897220       -1.8978469606
 H          0.7469753495       -1.5600646421        1.6403743502
 H          1.0448149287       -3.2516148109        1.2501202493
 H          2.3375440096       -2.2719074317        1.9500656913
 H          3.1273722458       -2.6992941871       -1.7448486132
 H          2.1730369853       -3.8882526096       -0.8604442035
 H          3.6350539807       -3.2112745628       -0.1270601512
 H          2.7775913153       -0.3090462766       -1.2857862315
 H          4.7923052240       -0.7764167099       -0.3019361144
 H          4.1000733104       -1.2098579204        1.2547174495
 H          4.0526006765        0.9634564278        2.0344913806
 H          5.4788877371        1.0364664589        1.0041605352
 H          3.9567496075        3.9479834162       -0.6590227201
 H          5.3788714889        2.9034645182       -0.7985808437
 H          4.9937386266        3.6574330589        0.7453643572
 H          1.8848689505        2.6215805310       -0.6002712012
 H          1.7619458294        0.5415843736        1.4459186453
  53
        -68.44561659
 C         -5.1613481872        1.1908956335       -2.9247830822
 C         -5.3447980452        1.0210478346       -1.4218119800
 C         -4.4325997034       -0.0656295992       -0.8582592649
 C         -4.6145431877       -0.2406997347        0.6464038696
 C         -3.6877945502       -1.3199158687        1.2205571825
 C         -2.2424689155       -0.9360167573        1.0808977440
 C         -1.6959167761        0.0294378103        1.9172026325
 C         -0.3776352823        0.4302757289        1.7701771208
 O          0.1707835439        1.3614963121        2.6060797779
 C          0.4312456945       -0.1195418731        0.7726609944
 C         -0.1021980494       -1.1369508284       -0.0167911889
 C         -1.4341060753       -1.5227589557        0.1264333273
 O          0.6172609373       -1.8104157187       -0.9536677868
 C          2.0442612252       -1.7132971526       -0.8781527149
 C          2.5348097560       -2.5688540478        0.2943769215
 C          2.5499323365       -2.2908411635       -2.2007553957
 C          2.4086363885       -0.2257864467       -0.7444069768
 C          3.9002769842        0.1007479322       -0.8734118668
 C          4.3010821038        1.3474235579       -0.0566382205
 C          3.1689022751        2.3259293762        0.0910743279
 C          3.4619419991        3.7753306793       -0.1291484480
 C          1.9813056192        1.8439528525        0.4324257306
 C          1.8429065211        0.3530929172        0.5640476001
 H         -5.8147586956        1.9724311127       -3.3061603979
 H         -4.1325256886        1.4600745700       -3.1535964389
 H         -5.3949670528        0.2641427827       -3.4444098165
 H         -5.1285668076        1.9678955022       -0.9212816750
 H         -6.3861642497        0.7660347160       -1.2096917429
 H         -3.3915687791        0.1906093077       -1.0659756087
 H         -4.6471692620       -1.0120706353       -1.3601128416
 H         -5.6516769067       -0.5135288233        0.8568666161
 H         -4.4121604481        0.7095075651        1.1457173689
 H         -3.9259015669       -1.4619363007        2.2777270936
 H         -3.8700400431       -2.2620091617        0.7011813245
 H         -2.3022699019        0.4730519479        2.6968784868
 H         -0.4952578924        1.6431166229        3.2442666637
 H         -1.8109986314       -2.2981273099       -0.5213760574
 H          2.2990670101       -3.6128027080        0.1005997151
 H          3.6086534842       -2.4719861625        0.4238964409
 H          2.0377994741       -2.2745837026        1.2153411476
 H          2.2384462296       -1.6586725524       -3.0280503906
 H          2.1242030316       -3.2801484554       -2.3465507379
 H          3.6326757460       -2.3662073030       -2.1957557234
 H          1.8737859016        0.2804801593       -1.5585620502
 H          4.1355332686        0.2707473822       -1.9248373593
 H          4.5060620094       -0.7413937635       -0.5360950844
 H          4.6008921331        1.0254424192        0.9460371277
 H          5.1667112539        1.8249381862       -0.5173753215
 H          3.8027639933        3.9409534646       -1.1514667149
 H          4.2531307958        4.1086180821        0.5425068905
 H          2.5760778097        4.3799225694        0.0466425725
 H          1.1136875684        2.4685039685        0.5610332823
 H          2.4636498908        0.0220597967        1.4084459982
  53
        -68.44561590
 C         -5.8123822134       -0.7110420045        2.6931280450
 C         -5.5781521831       -1.2464792862        1.2858750306
 C         -4.7177837142       -0.2990794403        0.4537080156
 C         -4.4804740498       -0.8312926583       -0.9565090832
 C         -3.6117903255        0.1134417020       -1.7968462527
 C         -2.2270606692        0.2420044728       -1.2291055827
 C         -1.8540540466        1.3649141619       -0.5036366759
 C         -0.5783629085        1.4725501742        0.0300975817
 O         -0.2162793320        2.5664062213        0.7643379701
 C          0.3645761758        0.4601947311       -0.1577339527
 C         -0.0378723181       -0.6939487673       -0.8296935214
 C         -1.3161026722       -0.7881584862       -1.3743835989
 O          0.7634699424       -1.7797846810       -0.9955716304
 C          1.9242692965       -1.8725265621       -0.1619351862
 C          1.4846052235       -2.2666637770        1.2519214197
 C          2.7675313974       -2.9871378919       -0.7825663702
 C          2.6564215696       -0.5221438286       -0.2208364557
 C          4.0432631502       -0.4973095541        0.4308564633
 C          4.4013224809        0.8931141700        0.9966162535
 C          3.7385438008        2.0091742679        0.2376218998
 C          4.5685877164        3.1971207943       -0.1293923502
 C          2.4479567309        1.8809447778       -0.0402384162
 C          1.7715275766        0.5977873407        0.3537912182
 H         -4.8651541457       -0.5744860682        3.2105294027
 H         -6.3230103329        0.2490315235        2.6561607137
 H         -6.4227492772       -1.4016997233        3.2705203623
 H         -5.0854473651       -2.2195532667        1.3456755539
 H         -6.5400829305       -1.3931105934        0.7886123648
 H         -3.7548239532       -0.1569967088        0.9490602086
 H         -5.2099998960        0.6751073801        0.3949309707
 H         -5.4418439869       -0.9701075492       -1.4571597654
 H         -3.9907669769       -1.8050924948       -0.8952553366
 H         -3.5489208195       -0.2799377235       -2.8138210626
 H         -4.0879448407        1.0950525322       -1.8403357120
 H         -2.5622561987        2.1693474210       -0.3504793839
 H         -0.9634232391        3.1744173002        0.8128914071
 H         -1.5767563502       -1.6878477329       -1.9089609560
 H          0.7432980690       -1.5668519501        1.6293673708
 H          1.0342524089       -3.2563337561        1.2252914880
 H          2.3315794760       -2.2870578985        1.9312584028
 H          3.1156146310       -2.6877469620       -1.7675986700
 H          2.1577959274       -3.8802097815       -0.8917654773
 H          3.6229908527       -3.2144685872       -0.1544433665
 H          2.7739314315       -0.2996647095       -1.2894015361
 H          4.7884339810       -0.7839894517       -0.3123219126
 H          4.0968906498       -1.2237729005        1.2428616687
 H          4.0618639315        0.9442666877        2.0363729487
 H          5.4846980777        1.0190293589        1.0014378271
 H          3.9672144530        3.9471911290       -0.6362979275
 H          5.3853980970        2.8988684488       -0.7871001982
 H          5.0072783791        3.6435821957        0.7630555216
 H          1.8909697425        2.6276195681       -0.5800974273
 H          1.7665662524        0.5328702971        1.4509183533
  53
        -68.44557347
 C         -6.7972920168       -1.7903191617        0.8341827861
 C         -5.3056102983       -1.8094313788        1.1486589652
 C         -4.4418910945       -1.2552611315        0.0154214395
 C         -4.6395764284        0.2403771905       -0.2164435428
 C         -3.6732341978        0.7906516724       -1.2737959805
 C         -2.2453063241        0.7081064396       -0.8161993310
 C         -1.7711747182        1.5937939166        0.1398289401
 C         -0.4594487965        1.5201406921        0.5845214985
 O         -0.0777479663        2.4092596592        1.5462114174
 C          0.4175986123        0.5608040691        0.0702316652
 C         -0.0843796880       -0.3661015225       -0.8434153170
 C         -1.3991377104       -0.2778697051       -1.2917715330
 O          0.6513233950       -1.3972833053       -1.3453976912
 C          1.8471308184       -1.7498505248       -0.6450516216
 C          1.4674865824       -2.4756295647        0.6503053768
 C          2.5922910477       -2.6996890216       -1.5835641079
 C          2.6510825891       -0.4600831374       -0.4117273436
 C          4.0704095315       -0.6548119152        0.1336323064
 C          4.5307967669        0.5266397364        1.0154810172
 C          3.9034206292        1.8240076380        0.5910470559
 C          4.7813627783        3.0247439156        0.4564919906
 C          2.5936756928        1.8235034614        0.3709560332
 C          1.8647467444        0.5098015957        0.4893163241
 H         -6.9973139055       -2.3252677971       -0.0919189911
 H         -7.3584221961       -2.2688675234        1.6339304186
 H         -7.1615990092       -0.7718488958        0.7293615663
 H         -5.1187293868       -1.2324174865        2.0573079095
 H         -5.0012406618       -2.8404254027        1.3451074232
 H         -4.6672766003       -1.7969832074       -0.9064077376
 H         -3.3911655601       -1.4326868183        0.2558159565
 H         -4.4808378240        0.7734453434        0.7232221194
 H         -5.6619163314        0.4321990551       -0.5464341650
 H         -3.7967827679        0.2274096872       -2.2004088180
 H         -3.9278815873        1.8344779668       -1.4713282811
 H         -2.4080768283        2.3582205728        0.5556523747
 H          0.8565110552        2.2826928737        1.7540865784
 H         -1.7386241063       -1.0034692906       -2.0138082589
 H          2.3470318759       -2.6918364259        1.2497167293
 H          0.7753213423       -1.8756034608        1.2360775138
 H          0.9745448997       -3.4129869312        0.4037381213
 H          1.9276785650       -3.5084698471       -1.8752541782
 H          3.4663890105       -3.1160016298       -1.0928509763
 H          2.9020855501       -2.1712200424       -2.4812408004
 H          2.7196224319        0.0228675182       -1.3949222758
 H          4.7595697619       -0.7630773152       -0.7043560272
 H          4.1301225759       -1.5687882966        0.7257624767
 H          4.2374501449        0.3247766541        2.0511348557
 H          5.6184511564        0.5986745036        0.9949279314
 H          5.2964414433        3.2251259691        1.3960031965
 H          4.2018239644        3.9016736127        0.1795355119
 H          5.5400290965        2.8509142492       -0.3063996017
 H          2.0692473841        2.6961153903        0.0116485237
 H          1.9394306447        0.1506773242        1.5286198972
  53
        -68.44556572
 C         -6.6008074794        0.8979633894       -1.8025999438
 C         -5.0900393781        1.1026446686       -1.8099729217
 C         -4.3232903405       -0.0315995412       -1.1296074228
 C         -4.5668594091       -0.1055216362        0.3754123088
 C         -3.6920273594       -1.1729613175        1.0460787962
 C         -2.2341006592       -0.8248193293        0.9573901308
 C         -1.7051058476        0.1592438456        1.7790565616
 C         -0.3717553928        0.5270009053        1.6751748725
 O          0.0796727176        1.4815766460        2.5389544620
 C          0.4656477066       -0.0770022959        0.7327943860
 C         -0.0568338214       -1.1117638059       -0.0431968335
 C         -1.3992643663       -1.4652898483        0.0590446577
 O          0.6866104503       -1.8322742413       -0.9291175837
 C          2.1085427409       -1.7725717900       -0.7900058184
 C          2.5220377497       -2.5941241471        0.4358827449
 C          2.6600488029       -2.4121636342       -2.0647739051
 C          2.5081212513       -0.2905710579       -0.6975259707
 C          4.0129277312       -0.0059798423       -0.7629319578
 C          4.4106799282        1.2533160387        0.0379989142
 C          3.3063032716        2.2711684412        0.0727671068
 C          3.6484777894        3.6973301830       -0.2096332462
 C          2.0863644685        1.8360853695        0.3665062710
 C          1.9002386634        0.3534527267        0.5620514945
 H         -6.9927404420        0.9151827968       -0.7890182902
 H         -7.0920554063        1.6869096914       -2.3681001544
 H         -6.8570005606       -0.0576767239       -2.2553468354
 H         -4.7509357989        1.1785674764       -2.8460747234
 H         -4.8493751894        2.0462736409       -1.3148674832
 H         -3.2544978693        0.1150540767       -1.3010087094
 H         -4.6053078107       -0.9823069469       -1.5886760684
 H         -5.6144411156       -0.3412515975        0.5703262760
 H         -4.3488418649        0.8663526921        0.8230810770
 H         -3.9807132711       -1.2533200142        2.0966530338
 H         -3.8719649578       -2.1370270188        0.5671967310
 H         -2.3143758315        0.6543220476        2.5183811004
 H          1.0092382787        1.6701200785        2.3588774820
 H         -1.7647563984       -2.2577861809       -0.5745544020
 H          1.9768311646       -2.2660662029        1.3175929449
 H          2.2825938925       -3.6405916219        0.2627140791
 H          3.5883283928       -2.5072454278        0.6232489500
 H          3.7385605231       -2.5184632358       -2.0045108352
 H          2.4070177921       -1.8029272597       -2.9284269789
 H          2.2115147287       -3.3933372553       -2.1952798379
 H          2.0249246348        0.1962630677       -1.5543519669
 H          4.3023720349        0.1289870433       -1.8055030997
 H          4.5790514416       -0.8531570254       -0.3739647243
 H          4.6371356473        0.9558830047        1.0673860253
 H          5.3197433399        1.6841616540       -0.3822427191
 H          2.7718566924        4.3335053513       -0.1179950585
 H          4.0477686006        3.7943753658       -1.2190825410
 H          4.4126876864        4.0483674508        0.4838688602
 H          1.2254786527        2.4875626986        0.3622848997
 H          2.4922910674        0.0295850832        1.4334415210
  53
        -68.44552846
 C         -6.8182190990        0.7165144708        0.9398954877
 C         -6.6870805151        0.0113670281       -0.4049221458
 C         -5.7979623111       -1.2322307607       -0.3505742216
 C         -4.3473351414       -0.9703584433        0.0549003825
 C         -3.5943059384       -0.0676524138       -0.9292593673
 C         -2.1551637004        0.0566958937       -0.5216035052
 C         -1.7642413334        1.0322088321        0.3816597133
 C         -0.4393608544        1.1389286086        0.7801131342
 O         -0.1534097445        2.0964580233        1.7112951232
 C          0.5371992877        0.2862641464        0.2582803007
 C          0.1166947831       -0.7549614367       -0.5718359312
 C         -1.2124593999       -0.8506423265       -0.9716172132
 O          0.9470266253       -1.7333973401       -1.0284031255
 C          2.2016952005       -1.8968544605       -0.3596635957
 C          1.9713527912       -2.5537811093        1.0052161535
 C          3.0033545540       -2.8389305837       -1.2596159911
 C          2.8520884513       -0.5097207832       -0.2652647928
 C          4.2809858319       -0.4493399032        0.2638930907
 C          4.8529399947        0.9483184908        0.0056643301
 C          3.8345361580        2.0507473798        0.1156219051
 C          4.3730562536        3.4304488308       -0.1144141213
 C          2.5506666322        1.8269343245        0.3615735584
 C          2.0036277589        0.4377805635        0.5919335980
 H         -7.5403192025        1.5273564792        0.8718006562
 H         -7.1567123325        0.0194236532        1.7037224550
 H         -5.8674085317        1.1375876659        1.2552718377
 H         -7.6807365050       -0.2974701177       -0.7397801387
 H         -6.2989547138        0.7110799593       -1.1469173472
 H         -5.8071845744       -1.7085072993       -1.3344798464
 H         -6.2317047512       -1.9396366599        0.3611455101
 H         -3.8257245924       -1.9289615615        0.1114349086
 H         -4.3112128568       -0.5235860516        1.0492232680
 H         -3.6609280035       -0.4967930754       -1.9308855692
 H         -4.0524033261        0.9216098220       -0.9445100014
 H         -2.4772204155        1.7264971347        0.7971819829
 H          0.7708188930        2.0291055424        1.9770720723
 H         -1.4867290757       -1.6554691012       -1.6351079831
 H          1.5745418661       -3.5557767983        0.8600120518
 H          2.9054728816       -2.6222000076        1.5554610475
 H          1.2497109053       -1.9881011449        1.5894023390
 H          2.3810847182       -3.6920910201       -1.5164068708
 H          3.8939527001       -3.1934307709       -0.7501540895
 H          3.2881015392       -2.3341816364       -2.1790251327
 H          2.8509778144       -0.1144667322       -1.2894542848
 H          4.9130926953       -1.1913412611       -0.2241990786
 H          4.2837634707       -0.6593135858        1.3354631097
 H          5.6802773783        1.1463041611        0.6929290727
 H          5.2689825476        0.9880932031       -1.0068242721
 H          4.8378789932        3.4961555007       -1.0977670655
 H          5.1361150008        3.6672390851        0.6269415020
 H          3.5838950527        4.1749821156       -0.0521554892
 H          1.8594264207        2.6574450134        0.3641689923
 H          2.1569885785        0.1788260432        1.6538278896
  53
        -68.44551691
 C         -6.0437336338       -0.7448069409       -2.3961477639
 C         -6.4426410057       -0.5220646939       -0.9421040539
 C         -5.8017357109        0.7221934270       -0.3246215709
 C         -4.2738557723        0.7035197505       -0.2745866289
 C         -3.7078129755       -0.4275568651        0.5918039879
 C         -2.2139913641       -0.3120224371        0.6766994062
 C         -1.6207151870        0.4445935609        1.6744643900
 C         -0.2427902877        0.6030599988        1.7189214903
 O          0.2593470554        1.3171987597        2.7693770345
 C          0.5768906459        0.0338056962        0.7404942260
 C         -0.0213515648       -0.8022961675       -0.2044248481
 C         -1.4041321696       -0.9501830371       -0.2461230485
 O          0.6822279942       -1.5264320272       -1.1187554003
 C          2.0802643748       -1.7123178949       -0.8754570223
 C          2.2713010956       -2.7199054701        0.2627837005
 C          2.6292493983       -2.2934674049       -2.1796783315
 C          2.6777046319       -0.3313362386       -0.5719227392
 C          4.1945445844       -0.2471797689       -0.4392696088
 C          4.6171053530        1.2255194461       -0.4378304136
 C          3.6298588034        2.1398989381        0.2358484554
 C          4.0291116427        3.5842693982        0.2663711279
 C          2.4768189731        1.7162391105        0.7358424469
 C          2.0707410146        0.2615003491        0.7058670498
 H         -6.6042670123       -1.5764836494       -2.8176622917
 H         -6.2520454611        0.1438526632       -2.9883336779
 H         -4.9849876199       -0.9742810057       -2.4809952250
 H         -7.5281665294       -0.4061436944       -0.8873961063
 H         -6.1817658894       -1.4032843989       -0.3536984379
 H         -6.1847524834        0.8409968375        0.6923345693
 H         -6.1162129197        1.5977704897       -0.8986367247
 H         -3.9295321932        1.6563132009        0.1349068555
 H         -3.8666672776        0.6189567127       -1.2829064792
 H         -4.1440595794       -0.3649909911        1.5907526594
 H         -3.9734394446       -1.3914546720        0.1569747239
 H         -2.2118555106        0.9159330476        2.4434236918
 H          1.2229000957        1.2911672478        2.7524491699
 H         -1.8227331034       -1.5884873633       -1.0081617405
 H          3.3251063346       -2.8221591892        0.5058188827
 H          1.7254093668       -2.4088240140        1.1500712570
 H          1.8860569492       -3.6887642493       -0.0460113622
 H          3.6408904444       -2.6621428060       -2.0417938314
 H          2.6214355858       -1.5405182816       -2.9633345830
 H          1.9931485335       -3.1177642237       -2.4910961638
 H          2.3725987464        0.3109771621       -1.4083268196
 H          4.6908304237       -0.7616430343       -1.2623228527
 H          4.5075679553       -0.7242920843        0.4917340055
 H          5.5961304917        1.3325884647        0.0375831959
 H          4.7299281289        1.5713327576       -1.4710388031
 H          4.1980372393        3.9518810231       -0.7454169638
 H          4.9590453700        3.7081137759        0.8211739977
 H          3.2607172994        4.1938028704        0.7343029736
 H          1.7828501795        2.4341719801        1.1488123907
 H          2.5283518317       -0.2417820938        1.5750888080
  53
        -68.44551162
 C         -6.1724519858       -1.8890694096       -1.6522120960
 C         -6.4956120006       -0.5562860752       -0.9871940519
 C         -5.9407455787       -0.4402558724        0.4336001224
 C         -4.4181815376       -0.5279528193        0.5405254622
 C         -3.6910004314        0.6039800786       -0.1946457641
 C         -2.2128828650        0.5171485794        0.0513637575
 C         -1.6455888068        1.1331009937        1.1553776613
 C         -0.2825279877        1.0375885582        1.3972241879
 O          0.1825389199        1.6338680998        2.5346541503
 C          0.5549158845        0.3440075290        0.5192206761
 C         -0.0402455850       -0.3564566986       -0.5319670564
 C         -1.4065188685       -0.2492377184       -0.7715340359
 O          0.6473346911       -1.1823262366       -1.3688931473
 C          1.9450282764       -1.6145574415       -0.9477692492
 C          1.7998844604       -2.6582502206        0.1644953733
 C          2.5617784370       -2.2621901872       -2.1888714953
 C          2.7229100469       -0.3651063090       -0.5120751847
 C          4.1983920750       -0.5508436127       -0.1745838941
 C          4.8634100900        0.8244696823       -0.0584640285
 C          3.9644613653        1.8869368933        0.5139655074
 C          4.5975563957        3.2381641925        0.6551903039
 C          2.6979827366        1.6643061386        0.8385795627
 C          2.0555741161        0.3045433295        0.6957252331
 H         -6.5042821970       -2.7162044280       -1.0279319363
 H         -6.6755089027       -1.9625298341       -2.6140438030
 H         -5.1040914946       -1.9928154114       -1.8217483064
 H         -6.1118660386        0.2598308493       -1.6015652102
 H         -7.5814454312       -0.4410367755       -0.9370634139
 H         -6.3749153510       -1.2370398723        1.0432808522
 H         -6.2680535414        0.5129321351        0.8569343757
 H         -4.0698426756       -1.4866660104        0.1542271700
 H         -4.1430713969       -0.4852979134        1.5972083171
 H         -3.8843657210        0.5309813784       -1.2651536697
 H         -4.0707801923        1.5632988586        0.1623212562
 H         -2.2477808002        1.6953819153        1.8511893929
 H          1.1193447772        1.4367162154        2.6482795348
 H         -1.8176317613       -0.7855516045       -1.6122143208
 H          1.3009709435       -3.5395710062       -0.2316414090
 H          2.7763134117       -2.9475451887        0.5425651272
 H          1.1974808461       -2.2702487509        0.9821677228
 H          3.4659798497       -2.8048685688       -1.9313916913
 H          2.7922625667       -1.5069887661       -2.9356797770
 H          1.8431786687       -2.9569637324       -2.6154508272
 H          2.6515805621        0.3343098694       -1.3552520044
 H          4.7079408351       -1.1318060297       -0.9434788963
 H          4.2927936053       -1.0896958727        0.7704490944
 H          5.7715346320        0.7505083656        0.5463837196
 H          5.1747854771        1.1614037542       -1.0531135015
 H          3.8882416680        3.9652473956        1.0414568566
 H          4.9642782902        3.5870897556       -0.3097569066
 H          5.4499151253        3.1876108773        1.3325885632
 H          2.0877330363        2.4861577444        1.1845777175
 H          2.2939154696       -0.2855507443        1.5974807082
  53
        -68.44541758
 C         -7.8319601451       -0.5422324272       -1.3619059345
 C         -6.3183487352       -0.6281487669       -1.2061211891
 C         -5.7461832304        0.6397469986       -0.5755298164
 C         -4.2196162609        0.6495426174       -0.5051069112
 C         -3.6504458252       -0.3870888329        0.4710673823
 C         -2.1580863749       -0.2509071884        0.5566361700
 C         -1.5831620739        0.6186679065        1.4701067717
 C         -0.2069902301        0.7916192425        1.5124079287
 O          0.2842074374        1.6408164220        2.4603088496
 C          0.6278451789        0.1049780860        0.6266650866
 C          0.0461504226       -0.8147552291       -0.2467801734
 C         -1.3354908127       -0.9727525734       -0.2903250188
 O          0.7671990504       -1.6043004572       -1.0913343346
 C          2.1614979991       -1.7572808790       -0.8130853101
 C          2.3269147905       -2.6723406718        0.4051020140
 C          2.7446750857       -2.4256969137       -2.0586418665
 C          2.7550901404       -0.3534754312       -0.6098804198
 C          4.2836864917       -0.2887750101       -0.5159969773
 C          4.7712037951        0.8725401671        0.3779911694
 C          3.8231074005        2.0376589647        0.3552907521
 C          4.3893253271        3.4079565789        0.1750702474
 C          2.5306106931        1.7741003767        0.5097992055
 C          2.1186983393        0.3282820565        0.6152379617
 H         -8.1040085462        0.2965857829       -1.9993354073
 H         -8.2244658784       -1.4532123678       -1.8081112847
 H         -8.3073581983       -0.4024384829       -0.3932510667
 H         -6.0736123635       -1.4922540314       -0.5863918247
 H         -5.8608208848       -0.7795988405       -2.1866182973
 H         -6.1554969306        0.7586609308        0.4306437821
 H         -6.0718714918        1.4996746733       -1.1666910375
 H         -3.8857860931        1.6400258702       -0.1871425589
 H         -3.8062015639        0.4663231373       -1.4993196883
 H         -4.0945125492       -0.2303445396        1.4560141151
 H         -3.9063793820       -1.3907329278        0.1307279912
 H         -2.1885543576        1.1736196685        2.1689537272
 H          1.2444213470        1.6993227722        2.3786033836
 H         -1.7443306142       -1.6812951631       -0.9931531356
 H          3.3700672700       -2.7493174779        0.6976047662
 H          1.7471240549       -2.2985182377        1.2455529298
 H          1.9596748892       -3.6657329490        0.1587026818
 H          2.6700137837       -1.7565122718       -2.9116962979
 H          2.1777656867       -3.3260662057       -2.2797336144
 H          3.7854754831       -2.6897770269       -1.9000636060
 H          2.4358124038        0.2278484496       -1.4843504151
 H          4.6947307446       -0.1634577562       -1.5181303161
 H          4.6813363019       -1.2214788022       -0.1142029051
 H          4.8480110398        0.5114668503        1.4090642232
 H          5.7697039912        1.1811558604        0.0675431612
 H          5.1212093167        3.6214083035        0.9541658282
 H          3.6061654403        4.1608325897        0.2128268119
 H          4.8983379618        3.4799010996       -0.7859603121
 H          1.7747877681        2.5429582358        0.4538851342
 H          2.5675946339       -0.1073041964        1.5226803667
  53
        -68.44541466
 C         -7.8852791254       -1.0091437627       -1.0440983124
 C         -6.3630208080       -0.9509932939       -0.9994942677
 C         -5.8580242296       -0.5040144126        0.3708316484
 C         -4.3358058039       -0.5412173316        0.5010899843
 C         -3.6264171112        0.4995932525       -0.3735357104
 C         -2.1471134756        0.4701538833       -0.1198053849
 C         -1.5929888453        1.2357039041        0.8940254496
 C         -0.2294074886        1.1928292513        1.1477192416
 O          0.2357443718        1.9561921718        2.1781682960
 C          0.6156836677        0.3857294100        0.3813197205
 C          0.0400770270       -0.4331971579       -0.5909545914
 C         -1.3263723008       -0.3750402570       -0.8459190880
 O          0.7518837203       -1.3238714074       -1.3369385168
 C          2.0510378520       -1.6855303336       -0.8613975121
 C          1.8958863611       -2.6173371790        0.3454442491
 C          2.7063313047       -2.4319266037       -2.0240916898
 C          2.8103182619       -0.3877317999       -0.5397068374
 C          4.3005345479       -0.5548677596       -0.2216689159
 C          4.8169092326        0.5155113363        0.7647403242
 C          4.0686276818        1.8113753284        0.6317496369
 C          4.8544045667        3.0800932334        0.5712085321
 C          2.7428445274        1.7468570012        0.5872029779
 C          2.1079542421        0.3801068043        0.5951474021
 H         -8.2631720446       -1.7137520458       -0.3060851674
 H         -8.3101796824       -0.0306808065       -0.8300083135
 H         -8.2290047581       -1.3245297462       -2.0266556270
 H         -5.9556334095       -1.9387153612       -1.2276527016
 H         -6.0113584474       -0.2594180923       -1.7667197463
 H         -6.2877003929       -1.1613191273        1.1313185756
 H         -6.2136875808        0.5091246023        0.5734050455
 H         -3.9703873069       -1.5361408616        0.2373564526
 H         -4.0645323096       -0.3564798309        1.5431750833
 H         -3.8191910682        0.2876517462       -1.4254695933
 H         -4.0223347692        1.4898780854       -0.1403938582
 H         -2.2054193719        1.8801671292        1.5043401476
 H          1.1951039638        1.8680287903        2.2412084304
 H         -1.7268567122       -1.0095790653       -1.6206041587
 H          2.8609071458       -2.8509402942        0.7856636638
 H          1.2599088169       -2.1618664762        1.1006666436
 H          1.4258619638       -3.5437644071        0.0240894391
 H          2.8586776879       -1.7575701490       -2.8626104554
 H          2.0511448368       -3.2364905973       -2.3471310851
 H          3.6614530056       -2.8496723686       -1.7217864285
 H          2.7143964507        0.2367403732       -1.4371508821
 H          4.8698443982       -0.4883444283       -1.1492453061
 H          4.4912844166       -1.5386698334        0.2087490800
 H          4.6826799852        0.1435247935        1.7860205099
 H          5.8855994941        0.6694350966        0.6136729472
 H          5.5069762860        3.0756945542       -0.3016853873
 H          5.4845771839        3.1783898502        1.4551995447
 H          4.1962453580        3.9431097315        0.5110889863
 H          2.1277757282        2.6216739740        0.4391123713
 H          2.3462044195       -0.1204979525        1.5476652121
  53
        -68.44534906
 C         -7.9147064066        0.5438040145       -1.6387614542
 C         -6.4108843584        0.7758566479       -1.5576214873
 C         -5.7556087397       -0.1077800490       -0.4989025947
 C         -4.2484741458        0.1169727386       -0.4173396642
 C         -3.5916685457       -0.7737809683        0.6434242917
 C         -2.1100336036       -0.5365199398        0.6841111017
 C         -1.5724614218        0.4269718158        1.5267570258
 C         -0.2112331816        0.6907076739        1.5236038501
 O          0.3254017852        1.6175303357        2.3718249823
 C          0.6491434108        0.0056356973        0.6629159447
 C          0.1117629516       -1.0044288406       -0.1342611147
 C         -1.2587225678       -1.2552973234       -0.1336223321
 O          0.8634738463       -1.7978617484       -0.9427661640
 C          2.2755445922       -1.8271128343       -0.7052470613
 C          2.5453542008       -2.6548080686        0.5555361663
 C          2.8672325847       -2.5239287630       -1.9312576322
 C          2.7664950405       -0.3741668847       -0.5998364815
 C          4.2882856064       -0.1953007731       -0.5676906936
 C          4.7165381247        1.0491322322        0.2382086272
 C          3.6800219875        2.1378858439        0.2053743729
 C          4.1414297501        3.5381531908       -0.0423225427
 C          2.4183378203        1.7908271898        0.4221421491
 C          2.1159538037        0.3297500571        0.6038162818
 H         -8.3870888658        0.7642071218       -0.6837405800
 H         -8.3611612514        1.1821622033       -2.3977141826
 H         -8.1273796079       -0.4923168024       -1.8934285491
 H         -5.9583406413        0.5678083745       -2.5298124921
 H         -6.2174819700        1.8248945070       -1.3216773858
 H         -5.9519303924       -1.1566246742       -0.7341729075
 H         -6.2067985702        0.1015565715        0.4743054076
 H         -4.0467985998        1.1641157225       -0.1798628524
 H         -3.7934253119       -0.0934623101       -1.3875210932
 H         -4.0329783662       -0.5554679069        1.6183048103
 H         -3.7924284016       -1.8197475712        0.4044860997
 H         -2.2186663500        0.9778777773        2.1984440377
 H         -0.3798907924        2.0005639003        2.9066957022
 H         -1.6345047444       -2.0327375748       -0.7796964458
 H          1.9780049116       -2.2640222082        1.3964666876
 H          2.2330651285       -3.6824501248        0.3841945395
 H          3.6019037468       -2.6485609610        0.8064121043
 H          2.3654958358       -3.4765423238       -2.0796721236
 H          3.9299759318       -2.6982464766       -1.7964398701
 H          2.7136470592       -1.9143068111       -2.8177544811
 H          2.3790886013        0.1309914557       -1.4941733259
 H          4.6551714582       -0.1026670464       -1.5907398611
 H          4.7667388073       -1.0716224405       -0.1282775285
 H          4.8632438989        0.7544436445        1.2825074084
 H          5.6740128515        1.4154399039       -0.1342041251
 H          4.6124695368        3.6132242093       -1.0227246926
 H          4.8797776618        3.8316850826        0.7039367191
 H          3.3069183595        4.2331655656       -0.0009513876
 H          1.6091612840        2.5010198049        0.4165771616
 H          2.5993168305       -0.0099884705        1.5305586309
  53
        -68.44533699
 C         -8.1304722258       -1.2262432234        0.0916116512
 C         -6.6561159620       -1.2361063699        0.4764059125
 C         -5.8274744026       -0.3228265729       -0.4238815555
 C         -4.3490971463       -0.3327130693       -0.0456864316
 C         -3.5183500949        0.5827167901       -0.9523228041
 C         -2.0697782840        0.5418994672       -0.5601053539
 C         -1.5755909552        1.4132042055        0.4011990309
 C         -0.2441594900        1.3631908173        0.7846404316
 O          0.2412507917        2.2052065849        1.7447654218
 C          0.6332319566        0.4425194967        0.2076123303
 C          0.1140784428       -0.4751523854       -0.7049619258
 C         -1.2219975260       -0.4097628672       -1.0945540492
 O          0.8504722077       -1.4725165239       -1.2628702278
 C          2.0957957979       -1.7990683341       -0.6353815903
 C          1.8082245721       -2.5740555227        0.6546800439
 C          2.8203638855       -2.6959627807       -1.6400027736
 C          2.8652020610       -0.4886285244       -0.4033485783
 C          4.3177244638       -0.6518793901        0.0573239880
 C          4.7892207852        0.5221474555        0.9410636759
 C          4.0848236451        1.8084902602        0.6093798356
 C          4.9100144451        3.0495560739        0.4918574829
 C          2.7670830735        1.7671731758        0.4642719707
 C          2.0938539862        0.4269288374        0.5631622538
 H         -8.5392687246       -0.2211717201        0.1719533077
 H         -8.2589967832       -1.5657267598       -0.9339565759
 H         -8.7020225522       -1.8822103068        0.7441949456
 H         -6.5496068682       -0.9123671866        1.5144380620
 H         -6.2697741295       -2.2555814791        0.4077495949
 H         -6.2128382165        0.6975160907       -0.3540468368
 H         -5.9366633357       -0.6456957626       -1.4620297318
 H         -3.9594316969       -1.3504448830       -0.1170337144
 H         -4.2346094046       -0.0088871343        0.9914763287
 H         -3.6295209516        0.2555636659       -1.9876610653
 H         -3.8975734920        1.6039317429       -0.8743530767
 H         -2.2326109124        2.1435654801        0.8563239173
 H         -0.4723766130        2.7762405533        2.0528192050
 H         -1.5767715782       -1.1243509542       -1.8201986720
 H          1.3220302545       -3.5150535646        0.4074871773
 H          2.7266445784       -2.7870440635        1.1935818550
 H          1.1412791816       -2.0069728101        1.2991512965
 H          2.1701283698       -3.5209908582       -1.9188685343
 H          3.7341806069       -3.0924968113       -1.2090619788
 H          3.0622760279       -2.1323263634       -2.5371624709
 H          2.8671224685        0.0250490574       -1.3735340419
 H          4.9615610412       -0.7200760397       -0.8205146491
 H          4.4375932304       -1.5775541885        0.6218562250
 H          4.5737181203        0.2795874135        1.9868507723
 H          5.8698513951        0.6387018167        0.8500765527
 H          4.2821030593        3.9136580608        0.2912704182
 H          5.6343625166        2.9467808979       -0.3165134349
 H          5.4643838374        3.2251270928        1.4138665701
 H          2.1793468977        2.6372156123        0.2259719365
 H          2.2125867028        0.0559200930        1.5908588639
  53
        -68.44528719
 C         -6.5787860576        1.8026829459       -1.3893861800
 C         -6.5395272471        0.2907313191       -1.5785145249
 C         -5.8210043105       -0.4393750977       -0.4432566083
 C         -4.3225885057       -0.1518262782       -0.3943165627
 C         -3.6204371674       -0.9838137712        0.6850710246
 C         -2.1512961346       -0.6776997725        0.7073626818
 C         -1.6562245447        0.3375317485        1.5105013304
 C         -0.3070419496        0.6619182719        1.4892608270
 O          0.1079155495        1.6505805581        2.3326155683
 C          0.5785810261       -0.0157298366        0.6470572936
 C          0.0829582353       -1.0766166565       -0.1120849281
 C         -1.2728796071       -1.3878037548       -0.0923249429
 O          0.8673439589       -1.8637612886       -0.9004946531
 C          2.2763667426       -1.8349418076       -0.6585244903
 C          2.5732331383       -2.6010159633        0.6351811461
 C          2.8997612947       -2.5560496749       -1.8542467646
 C          2.7136830519       -0.3615108312       -0.6122606562
 C          4.2273792530       -0.1219170213       -0.5788587086
 C          4.6041417451        1.1666101112        0.1847551029
 C          3.5327999632        2.2148313893        0.0835526321
 C          3.9395435914        3.6138103733       -0.2453705787
 C          2.2813872494        1.8297199776        0.3060398040
 C          2.0347741496        0.3653906394        0.5631482736
 H         -7.0332946486        2.0544114394       -0.4334626539
 H         -5.5781034034        2.2254133180       -1.4173296771
 H         -7.1645863635        2.2669733747       -2.1797735994
 H         -7.5647318202       -0.0831375407       -1.6388575719
 H         -6.0468145185        0.0564220284       -2.5249639825
 H         -5.9671526907       -1.5150320218       -0.5723738588
 H         -6.2752400993       -0.1577361486        0.5098138478
 H         -4.1497096468        0.9048561229       -0.1863103875
 H         -3.8750458988       -0.3788840039       -1.3645223919
 H         -4.0627129361       -0.7555283123        1.6567052718
 H         -3.7757283968       -2.0445149343        0.4781173888
 H         -2.3033706659        0.8915472204        2.1716490707
 H          1.0538887199        1.8033034944        2.2146006765
 H         -1.6161434529       -2.2044265227       -0.7074636119
 H          1.9760876039       -2.2110625416        1.4559246693
 H          2.3136596821       -3.6480893722        0.4985001092
 H          3.6253174269       -2.5342978078        0.8965330578
 H          3.9672906317       -2.6876123283       -1.7086016031
 H          2.7290135552       -1.9871488866       -2.7643574744
 H          2.4322819549       -3.5305255289       -1.9674380676
 H          2.3102350660        0.0916859727       -1.5268256718
 H          4.5968093367       -0.0501785044       -1.6022503920
 H          4.7367173388       -0.9624422909       -0.1060070041
 H          4.7439597007        0.9181351981        1.2421544475
 H          5.5550592734        1.5491911163       -0.1867421243
 H          4.6617580038        3.9801957373        0.4842639473
 H          3.0790961200        4.2780173477       -0.2522099064
 H          4.4143913207        3.6455530249       -1.2258652096
 H          1.4440360829        2.5032839395        0.2026883297
 H          2.5504464392        0.0726911980        1.4921771704
  53
        -68.44528381
 C         -6.8975838399       -0.7181390484        1.6994556916
 C         -6.7377717631       -1.3278138692        0.3115774956
 C         -5.8721826355       -0.4804423870       -0.6217126374
 C         -4.4045900978       -0.4312472295       -0.2045380852
 C         -3.5541394921        0.3478970519       -1.2144323463
 C         -2.1196647641        0.3883110815       -0.7742173201
 C         -1.6799825613        1.3773183790        0.0917384870
 C         -0.3609439123        1.4055731282        0.5215811808
 O         -0.0117185346        2.3955704669        1.3927366085
 C          0.5547893425        0.4449951793        0.0835902961
 C          0.0873312814       -0.5859938370       -0.7323171988
 C         -1.2343042147       -0.6000524943       -1.1669985157
 O          0.8663492893       -1.6235860806       -1.1481884676
 C          2.0860032279       -1.8525246124       -0.4376764733
 C          1.7572402126       -2.4712967865        0.9253618227
 C          2.8650658610       -2.8497095450       -1.2961938838
 C          2.8292822935       -0.5101895069       -0.3379375478
 C          4.2627169312       -0.5864144684        0.1998276490
 C          4.6760372716        0.6924177402        0.9608733959
 C          3.9814186745        1.9136623546        0.4289135773
 C          4.7984814267        3.1367453790        0.1696387188
 C          2.6706789041        1.8309894015        0.2315444229
 C          2.0075447909        0.5011038407        0.4823183727
 H         -7.3003706874        0.2900340807        1.6274572738
 H         -7.5796942129       -1.3172037499        2.2989233586
 H         -5.9434956695       -0.6719832765        2.2176398114
 H         -6.2999705156       -2.3246555132        0.4015082269
 H         -7.7271618909       -1.4414086483       -0.1385941142
 H         -6.2723468346        0.5356677874       -0.6588672467
 H         -5.9356839020       -0.8961472275       -1.6307614859
 H         -4.0141860452       -1.4479905490       -0.1206394109
 H         -4.3079762678        0.0445510811        0.7721451261
 H         -3.6283904179       -0.1311502992       -2.1925926358
 H         -3.9439529186        1.3641199371       -1.2998456988
 H         -2.3489310819        2.1448155200        0.4471728092
 H          0.9297852626        2.3322022466        1.5968829963
 H         -1.5484339156       -1.4036795562       -1.8140189569
 H          1.0427416696       -1.8530516307        1.4634415235
 H          1.3086074088       -3.4503447058        0.7749446750
 H          2.6530836125       -2.5877153643        1.5283042088
 H          3.7639347373       -3.1768881116       -0.7832048833
 H          3.1384345160       -2.3933205364       -2.2438618748
 H          2.2368858419       -3.7125298450       -1.5008853941
 H          2.8628874964       -0.1182252642       -1.3625465529
 H          4.9462562425       -0.7400886067       -0.6356782157
 H          4.3733376797       -1.4373326297        0.8730588896
 H          4.4056137873        0.5743896897        2.0155500577
 H          5.7585855780        0.8133576848        0.9154773543
 H          5.3150405702        3.4472692782        1.0779067973
 H          4.1737176579        3.9559762914       -0.1768907721
 H          5.5550168780        2.9288416149       -0.5868563654
 H          2.1001783691        2.6408113375       -0.1977074527
 H          2.1116314386        0.2439752929        1.5489625764
  53
        -68.44519176
 C         -3.7826017099        2.3693995141       -1.4012801056
 C         -3.6568011165        0.8554237509       -1.2828348759
 C         -4.7572763696        0.2685379483       -0.4004328954
 C         -4.6171186524       -1.2408435434       -0.1785195454
 C         -3.7813695065       -1.6043606219        1.0575027925
 C         -2.3663134548       -1.1145121829        0.9620214096
 C         -1.9447447711       -0.0145220786        1.6921751042
 C         -0.6525047170        0.4735456727        1.5534708303
 O         -0.3083382364        1.5476631336        2.3204156318
 C          0.2483316534       -0.1287259178        0.6718973711
 C         -0.1590802637       -1.2830549508        0.0005773419
 C         -1.4592929315       -1.7572779615        0.1354718637
 O          0.6636686501       -2.0073055187       -0.8087241466
 C          2.0704252504       -1.7861180671       -0.6782188780
 C          2.5562223412       -2.4335469097        0.6231585973
 C          2.6968984805       -2.4887852121       -1.8832162969
 C          2.3127395539       -0.2686967807       -0.7355138254
 C          3.7798936224        0.1642585250       -0.8324460895
 C          4.0359515681        1.5337553913       -0.1656171720
 C          2.8298481235        2.4271667947       -0.2301926776
 C          3.0215629848        3.8458427921       -0.6560309684
 C          1.6606238259        1.8972954829        0.1103665074
 C          1.6310767694        0.4304285828        0.4547959499
 H         -3.0091388832        2.7682330910       -2.0538888425
 H         -4.7527530461        2.6442560669       -1.8109650921
 H         -3.6795987484        2.8349295673       -0.4234779475
 H         -3.7192729362        0.4067583403       -2.2773746544
 H         -2.6804671612        0.6066123005       -0.8668948393
 H         -5.7214740678        0.4745321772       -0.8727682170
 H         -4.7522985015        0.7776957423        0.5652991733
 H         -4.1691891215       -1.6956688646       -1.0638107660
 H         -5.6093258734       -1.6791750668       -0.0468471354
 H         -4.2563414471       -1.1792196938        1.9436080153
 H         -3.7797964812       -2.6922120793        1.1625192252
 H         -2.6069066232        0.4896525528        2.3777015656
 H          0.5969796226        1.8152895240        2.1184821128
 H         -1.7393897912       -2.6399056606       -0.4171515875
 H          2.4275980408       -3.5112589362        0.5564396235
 H          3.6062696763       -2.2183405127        0.7985317663
 H          1.9728746626       -2.0772180828        1.4687512410
 H          2.3894997371       -1.9987885649       -2.8032612014
 H          2.3543628434       -3.5196582499       -1.9139544135
 H          3.7800547904       -2.4750287424       -1.8142785587
 H          1.7883227844        0.0769921000       -1.6356093512
 H          4.0631496430        0.2215058075       -1.8838454782
 H          4.4280126932       -0.5744280117       -0.3593530952
 H          4.2855256034        1.3683698379        0.8878642959
 H          4.8971473943        2.0137028010       -0.6310152800
 H          3.4157644480        3.8825474501       -1.6714573963
 H          3.7394421924        4.3437292080       -0.0041346624
 H          2.0820326519        4.3917449996       -0.6259331619
 H          0.7355244302        2.4500178285        0.0439355738
 H          2.2474774783        0.2600599587        1.3524278633
  53
        -68.44515053
 C         -3.6958117425        1.2142017703       -2.6244659853
 C         -3.7028779018        0.9520259180       -1.1232322201
 C         -4.7410015815       -0.1025658569       -0.7449114859
 C         -4.7974461389       -0.3989833698        0.7560982890
 C         -3.7862961618       -1.4564093629        1.2206245006
 C         -2.3592305945       -1.0173111707        1.0683827991
 C         -1.8459261851       -0.0230033663        1.8884790023
 C         -0.5426706500        0.4230601353        1.7279575829
 O         -0.1047034302        1.3880718541        2.5868523155
 C          0.2811178593       -0.1157389970        0.7351362291
 C         -0.2166728121       -1.1686731168       -0.0326175336
 C         -1.5308335592       -1.5997208987        0.1250573238
 O          0.5242917765       -1.8327804267       -0.9631907893
 C          1.9452342394       -1.6893679480       -0.8914846752
 C          2.4662879713       -2.5002416213        0.3000585124
 C          2.4710391172       -2.2781592253       -2.2010846139
 C          2.2598101808       -0.1872528637       -0.7950047418
 C          3.7398285728        0.1886120947       -0.9282176560
 C          4.1000082377        1.4597939119       -0.1283017708
 C          2.9395338380        2.4081967739       -0.0242742126
 C          3.1812842741        3.8559008502       -0.3007581607
 C          1.7638911731        1.8961656070        0.3214115870
 C          1.6772651871        0.4025848055        0.5024557317
 H         -4.6740850707        1.5525640739       -2.9608358939
 H         -2.9633203213        1.9776268539       -2.8764370679
 H         -3.4432113222        0.3056507618       -3.1667851970
 H         -2.7121924240        0.6232505090       -0.8101002442
 H         -3.9283062637        1.8810901938       -0.5939378805
 H         -4.5307232708       -1.0261313820       -1.2884294670
 H         -5.7224950131        0.2523150028       -1.0715233345
 H         -5.7959491803       -0.7664876391        1.0061416257
 H         -4.6362735983        0.5258614049        1.3127143251
 H         -3.9796437350       -1.6715756980        2.2750151905
 H         -3.9482444584       -2.3753097597        0.6541274716
 H         -2.4459253197        0.4237795558        2.6649181804
 H          0.8016363913        1.6350442688        2.3641587290
 H         -1.8806496634       -2.4002242557       -0.5073086988
 H          3.5335905163       -2.3523880775        0.4367742129
 H          1.9470202346       -2.2163614077        1.2122494314
 H          2.2806245058       -3.5568841412        0.1225268837
 H          2.1395215360       -1.6747444365       -3.0419579608
 H          2.0768552142       -3.2832661694       -2.3249490157
 H          3.5556827989       -2.3190295744       -2.1946141608
 H          1.7070221764        0.2805602852       -1.6197846845
 H          3.9695160825        0.3535244665       -1.9813048165
 H          4.3738659288       -0.6274512536       -0.5795998318
 H          4.3944414344        1.1639490302        0.8842071954
 H          4.9597222509        1.9502788239       -0.5853649110
 H          3.5233553473        3.9896298875       -1.3268901270
 H          3.9567125118        4.2437378134        0.3598891924
 H          2.2738529204        4.4366621451       -0.1564313965
 H          0.8660976339        2.4938569429        0.3694416408
 H          2.3298192828        0.1041934097        1.3390667679
  53
        -68.44513465
 C         -4.8039810097       -3.2847695162       -1.0460367283
 C         -5.0583636949       -1.7973886986       -0.8350409037
 C         -4.4594418358       -1.3094757515        0.4819761750
 C         -4.7056769327        0.1749994940        0.7487899379
 C         -3.9032004762        1.1059250327       -0.1720023452
 C         -2.4244435123        0.9220495560        0.0134093878
 C         -1.7869227645        1.4753946089        1.1166275949
 C         -0.4269796786        1.2957795087        1.3138562645
 O          0.1984981051        1.8207988992        2.4091947444
 C          0.3382735449        0.5622839373        0.4039299672
 C         -0.3189653047       -0.0445772947       -0.6650202825
 C         -1.6842163868        0.1530132117       -0.8642042524
 O          0.3027487561       -0.8545792281       -1.5630502068
 C          1.5885541685       -1.3707571221       -1.2009866796
 C          1.3982394211       -2.4778846271       -0.1589841485
 C          2.1577012548       -1.9551674735       -2.4945146054
 C          2.4436004162       -0.1968900106       -0.6969863603
 C          3.9261600317       -0.5129779266       -0.4713521097
 C          4.5458229118        0.3463355696        0.6507374509
 C          3.8785707386        1.6875885301        0.7800639423
 C          4.7502300360        2.8933109174        0.9261685805
 C          2.5524869658        1.7159156962        0.7800095692
 C          1.8251976154        0.4172826121        0.5710580796
 H         -5.2380384442       -3.6199376497       -1.9854613301
 H         -3.7350358136       -3.4855514098       -1.0700862096
 H         -5.2428144297       -3.8669692815       -0.2382197847
 H         -4.6232046714       -1.2427148101       -1.6673603131
 H         -6.1347661140       -1.6078431410       -0.8353293615
 H         -3.3839251870       -1.4984149658        0.4826662677
 H         -4.8985676890       -1.8880578912        1.2989945545
 H         -4.4333381622        0.3936346648        1.7840055160
 H         -5.7701842673        0.3919481425        0.6311311036
 H         -4.1716461361        0.9156414837       -1.2109652133
 H         -4.1736995500        2.1385799755        0.0618193944
 H         -2.3548723166        2.0573637090        1.8315503280
 H         -0.4493103808        2.2924299772        2.9459454433
 H         -2.1442389198       -0.3171187876       -1.7186922540
 H          2.3558764262       -2.8539297470        0.1886072783
 H          0.8323024701       -2.1072066719        0.6920317277
 H          0.8417606313       -3.2991378944       -0.6050896269
 H          2.3333272306       -1.1623210981       -3.2167819291
 H          1.4408258592       -2.6528674400       -2.9195135215
 H          3.0900156768       -2.4761069968       -2.3010638984
 H          2.3701479317        0.5734901150       -1.4756114658
 H          4.4707461595       -0.3359027737       -1.3997252219
 H          4.0575844703       -1.5644279454       -0.2121694094
 H          4.4261243030       -0.1831594311        1.6016680852
 H          5.6160375226        0.4622903436        0.4752817912
 H          4.1504762826        3.7910093303        1.0513914140
 H          5.3812323883        3.0127013174        0.0450722438
 H          5.4049239155        2.7851993995        1.7909828546
 H          1.9889077417        2.6292156491        0.8662538930
 H          2.0310969596       -0.2356487068        1.4308679889
  53
        -68.44513059
 C         -4.8457600846       -3.2468189847       -1.1373663368
 C         -5.0833694453       -1.7645649573       -0.8766215775
 C         -4.4683394883       -1.3243482214        0.4498307506
 C         -4.7007869472        0.1525155235        0.7665484112
 C         -3.8988890646        1.1068791736       -0.1305106498
 C         -2.4199536304        0.9176287591        0.0473980062
 C         -1.7773332511        1.4576706062        1.1542528382
 C         -0.4163915905        1.2761955275        1.3426245687
 O          0.2147911113        1.7891069347        2.4403962142
 C          0.3443332855        0.5532665415        0.4206206984
 C         -0.3183028626       -0.0430309769       -0.6509163755
 C         -1.6843346077        0.1574039300       -0.8418047079
 O          0.2990687509       -0.8442718886       -1.5597407675
 C          1.5874394267       -1.3622929886       -1.2094006089
 C          1.4043597642       -2.4783822694       -0.1756854310
 C          2.1497659275       -1.9352999291       -2.5109648664
 C          2.4439789372       -0.1916257253       -0.7005746289
 C          3.9283759457       -0.5069013152       -0.4872241869
 C          4.5549686627        0.3485945810        0.6340151806
 C          3.8835328301        1.6861828500        0.7786479366
 C          4.7517751452        2.8941491461        0.9263180241
 C          2.5574433501        1.7096567973        0.7901924797
 C          1.8326308011        0.4102890776        0.5766560164
 H         -5.2837665187       -3.8503339279       -0.3449618103
 H         -5.2908807526       -3.5473702067       -2.0833060714
 H         -3.7791872929       -3.4573448013       -1.1769438663
 H         -4.6504734705       -1.1877948444       -1.6950155212
 H         -6.1577883489       -1.5648599685       -0.8610456765
 H         -3.3944714904       -1.5214508294        0.4344675435
 H         -4.9045192321       -1.9257196541        1.2517884950
 H         -4.4183343256        0.3360553165        1.8058744584
 H         -5.7645350244        0.3808267563        0.6646343242
 H         -4.1693332141        0.9443665296       -1.1736772983
 H         -4.1678627504        2.1332348464        0.1310982462
 H         -2.3419975462        2.0311562417        1.8785733064
 H         -0.4302207255        2.2546266995        2.9857648430
 H         -2.1482405131       -0.3016421667       -1.7002390558
 H          0.8460554675       -3.2965011890       -0.6251366084
 H          2.3645009033       -2.8563085749        0.1627565790
 H          0.8433661690       -2.1156101815        0.6819216131
 H          2.3203814041       -1.1363795280       -3.2276742754
 H          1.4312370522       -2.6302851213       -2.9376001312
 H          3.0837304672       -2.4567658180       -2.3270962001
 H          2.3643853116        0.5854604183       -1.4719181861
 H          4.4659701682       -0.3252499196       -1.4187690264
 H          4.0626993738       -1.5593034307       -0.2334351428
 H          4.4468438114       -0.1871751806        1.5827986652
 H          5.6229245007        0.4703673062        0.4489808012
 H          4.1496896242        3.7885098446        1.0636125136
 H          5.3743286556        3.0226785633        0.0405058468
 H          5.4146075220        2.7822390447        1.7844546542
 H          1.9914463111        2.6202571813        0.8884176280
 H          2.0463771672       -0.2487319006        1.4298244423
  53
        -68.44512893
 C         -4.8551831233       -0.1364148360       -3.1044630446
 C         -5.0439991562       -0.4776823408       -1.6315632148
 C         -4.4224460531        0.5843369014       -0.7275277992
 C         -4.6154964372        0.3027935741        0.7620650276
 C         -3.7870495670       -0.8842930380        1.2744924772
 C         -2.3151282891       -0.6276638668        1.1270371538
 C         -1.6547185822        0.1822173897        2.0423155927
 C         -0.3084412192        0.4734006636        1.8896905421
 O          0.3506610521        1.2457603964        2.8038629911
 C          0.4142941510       -0.0276892178        0.8041835864
 C         -0.2375256402       -0.8927410380       -0.0731741389
 C         -1.5942683873       -1.1721444887        0.0814249536
 O          0.3838800378       -1.5118099278       -1.1122707875
 C          1.8153115881       -1.5512697839       -1.0911523421
 C          2.2636680239       -2.5839787717       -0.0519467106
 C          2.2182097828       -2.0052847798       -2.4948189077
 C          2.3224347016       -0.1296698106       -0.7990394789
 C          3.8333508342        0.0741602595       -0.9555802831
 C          4.3803798171        1.1634524964       -0.0092099340
 C          3.3554484290        2.2179870655        0.3041987637
 C          3.7825652546        3.6495261579        0.2486844837
 C          2.1371590507        1.8106311122        0.6345384125
 C          1.8579337885        0.3343194082        0.5925641080
 H         -5.3195462132        0.8193749866       -3.3387608082
 H         -3.7961751072       -0.0695315081       -3.3440727887
 H         -5.3034052596       -0.8996529900       -3.7368408585
 H         -6.1111652551       -0.5617267509       -1.4105493766
 H         -4.5860262596       -1.4473824479       -1.4321423638
 H         -4.8786668668        1.5498654591       -0.9613244177
 H         -3.3544020041        0.6619644987       -0.9409939158
 H         -5.6726631458        0.1086000520        0.9593402125
 H         -4.3288006447        1.1932889408        1.3264495401
 H         -4.0261213486       -1.0418453287        2.3291638902
 H         -4.0624540379       -1.7868416140        0.7293126450
 H         -2.1933151327        0.5886829800        2.8891300683
 H         -0.2668754988        1.5113995731        3.4954570947
 H         -2.0596029461       -1.8329259059       -0.6324957542
 H          3.3456389941       -2.5988440813        0.0400111930
 H          1.8274990002       -2.3619828988        0.9188181242
 H          1.9254786251       -3.5714755082       -0.3577785553
 H          1.6960760680       -2.9271512060       -2.7375540874
 H          3.2885272697       -2.1773121223       -2.5485443021
 H          1.9393695678       -1.2509564452       -3.2259264558
 H          1.8107193135        0.5179356098       -1.5229071021
 H          4.0470719283        0.3565331907       -1.9873008231
 H          4.3672143535       -0.8557782831       -0.7552271213
 H          4.6761058239        0.6900482406        0.9327979606
 H          5.2752374606        1.6108913842       -0.4435471844
 H          4.1057687537        3.9088518284       -0.7597809614
 H          4.6234000343        3.8206537059        0.9209790914
 H          2.9663699278        4.3077698562        0.5345937924
 H          1.3392002869        2.4928427560        0.8734694516
 H          2.4698777973       -0.1546119898        1.3635847543
  53
        -68.44507734
 C         -6.5862935831       -2.4082071093       -1.1795876028
 C         -6.6812585306       -0.9164642496       -1.4779872676
 C         -5.9102380433       -0.0524070965       -0.4795263393
 C         -4.3966897773       -0.2456446529       -0.5566450267
 C         -3.6703355494        0.7334722270        0.3616794149
 C         -2.1796986923        0.5413442142        0.4596920574
 C         -1.5000306573        1.1344420872        1.5179982349
 C         -0.1237871379        1.0312547537        1.6398056575
 O          0.5108460779        1.5930564584        2.7132543342
 C          0.6320711747        0.3388619569        0.6890450655
 C         -0.0649214659       -0.3235320829       -0.3214271742
 C         -1.4492203677       -0.2011395408       -0.4456984241
 O          0.5246458729       -1.1283036115       -1.2450445737
 C          1.8684854558       -1.5582876530       -0.9995803130
 C          1.8574047584       -2.6763917966        0.0476241712
 C          2.3485431173       -2.1122855901       -2.3428376709
 C          2.6758342155       -0.3270913547       -0.5665951141
 C          4.1821604964       -0.5124018306       -0.4189241682
 C          4.8355155896        0.8661078782       -0.3163205647
 C          4.0524070865        1.8212621719        0.5446851794
 C          4.7393207607        3.1251028118        0.8236872345
 C          2.8393026875        1.5505788361        1.0042612427
 C          2.1376771329        0.2427902237        0.7496508300
 H         -5.5650013884       -2.7635895018       -1.2868536192
 H         -6.9187563695       -2.6147733586       -0.1644112761
 H         -7.2142933019       -2.9711495622       -1.8666277274
 H         -6.3055579629       -0.7238135172       -2.4855617459
 H         -7.7326834247       -0.6191123089       -1.4560402169
 H         -6.2547263431       -0.2797168386        0.5324269087
 H         -6.1404323929        0.9979427437       -0.6776547328
 H         -4.0737095722       -0.0919024672       -1.5877825166
 H         -4.1379549563       -1.2640244678       -0.2643655038
 H         -3.8606894481        1.7549909445        0.0148140052
 H         -4.0950276717        0.6564225091        1.3669997450
 H         -2.0536927541        1.6882920103        2.2663380949
 H         -0.1477395999        2.0070061516        3.2837971199
 H         -1.9153435179       -0.7185489983       -1.2666675370
 H          2.8728671561       -2.9647443001        0.3035221450
 H          1.3376623676       -2.3556502974        0.9468427451
 H          1.3354293052       -3.5421527583       -0.3536127058
 H          1.5899421406       -2.7835781047       -2.7368619439
 H          3.2766883885       -2.6622303733       -2.2231013895
 H          2.4953606130       -1.3050637535       -3.0556263186
 H          2.5030200923        0.4286653528       -1.3443313859
 H          4.6009468157       -1.0497075507       -1.2704526901
 H          4.3948182068       -1.0881274956        0.4838911117
 H          5.8509703894        0.7703710127        0.0782707248
 H          4.9242574641        1.3030997861       -1.3173663332
 H          5.6614472743        2.9563487658        1.3800628230
 H          4.1003029686        3.7859113929        1.4029911372
 H          5.0036226889        3.6221305562       -0.1097649431
 H          2.3218120423        2.2674572986        1.6195251912
 H          2.4017111280       -0.4300031022        1.5799029709
  53
        -68.44506788
 C         -6.5914309361       -2.3035191062       -1.4076450402
 C         -6.6689171205       -0.7890195424       -1.5616830251
 C         -5.9070779163       -0.0332688871       -0.4724142082
 C         -4.3934366834       -0.2253130557       -0.5507265763
 C         -3.6761619608        0.6392039773        0.4815859586
 C         -2.1802111514        0.4720820011        0.5413071298
 C         -1.4899889974        1.0667936256        1.5923430963
 C         -0.1107361277        0.9827819524        1.6888771159
 O          0.5347700783        1.5444464389        2.7558998565
 C          0.6380656593        0.3101009236        0.7182824079
 C         -0.0672751679       -0.3531284837       -0.2855113201
 C         -1.4556559663       -0.2514793640       -0.3834008351
 O          0.5170688692       -1.1399737012       -1.2277317060
 C          1.8712381712       -1.5525836053       -1.0109044895
 C          1.8952123855       -2.6813484791        0.0246179015
 C          2.3349047754       -2.0857854680       -2.3682806704
 C          2.6686256710       -0.3142914215       -0.5796788465
 C          4.1797754161       -0.4798635046       -0.4604205887
 C          4.8157233123        0.9064889406       -0.3547625920
 C          4.0350619413        1.8414817368        0.5302230132
 C          4.7093528719        3.1512611716        0.8120141089
 C          2.8338896815        1.5493642745        1.0077142800
 C          2.1457337406        0.2347564760        0.7514980073
 H         -5.5715653608       -2.6573384952       -1.5322537382
 H         -6.9430251787       -2.6040328433       -0.4228050379
 H         -7.2122387582       -2.7910394210       -2.1561229563
 H         -6.2752630312       -0.5034571183       -2.5398963376
 H         -7.7180910157       -0.4849983529       -1.5271829994
 H         -6.2646331346       -0.3596036584        0.5074268315
 H         -6.1312744314        1.0327235438       -0.5664823004
 H         -4.0538085335        0.0427653089       -1.5529290001
 H         -4.1451731190       -1.2720601239       -0.3720968162
 H         -3.8926468971        1.6929664022        0.2754842737
 H         -4.0864616959        0.4206029566        1.4723920693
 H         -2.0388669088        1.6056928383        2.3550609426
 H         -0.1195266922        1.9433822792        3.3418658323
 H         -1.9278403506       -0.7689883309       -1.2007596628
 H          1.3873106012       -2.3772877434        0.9363095575
 H          1.3784146923       -3.5503847499       -0.3762285047
 H          2.9191329693       -2.9576781512        0.2591733453
 H          2.4574053722       -1.2692738864       -3.0750646463
 H          1.5788845482       -2.7637827550       -2.7557238673
 H          3.2727054213       -2.6236282726       -2.2709466267
 H          2.4714960691        0.4465451529       -1.3465805725
 H          4.5908772597       -1.0026415990       -1.3246590157
 H          4.4162403510       -1.0616291949        0.4325379959
 H          5.8393679319        0.8208804956        0.0205203239
 H          4.8802738734        1.3550582561       -1.3525238053
 H          4.9521797920        3.6614106127       -0.1201599454
 H          5.6424039757        2.9887770951        1.3517792752
 H          4.0712982967        3.7975566823        1.4084909368
 H          2.3177410620        2.2523945116        1.6398466285
 H          2.4334957718       -0.4427357503        1.5699893020
  53
        -68.44505982
 C         -6.5947882143       -2.1410837467       -1.6672020705
 C         -6.6512687783       -0.6180022937       -1.6438052271
 C         -5.9002159339       -0.0050638765       -0.4612775677
 C         -4.3876644747       -0.2060587606       -0.5376149724
 C         -3.6795497322        0.5139796343        0.6054430010
 C         -2.1790306672        0.3806292815        0.6282480522
 C         -1.4801501947        0.9818782612        1.6700332008
 C         -0.0981879247        0.9228365074        1.7404692038
 O          0.5566408503        1.4901436427        2.7988100462
 C          0.6446788280        0.2709885241        0.7511001745
 C         -0.0670642608       -0.3994641074       -0.2432182073
 C         -1.4589283763       -0.3242575441       -0.3139191628
 O          0.5136338896       -1.1691072681       -1.2017507092
 C          1.8803003953       -1.5545936754       -1.0158390422
 C          1.9493276568       -2.6896982175        0.0107045670
 C          2.3266923953       -2.0687559937       -2.3863054965
 C          2.6602000414       -0.3026530280       -0.5920874986
 C          4.1766805990       -0.4368832085       -0.5060532973
 C          4.7851074174        0.9619846419       -0.4037784713
 C          4.0050003116        1.8727902441        0.5065478278
 C          4.6581601457        3.1938006235        0.7857381314
 C          2.8208293971        1.5516179441        1.0072195054
 C          2.1539708116        0.2255419583        0.7538810431
 H         -6.9663326128       -2.5498816109       -0.7298238285
 H         -7.2089623428       -2.5289249423       -2.4769274955
 H         -5.5774286263       -2.4922452687       -1.8171932877
 H         -6.2368552224       -0.2255196490       -2.5752660281
 H         -7.6972169651       -0.3056041683       -1.5910506613
 H         -6.2778679269       -0.4395660455        0.4677323269
 H         -6.1114957390        1.0673351534       -0.4329878871
 H         -4.0245579747        0.1799438096       -1.4921963476
 H         -4.1569662034       -1.2704759860       -0.4866626264
 H         -3.9248297349        1.5802242438        0.5598811991
 H         -4.0722103193        0.1404305682        1.5567517729
 H         -2.0249140834        1.5058627795        2.4459795014
 H         -0.0939527472        1.8726260163        3.3996751195
 H         -1.9363324247       -0.8466592500       -1.1250919403
 H          1.4433620214       -3.5669747075       -0.3859564605
 H          2.9834740891       -2.9453642488        0.2226724406
 H          1.4535509374       -2.4029830497        0.9345893112
 H          2.4173830910       -1.2450427885       -3.0895179920
 H          1.5771242503       -2.7598660546       -2.7629912465
 H          3.2773589388       -2.5873729768       -2.3122293279
 H          2.4308033264        0.4593026063       -1.3488570099
 H          4.5801104119       -0.9446997982       -1.3827239743
 H          4.4444939768       -1.0196746473        0.3773417546
 H          5.8186512915        0.8956153439       -0.0525346293
 H          4.8171700915        1.4195192423       -1.3990511686
 H          5.6071266835        3.0460445109        1.3014421442
 H          4.0211220489        3.8205035151        1.4037923045
 H          4.8676890816        3.7181171265       -0.1466492740
 H          2.3043390646        2.2382788415        1.6568334397
 H          2.4715492431       -0.4524059213        1.5608841600
  53
        -68.44504731
 C         -6.5962677093       -1.7980876399       -2.0468158773
 C         -6.6137615348       -0.3072943997       -1.7293010363
 C         -5.8821523775        0.0419065974       -0.4327180138
 C         -4.3721729395       -0.1745252548       -0.5150839480
 C         -3.6815802170        0.2633506254        0.7733062084
 C         -2.1764049004        0.2072906200        0.7490319815
 C         -1.4726170369        0.8370954619        1.7698910539
 C         -0.0877000215        0.8297535815        1.8024864649
 O          0.5740418189        1.4235093022        2.8418131378
 C          0.6516568885        0.2061161850        0.7928268302
 C         -0.0611727042       -0.4927487833       -0.1812437272
 C         -1.4560027889       -0.4724324568       -0.2117525072
 O          0.5220764380       -1.2399947694       -1.1557923961
 C          1.9071395527       -1.5726078469       -1.0077727187
 C          2.0478960288       -2.7033215715        0.0162397438
 C          2.3348171070       -2.0704708310       -2.3901708668
 C          2.6500776827       -0.2913776787       -0.6056674655
 C          4.1723556376       -0.3680049704       -0.5605706345
 C          4.7301179461        1.0529371071       -0.4748920982
 C          3.9404922599        1.9351346890        0.4551917130
 C          4.5504193636        3.2803431239        0.7160935801
 C          2.7831614097        1.5701447261        0.9875913857
 C          2.1610273475        0.2190444561        0.7534419580
 H         -5.5845715268       -2.1455616540       -2.2381417329
 H         -7.0059013668       -2.3686984193       -1.2158454474
 H         -7.1961648116       -2.0024289875       -2.9309310946
 H         -6.1621325903        0.2451040636       -2.5564803167
 H         -7.6524806282        0.0209682523       -1.6417319822
 H         -6.2907031856       -0.5596856269        0.3832002700
 H         -6.0751330809        1.0917749921       -0.1962207734
 H         -3.9708846943        0.3992472926       -1.3531859577
 H         -4.1672669429       -1.2300374642       -0.6932398725
 H         -3.9809704231        1.2899751739        1.0053021846
 H         -4.0371444527       -0.3638397359        1.5979546246
 H         -2.0146931441        1.3419121360        2.5602693647
 H         -0.0737562998        1.7814997230        3.4605393243
 H         -1.9364927541       -1.0156769566       -1.0073468196
 H          3.0965469245       -2.9196983747        0.1987563344
 H          1.5680020506       -2.4345000394        0.9538273194
 H          1.5642187834       -3.5993486196       -0.3661298757
 H          1.6022425976       -2.7902344426       -2.7460402844
 H          3.3063987266       -2.5521044290       -2.3425424946
 H          2.3742417689       -1.2445200642       -3.0955223588
 H          2.3715527170        0.4603565805       -1.3561445139
 H          4.5709502803       -0.8612346614       -1.4477253424
 H          4.4857222464       -0.9392620697        0.3153484070
 H          5.7743555769        1.0260246352       -0.1510617619
 H          4.7185824455        1.5099367270       -1.4708674043
 H          3.9050054186        3.8849578624        1.3473145136
 H          4.7189406645        3.8091005169       -0.2220508320
 H          5.5157901041        3.1693634384        1.2101223091
 H          2.2585556768        2.2377848160        1.6503877919
 H          2.5266807215       -0.4449886143        1.5516312093
  53
        -68.44504215
 C         -5.4837065749        2.5380161989       -0.6015534954
 C         -5.4215408510        1.0648848888       -0.2166025023
 C         -4.4437423095        0.2951759154       -1.1017672117
 C         -4.3784877720       -1.1981591861       -0.7831677112
 C         -3.7151775534       -1.5113849573        0.5655295674
 C         -2.2899488767       -1.0394309056        0.5962060145
 C         -1.9372938230        0.1282869338        1.2586843961
 C         -0.6291309062        0.5886471262        1.2371765828
 O         -0.2756216411        1.7255391204        1.9076580797
 C          0.3625779540       -0.1038956892        0.5401165576
 C          0.0159047071       -1.3115792958       -0.0655738264
 C         -1.3026210467       -1.7596896642       -0.0508228668
 O          0.9141219788       -2.1178222057       -0.6916117797
 C          2.3013612404       -1.8930304742       -0.4157553846
 C          2.6172242085       -2.4263984190        0.9854068458
 C          3.0504187753       -2.7068656813       -1.4718148082
 C          2.5761675850       -0.3887844302       -0.5741054996
 C          4.0535067283        0.0171553964       -0.5362538277
 C          4.2577422729        1.4381374100        0.0300358440
 C          3.0810598951        2.3358627738       -0.2350408115
 C          3.3526204096        3.7198328383       -0.7308384576
 C          1.8713479593        1.8505591110        0.0106897937
 C          1.7695180795        0.4190611734        0.4574170756
 H         -6.1782197575        3.0754775679        0.0405730283
 H         -4.5017048829        2.9971704985       -0.5074220995
 H         -5.8133430770        2.6498380977       -1.6322736835
 H         -5.1192287126        0.9833537295        0.8285882654
 H         -6.4167993809        0.6230755155       -0.3083256144
 H         -3.4448504024        0.7250823029       -1.0012646646
 H         -4.7514773933        0.4153062133       -2.1436054831
 H         -3.8084181907       -1.6974165852       -1.5693934044
 H         -5.3893917192       -1.6130997085       -0.7860810168
 H         -4.2814818436       -1.0447182296        1.3722684660
 H         -3.7417996512       -2.5926400182        0.7182495054
 H         -2.6857768803        0.6900800738        1.8028623184
 H         -1.0547576958        2.0881592836        2.3455778568
 H         -1.5299392266       -2.6896618767       -0.5474524411
 H          3.6475290913       -2.2178917518        1.2579480976
 H          1.9566672159       -1.9765911009        1.7223707527
 H          2.4621095800       -3.5027659900        1.0033307856
 H          4.1183070384       -2.6936383188       -1.2783242685
 H          2.8604029426       -2.2996745502       -2.4613656355
 H          2.6967657179       -3.7343634620       -1.4506397303
 H          2.1699786768       -0.1192965530       -1.5577470820
 H          4.4582710707       -0.0263225489       -1.5482248509
 H          4.6263950223       -0.6824172090        0.0739595098
 H          4.3887533267        1.3654053486        1.1146998569
 H          5.1722605960        1.8683041420       -0.3801030126
 H          4.0009314198        4.2516440486       -0.0343494543
 H          2.4273370642        4.2786898619       -0.8436954274
 H          3.8604115727        3.6832116507       -1.6949553073
 H          0.9714856462        2.4195573406       -0.1497573582
 H          2.2463250543        0.3309108511        1.4437715938
  53
        -68.44504066
 C         -5.4489961441        2.5360342013       -0.6543030918
 C         -5.4018514590        1.0696360353       -0.2425340229
 C         -4.4292740717        0.2749408712       -1.1111316081
 C         -4.3776474394       -1.2127475765       -0.7648066983
 C         -3.7182103070       -1.5059424071        0.5901832476
 C         -2.2920463757       -1.0363659065        0.6164690888
 C         -1.9344160926        0.1282011440        1.2816884720
 C         -0.6256117505        0.5866042902        1.2558199891
 O         -0.2671478711        1.7199593651        1.9296399481
 C          0.3614436309       -0.1040880127        0.5503572830
 C          0.0099940975       -1.3089362759       -0.0582715842
 C         -1.3088174735       -1.7558333321       -0.0377152443
 O          0.9033419414       -2.1134063100       -0.6934133264
 C          2.2928211596       -1.8897137183       -0.4283831019
 C          2.6207673605       -2.4300906989        0.9673073124
 C          3.0326641413       -2.6981114638       -1.4951012964
 C          2.5664012577       -0.3847000752       -0.5815144714
 C          4.0441851995        0.0208146541       -0.5540706051
 C          4.2541929606        1.4372814718        0.0210927536
 C          3.0766239834        2.3378547607       -0.2295689049
 C          3.3458317720        3.7246265620       -0.7186207587
 C          1.8683045316        1.8520524787        0.0219532764
 C          1.7683343555        0.4179576778        0.4607508720
 H         -4.4631781930        2.9877558353       -0.5643833668
 H         -5.7734384615        2.6320399269       -1.6882630921
 H         -6.1411391484        3.0913898886       -0.0249869052
 H         -5.1026438622        1.0042041374        0.8046523649
 H         -6.4010109785        0.6356088421       -0.3289487456
 H         -3.4268306036        0.6978197175       -1.0162115491
 H         -4.7336935207        0.3784243837       -2.1557296674
 H         -3.8112336505       -1.7312575545       -1.5411021779
 H         -5.3920517553       -1.6190353650       -0.7611266627
 H         -4.2851394456       -1.0254041911        1.3883051155
 H         -3.7475406840       -2.5846087240        0.7601229353
 H         -2.6795065555        0.6893230724        1.8312301248
 H         -1.0435425042        2.0816564134        2.3731368547
 H         -1.5395818570       -2.6841203402       -0.5358898283
 H          3.6532409501       -2.2224405741        1.2322756866
 H          1.9661589668       -1.9844329139        1.7120754651
 H          2.4663087685       -3.5066186327        0.9810059054
 H          4.1022237059       -2.6857544346       -1.3110610612
 H          2.8338545624       -2.2859129821       -2.4808574331
 H          2.6792886831       -3.7257510931       -1.4760336229
 H          2.1519302904       -0.1102942056       -1.5603360518
 H          4.4396010159       -0.0149468763       -1.5700424844
 H          4.6226673742       -0.6833679480        0.0454673499
 H          4.3926825900        1.3566069187        1.1042627764
 H          5.1663165196        1.8692524708       -0.3924655439
 H          2.4203156545        4.2851623482       -0.8205899314
 H          3.8460186533        3.6936865553       -1.6868838945
 H          4.0001217366        4.2512622969       -0.0238273230
 H          0.9678978527        2.4229296278       -0.1282556028
 H          2.2522748917        0.3234408179        1.4430330483
  53
        -68.44503381
 C         -3.4446292631        1.8571784522       -1.0905728968
 C         -3.7553120355        0.4572018050       -1.6060051068
 C         -4.9628078934       -0.1875210377       -0.9238989333
 C         -4.8384795249       -0.4018272482        0.5852964481
 C         -3.8172081349       -1.4721030105        0.9943199014
 C         -2.3893344873       -1.0170871984        0.8916134137
 C         -1.9376336004        0.0396078191        1.6685048123
 C         -0.6329090759        0.4960689242        1.5542236466
 O         -0.2631734809        1.5302059657        2.3636988763
 C          0.2569394993       -0.0977425008        0.6551998850
 C         -0.1780519694       -1.2148932888       -0.0578731513
 C         -1.4939624515       -1.6551363010        0.0505602381
 O          0.6276814826       -1.9337000956       -0.8885938148
 C          2.0393604542       -1.7540094573       -0.7478320377
 C          2.5043197893       -2.4605466894        0.5301898168
 C          2.6504840686       -2.4289080783       -1.9763494026
 C          2.3214992485       -0.2423517245       -0.7496198363
 C          3.7998465487        0.1547426841       -0.8283820268
 C          4.0905977447        1.4914994666       -0.1113059222
 C          2.9089585395        2.4187121057       -0.1447908157
 C          3.1396721338        3.8464629171       -0.5176575471
 C          1.7250734988        1.9082765951        0.1739704287
 C          1.6551002629        0.4311047470        0.4639393355
 H         -2.6743732352        2.3188692358       -1.7047126799
 H         -4.3327880272        2.4855342046       -1.1242249762
 H         -3.0794727013        1.8208457636       -0.0677908963
 H         -3.9692636721        0.5149604239       -2.6768864718
 H         -2.8767726117       -0.1744126969       -1.4777797056
 H         -5.1556684010       -1.1528521041       -1.3995821508
 H         -5.8374127089        0.4447547765       -1.1035629000
 H         -5.8185926782       -0.7151882127        0.9553860983
 H         -4.5930220446        0.5415307397        1.0719780319
 H         -4.0147944899       -1.7472212107        2.0345181705
 H         -3.9639529943       -2.3622747841        0.3798998092
 H         -2.5850195212        0.5266384174        2.3806006110
 H          0.6508786808        1.7784540058        2.1771518476
 H         -1.7929397341       -2.5076997107       -0.5391720414
 H          1.9277989822       -2.1200154595        1.3869092221
 H          2.3481345272       -3.5314235464        0.4241066873
 H          3.5590283474       -2.2791625130        0.7154734770
 H          3.7334285841       -2.4462584882       -1.9050202627
 H          2.3585706558       -1.8979861191       -2.8785638221
 H          2.2810267297       -3.4485960322       -2.0449949287
 H          1.8086544275        0.1494326332       -1.6373863992
 H          4.0870108472        0.2430138112       -1.8765602423
 H          4.4270733681       -0.6177571870       -0.3818688183
 H          4.3329543737        1.2809277359        0.9357746718
 H          4.9655072052        1.9649832943       -0.5574001963
 H          3.5363724729        3.9099916853       -1.5308162088
 H          3.8695973255        4.3003245863        0.1527374902
 H          2.2151840290        4.4160770686       -0.4680884312
 H          0.8152767490        2.4875932417        0.1266967369
 H          2.2632575661        0.2111298232        1.3564143860
  53
        -68.44500138
 C         -3.4581270797       -0.9744687681        2.3456041421
 C         -3.7575008242       -1.8504715566        1.1351504992
 C         -4.9940322511       -1.4049533729        0.3530067957
 C         -4.9367197953        0.0032508955       -0.2412591522
 C         -3.9336869414        0.1715181423       -1.3913017044
 C         -2.5052129556        0.2782689519       -0.9388522031
 C         -2.1056956567        1.3389243288       -0.1394091137
 C         -0.7919895776        1.4459827810        0.2930046134
 O         -0.4902923042        2.4988822029        1.1064039597
 C          0.1645080604        0.4986616961       -0.0815378729
 C         -0.2537326354       -0.5892557065       -0.8479660383
 C         -1.5708548803       -0.6813659735       -1.2879003065
 O          0.5692730654       -1.6159634679       -1.2019839215
 C          1.7778879510       -1.7681514725       -0.4528672978
 C          1.4341774061       -2.3195953379        0.9351766719
 C          2.6065734099       -2.7868226772       -1.2360726559
 C          2.4772543046       -0.3993720433       -0.4131313206
 C          3.9001307926       -0.3985190279        0.1562524481
 C          4.2604216718        0.9388232939        0.8402651015
 C          3.5342393194        2.1016769039        0.2257560570
 C          4.3145876396        3.3343463574       -0.0940969930
 C          2.2302520873        1.9635560662        0.0149338407
 C          1.6076177580        0.6286363698        0.3335030031
 H         -4.3425001322       -0.8672748428        2.9709109463
 H         -2.6676568524       -1.4216234433        2.9448707421
 H         -3.1255582309        0.0127920728        2.0363978420
 H         -2.8883554675       -1.8618301234        0.4783496213
 H         -3.9305477597       -2.8753665058        1.4752180312
 H         -5.8587322162       -1.4526814140        1.0215983086
 H         -5.1685732091       -2.1192921379       -0.4560794739
 H         -4.7153198791        0.7252148375        0.5441153685
 H         -5.9324910131        0.2365640004       -0.6282106927
 H         -4.0378655364       -0.6651127818       -2.0845268698
 H         -4.1898320653        1.0876296615       -1.9312101497
 H         -2.8025339177        2.1048873183        0.1625160707
 H          0.4510806142        2.4856778304        1.3201005271
 H         -1.8433523782       -1.5309876849       -1.8946579050
 H          1.0187291036       -3.3190490871        0.8302384850
 H          2.3180917071       -2.3741047264        1.5639758853
 H          0.6882963052       -1.6951111565        1.4210971239
 H          2.0096506967       -3.6789559285       -1.4056336791
 H          3.5020866023       -3.0566249070       -0.6852152043
 H          2.8891065667       -2.3758134789       -2.2016617069
 H          2.5208423251       -0.0637943011       -1.4572379688
 H          4.6055895014       -0.5859090993       -0.6537617862
 H          4.0195768331       -1.2005677824        0.8856689218
 H          3.9792756839        0.8777745705        1.8969683577
 H          5.3389539317        1.0930919647        0.8005383327
 H          4.8063027219        3.7149915548        0.8011891469
 H          3.6688574358        4.1103108132       -0.4972509537
 H          5.0893873321        3.1080084415       -0.8264328717
 H          1.6408229568        2.7272167324       -0.4699216972
 H          1.7018129631        0.4376450644        1.4148693729
  53
        -68.44499468
 C         -5.7747076190        0.8567867379        2.2339505297
 C         -5.5871482804        0.3161218856        0.8216295297
 C         -4.6027024273       -0.8510010189        0.7943060733
 C         -4.4122520156       -1.4554967095       -0.5964367502
 C         -3.6541514176       -0.5394506958       -1.5676822111
 C         -2.2660233569       -0.2436474667       -1.0765357113
 C         -1.9652272400        0.9688332448       -0.4713988737
 C         -0.6863422318        1.2295680232       -0.0022051785
 O         -0.3953686628        2.4125636680        0.6166295183
 C          0.3328757959        0.2852028260       -0.1378285396
 C          0.0082059919       -0.9549075324       -0.6876255057
 C         -1.2753641284       -1.2042358345       -1.1668444013
 O          0.8939378511       -1.9812931649       -0.7911576140
 C          2.0866050230       -1.9016360299       -0.0024430556
 C          1.7317898499       -2.2015099289        1.4576238069
 C          3.0009622415       -2.9939445869       -0.5587073445
 C          2.6971434865       -0.5061064552       -0.2094936361
 C          4.0980778053       -0.3077356641        0.3793509354
 C          4.3538077204        1.1526232521        0.8077398201
 C          3.5725357527        2.1372350663       -0.0174853023
 C          4.2845129363        3.3520131034       -0.5198295481
 C          2.2892428042        1.8780984304       -0.2301968436
 C          1.7391901472        0.5842175198        0.3013316212
 H         -6.4731504364        1.6908285976        2.2379887276
 H         -6.1629979359        0.0815974465        2.8911046722
 H         -4.8250284408        1.2007690868        2.6387562688
 H         -6.5513358831       -0.0154244351        0.4285770416
 H         -5.2274301425        1.1203774499        0.1780269572
 H         -4.9716920082       -1.6309803323        1.4651803481
 H         -3.6339920350       -0.5199515465        1.1748312919
 H         -5.3893071995       -1.6940512456       -1.0236171045
 H         -3.8530376723       -2.3880702648       -0.4972330333
 H         -3.5943171631       -1.0409512281       -2.5362077478
 H         -4.2074258540        0.3902032781       -1.7051526517
 H         -2.7317807231        1.7255032811       -0.3628381791
 H         -1.1897178277        2.9591544157        0.6407721009
 H         -1.4762004944       -2.1683731984       -1.6064581887
 H          0.9465876540       -1.5342097606        1.8039006755
 H          1.3674412072       -3.2233054544        1.5360095676
 H          2.6004579842       -2.0907266743        2.0998206255
 H          2.4672294852       -3.9407092553       -0.5636674444
 H          3.8941653043       -3.0916944702        0.0500778973
 H          3.2873262882       -2.7569803591       -1.5799560040
 H          2.7586091603       -0.3723586595       -1.2973737496
 H          4.8394101124       -0.5967957387       -0.3667238489
 H          4.2420620454       -0.9516952407        1.2479971276
 H          4.0459481858        1.2684802284        1.8521174600
 H          5.4218732700        1.3677805245        0.7575523875
 H          4.7133836438        3.9112479313        0.3117733797
 H          3.6039974224        4.0014519699       -1.0641976353
 H          5.1010200882        3.0645474043       -1.1826941713
 H          1.6524218179        2.5246309534       -0.8095422401
 H          1.7767124717        0.6181874294        1.3992426885
  53
        -68.44496298
 C         -5.3843786740       -1.2119871332       -2.0475976770
 C         -5.3277657251        0.3086802042       -1.9713856239
 C         -4.2801818272        0.8465812997       -0.9947128454
 C         -4.5579146052        0.5180540185        0.4772818411
 C         -3.8093131198       -0.7219659521        0.9889577776
 C         -2.3223567267       -0.5196814656        0.9486676999
 C         -1.6979522051        0.2882529766        1.8892321924
 C         -0.3333844381        0.5257737118        1.8338818139
 O          0.2665037461        1.2888752349        2.7975408133
 C          0.4525866510       -0.0220884634        0.8155034237
 C         -0.1681213144       -0.8996127060       -0.0748602322
 C         -1.5430237764       -1.1238921970       -0.0180976315
 O          0.4923133616       -1.5942123991       -1.0386405686
 C          1.9196587962       -1.6714185915       -0.9495209824
 C          2.3034473601       -2.6891679291        0.1292097235
 C          2.3656941935       -2.1792573122       -2.3223896077
 C          2.4416527279       -0.2565979242       -0.6648610953
 C          3.9539997652       -0.0649242787       -0.7004775371
 C          4.2556343131        1.4337040752       -0.7288295696
 C          3.3635878307        2.2269160255        0.1887279195
 C          3.7358863841        3.6725773217        0.3337872123
 C          2.3136821452        1.7036399433        0.8051463661
 C          1.9319986752        0.2517154137        0.6875129354
 H         -6.0624932625       -1.5232211376       -2.8399168878
 H         -4.3986365732       -1.6182916719       -2.2628375539
 H         -5.7428888022       -1.6369291047       -1.1137178364
 H         -5.0972168625        0.7002357424       -2.9655387230
 H         -6.3119933260        0.6920817767       -1.6896793655
 H         -4.2494106015        1.9325339413       -1.1119846766
 H         -3.2955252474        0.4645847709       -1.2695258864
 H         -5.6306171848        0.3722956836        0.6226092021
 H         -4.2577558719        1.3679209213        1.0940607191
 H         -4.1221450961       -0.9118751379        2.0193122042
 H         -4.0724963165       -1.5910322753        0.3884567686
 H         -2.2795020154        0.7351481734        2.6859561525
 H         -0.4008168182        1.5665607227        3.4364035005
 H         -1.9736452254       -1.7987979289       -0.7411255682
 H          3.3809837401       -2.7082543436        0.2645481517
 H          1.8268793436       -2.4450511607        1.0752273400
 H          1.9682349209       -3.6790063774       -0.1722138811
 H          2.2271442090       -1.4082815460       -3.0758509803
 H          1.7564725520       -3.0374144015       -2.5940928079
 H          3.4081551817       -2.4809614162       -2.3012505362
 H          2.0015967901        0.3833419090       -1.4412736724
 H          4.3932234278       -0.5399690526       -1.5783289952
 H          4.4021424667       -0.5133223364        0.1882589295
 H          5.3011631610        1.6099165424       -0.4608811076
 H          4.1211797643        1.8135890442       -1.7479166362
 H          3.0232589220        4.1970916173        0.9643859735
 H          3.7637720906        4.1571031961       -0.6422308708
 H          4.7275480461        3.7658666398        0.7767494498
 H          1.7082215635        2.3140741777        1.4540241867
 H          2.4465261878       -0.2819847826        1.5012761165
  53
        -68.44492948
 C         -5.4534692326       -1.7176994103       -1.7894617308
 C         -5.5011925043       -2.1121246495       -0.3185859274
 C         -4.4664909104       -1.3982815852        0.5534854088
 C         -4.6784588792        0.1154224233        0.6783887284
 C         -3.8305574003        0.9455645698       -0.2973647012
 C         -2.3612819418        0.7733846272       -0.0401476916
 C         -1.7695139106        1.3572822518        1.0716366092
 C         -0.4169831449        1.1960028723        1.3289131930
 O          0.1345017330        1.7497126876        2.4514560153
 C          0.3976662821        0.4567125826        0.4659301624
 C         -0.2204225656       -0.1920573317       -0.6041941543
 C         -1.5786398541       -0.0125297013       -0.8628979691
 O          0.4237043915       -1.0338838785       -1.4549041852
 C          1.7166401184       -1.5151621456       -1.0704147124
 C          1.5525418482       -2.6160328805       -0.0177576045
 C          2.3051470362       -2.1083949802       -2.3523424266
 C          2.5274953893       -0.3117363886       -0.5713462151
 C          4.0019398265       -0.5573298610       -0.2698835478
 C          4.7006061680        0.7940540664       -0.1176484167
 C          3.8762636971        1.7948829573        0.6475356600
 C          4.5866655075        3.0736543407        0.9786309423
 C          2.6125469813        1.5824119790        0.9850335246
 C          1.8847031252        0.3004874545        0.6773295894
 H         -4.4487843631       -1.8473802583       -2.1854966405
 H         -6.1315718515       -2.3423563264       -2.3677069140
 H         -5.7532073745       -0.6820470483       -1.9261844541
 H         -6.5013010915       -1.9130594468        0.0753001067
 H         -5.3274363740       -3.1884668840       -0.2391889108
 H         -3.4657903617       -1.5906925441        0.1629460567
 H         -4.5153201120       -1.8429090666        1.5505237990
 H         -4.4229761524        0.4272459406        1.6933639262
 H         -5.7336235619        0.3500396244        0.5217690680
 H         -4.0527562793        0.6568397631       -1.3232494086
 H         -4.0976496660        1.9986284870       -0.1743101843
 H         -2.3685088895        1.9502980774        1.7514532201
 H         -0.5576445717        2.2008070689        2.9495175020
 H         -1.9972407446       -0.5098424239       -1.7237854325
 H          1.0358076642       -3.4648876928       -0.4599209480
 H          2.5239848495       -2.9433564121        0.3413255101
 H          0.9606824553       -2.2602600507        0.8217959662
 H          2.5569070064       -1.3185704907       -3.0552258738
 H          1.5622482740       -2.7537429836       -2.8138937904
 H          3.1923554311       -2.6942748049       -2.1336952978
 H          2.4664435230        0.4383852293       -1.3710716507
 H          4.4806133850       -1.1250946785       -1.0684284219
 H          4.0976473965       -1.1271756701        0.6563404168
 H          5.6657764591        0.6623598228        0.3794446801
 H          4.9090454232        1.2107500752       -1.1095301367
 H          4.9639136684        3.5442195993        0.0706561101
 H          5.4404973245        2.8760341925        1.6268804465
 H          3.9216958911        3.7695110547        1.4827952069
 H          2.0672973010        2.3306938895        1.5354757720
 H          2.0361919958       -0.3691456165        1.5378021383
  53
        -68.44487308
 C         -4.8296331463        1.0169069428       -2.6212303150
 C         -5.4366233342        1.2411070108       -1.2411720158
 C         -4.5779948347        0.6756905908       -0.1097114349
 C         -4.5155032565       -0.8493476564       -0.1059633775
 C         -3.7042684270       -1.3871596978        1.0797098378
 C         -2.2650230811       -0.9673716266        0.9896757934
 C         -1.7660116868        0.0519077769        1.7885957879
 C         -0.4492153636        0.4697471662        1.6646071044
 O          0.0514516925        1.4557180139        2.4670462651
 C          0.4023594308       -0.1145398439        0.7251169181
 C         -0.0860957110       -1.1825782283       -0.0273120587
 C         -1.4126640657       -1.5882841647        0.0950658428
 O          0.6761495412       -1.8881135976       -0.9049512696
 C          2.0978284704       -1.7573380917       -0.7916870495
 C          2.5681736376       -2.5438084682        0.4361808319
 C          2.6549782917       -2.3885414386       -2.0683585758
 C          2.4294942456       -0.2578498404       -0.7217881845
 C          3.9183712649        0.0914752601       -0.8216090227
 C          4.2721687304        1.3808578069       -0.0509549546
 C          3.1202672536        2.3451193832        0.0131135932
 C          3.3969506499        3.7874338965       -0.2664660974
 C          1.9299250043        1.8586437674        0.3382636946
 C          1.8118499020        0.3736259253        0.5380178140
 H         -3.8189543947        1.4174606972       -2.6600411443
 H         -4.7887021913       -0.0416080421       -2.8634587225
 H         -5.4265599798        1.5149877973       -3.3822336461
 H         -5.5586695278        2.3153699818       -1.0814766224
 H         -6.4301857958        0.7877340778       -1.2028920298
 H         -4.9916942664        1.0120518620        0.8449505733
 H         -3.5648057676        1.0748960995       -0.1921869266
 H         -4.0554471591       -1.2009915319       -1.0296998200
 H         -5.5301084397       -1.2523357262       -0.0558640312
 H         -4.1412104345       -1.0223149357        2.0115746494
 H         -3.7638299396       -2.4778345620        1.0799242942
 H         -2.4067623350        0.5290879244        2.5192160217
 H         -0.6420436095        1.7566685374        3.0659820120
 H         -1.7529188600       -2.4077728728       -0.5179817603
 H          2.3594614501       -3.6007931992        0.2872685218
 H          3.6352262878       -2.4177977204        0.5935770651
 H          2.0365171604       -2.2154939105        1.3257345336
 H          2.2525151773       -3.3921987114       -2.1777407610
 H          3.7382498768       -2.4417100556       -2.0274117646
 H          2.3573641522       -1.8039739771       -2.9348721811
 H          1.9111121955        0.1965222454       -1.5761916719
 H          4.1820700005        0.2187446769       -1.8723618214
 H          4.5289169483       -0.7227368958       -0.4289241279
 H          4.5429206431        1.1104691044        0.9749752529
 H          5.1453093150        1.8513614923       -0.5046863946
 H          4.1604515874        4.1657465466        0.4133519152
 H          2.4962666380        4.3839941749       -0.1477077792
 H          3.7681281878        3.9108096808       -1.2841874435
 H          1.0486024260        2.4731083944        0.4086015286
 H          2.4103315591        0.0952109407        1.4168055284
  53
        -68.44481953
 C         -4.8743930157       -0.0521487912       -3.3703908239
 C         -5.1335750755        0.3566395857       -1.9254836882
 C         -4.2963100706       -0.4616044462       -0.9456918876
 C         -4.5549911770       -0.0602507679        0.5034180981
 C         -3.7088461247       -0.8731085241        1.4921056493
 C         -2.2423643687       -0.5965457540        1.3206465757
 C         -1.6967230200        0.5769341959        1.8128714786
 C         -0.3451867577        0.8718986537        1.6556126673
 O          0.0814719470        2.0702834526        2.1409219544
 C          0.4892201404       -0.0426988200        1.0211675808
 C         -0.0838113683       -1.1834717727        0.4500546933
 C         -1.4304732451       -1.4706880973        0.6127448617
 O          0.6922273999       -2.0679138085       -0.2402095746
 C          1.7137661259       -1.5586134688       -1.1202998822
 C          2.8728702178       -2.5507842330       -1.0054927027
 C          1.1388331351       -1.5933669941       -2.5420659083
 C          2.1152855286       -0.1156734336       -0.7485707294
 C          3.4979318996        0.3222881337       -1.2170254378
 C          3.6791485061        1.8016447809       -0.8795859281
 C          3.4800136596        2.0339003260        0.5928202805
 C          4.2117077811        3.1987591970        1.1842091305
 C          2.7140657266        1.2280031595        1.3197177921
 C          1.9799157752        0.0419287758        0.7762963581
 H         -5.4761211217        0.5438409066       -4.0528881792
 H         -3.8257972242        0.0894547524       -3.6234858850
 H         -5.1225958842       -1.1007391191       -3.5203762984
 H         -4.8997694138        1.4164984128       -1.8006404902
 H         -6.1934925050        0.2231609822       -1.6956341407
 H         -3.2368678794       -0.3231831976       -1.1715260025
 H         -4.5272616947       -1.5219793497       -1.0736576924
 H         -5.6126071645       -0.2075880672        0.7356005050
 H         -4.3291909880        1.0006722644        0.6293379154
 H         -4.0092207815       -0.6105208710        2.5087746446
 H         -3.9037342534       -1.9363578060        1.3415554076
 H         -2.3095691031        1.2965198331        2.3327154947
 H          1.0074992024        2.2050005934        1.8902193420
 H         -1.8260262206       -2.3770778739        0.1826671811
 H          3.6024031380       -2.3859501373       -1.7921161117
 H          3.3611309784       -2.4668292112       -0.0379067663
 H          2.4746013639       -3.5579828647       -1.0964798828
 H          0.2364338186       -0.9872275584       -2.5922124275
 H          0.8814021088       -2.6145878608       -2.8101199878
 H          1.8629101071       -1.2105970143       -3.2561952382
 H          1.3848920727        0.5600476907       -1.2125476411
 H          3.6042785418        0.1692284135       -2.2922658120
 H          4.2708000559       -0.2537651125       -0.7068937983
 H          4.6804057474        2.1311816135       -1.1656931854
 H          2.9639364550        2.4032201583       -1.4498553279
 H          3.9533850141        4.1134317227        0.6509382639
 H          5.2880712820        3.0555921068        1.0902005699
 H          3.9697016297        3.3261868335        2.2364804437
 H          2.6775696630        1.3447284774        2.3971770939
 H          2.4188592855       -0.8491435361        1.2544681425
  53
        -68.44481884
 C         -5.0535269868        2.0661793925       -1.5786846510
 C         -5.3101623423        0.5938344702       -1.8789616244
 C         -4.3734040007       -0.3462230504       -1.1199838619
 C         -4.6246444809       -0.3600195898        0.3853075513
 C         -3.7086010034       -1.3555293152        1.1089930011
 C         -2.2661932123       -0.9529155545        0.9954639834
 C         -1.7705750945        0.0849786166        1.7747017714
 C         -0.4553024312        0.5021919702        1.6463511289
 O          0.0428474469        1.5043556320        2.4301206488
 C          0.4009733739       -0.1019463907        0.7225243689
 C         -0.0833125319       -1.1859261707       -0.0079080874
 C         -1.4112256811       -1.5908509098        0.1175424878
 O          0.6818705968       -1.9088462100       -0.8684951266
 C          2.1031207660       -1.7746980698       -0.7538939343
 C          2.5703064729       -2.5359943954        0.4909310362
 C          2.6643171927       -2.4310600631       -2.0160112834
 C          2.4337811891       -0.2738919043       -0.7130602860
 C          3.9229341596        0.0740862223       -0.8143989463
 C          4.2739880097        1.3770779437       -0.0657764406
 C          3.1225517625        2.3431690077       -0.0258649077
 C          3.4014570638        3.7796122190       -0.3321419204
 C          1.9304026851        1.8635365838        0.3029016007
 C          1.8111085163        0.3827639038        0.5313732318
 H         -4.0114433326        2.3146473758       -1.7680995159
 H         -5.6772442230        2.6954289055       -2.2099956422
 H         -5.2800809913        2.2997852540       -0.5416703619
 H         -6.3466318856        0.3484229364       -1.6343615736
 H         -5.1760561048        0.4262171842       -2.9503181974
 H         -3.3379725597       -0.0549860928       -1.3082666922
 H         -4.5065667970       -1.3601683283       -1.5055376775
 H         -5.6662268965       -0.6309803640        0.5755518747
 H         -4.4545930596        0.6359135806        0.7963819503
 H         -3.9940644839       -1.3942155645        2.1632589791
 H         -3.8485359941       -2.3497939233        0.6816945068
 H         -2.4144292442        0.5729512726        2.4956258161
 H         -0.6522986490        1.8173633509        3.0208831830
 H         -1.7480545263       -2.4211460841       -0.4824972480
 H          2.3621439679       -3.5958002904        0.3628061097
 H          3.6369093224       -2.4065902805        0.6487145159
 H          2.0360850978       -2.1899413508        1.3721976026
 H          3.7475276389       -2.4823419665       -1.9710709831
 H          2.3685097934       -1.8644035843       -2.8949461364
 H          2.2629978588       -3.4370739949       -2.1061497747
 H          1.9184171042        0.1627354326       -1.5784679153
 H          4.1899054031        0.1828713071       -1.8664050590
 H          4.5325340127       -0.7328415862       -0.4055202253
 H          4.5390455826        1.1252931536        0.9663627391
 H          5.1500062907        1.8382704251       -0.5234995459
 H          4.1611700078        4.1709096806        0.3445863035
 H          2.5004035712        4.3787348428       -0.2303327948
 H          3.7786507754        3.8829820484       -1.3498726954
 H          1.0488890734        2.4793841422        0.3566723222
 H          2.4059719173        0.1217830910        1.4179527324
  53
        -68.44480152
 C         -5.3211775674       -1.1722156660        2.3636506304
 C         -5.4666915721       -1.8693799411        1.0158166205
 C         -4.4582742998       -1.3818360507       -0.0247419533
 C         -4.6968576200        0.0595400466       -0.4659477627
 C         -3.7094968334        0.4966254216       -1.5560246874
 C         -2.2965934231        0.5071071599       -1.0464371763
 C         -1.8674355203        1.5268872478       -0.2063478970
 C         -0.5719268607        1.5421292720        0.2856040958
 O         -0.1537064628        2.5312888063        1.1302820771
 C          0.3376313759        0.5398393564       -0.0603581025
 C         -0.1185193210       -0.5144849163       -0.8499936272
 C         -1.4194050547       -0.5160664227       -1.3505076766
 O          0.6470948431       -1.5893567328       -1.1772314953
 C          1.8354847733       -1.8075512376       -0.4084423152
 C          1.4386369753       -2.3624078384        0.9635228912
 C          2.6261825852       -2.8552287121       -1.1931815319
 C          2.5993328167       -0.4757064662       -0.3320821008
 C          4.0094365764       -0.5598731234        0.2622260725
 C          4.4232355033        0.7425659942        0.9791711288
 C          3.7625352204        1.9571959439        0.3883870060
 C          4.6090551790        3.1634795226        0.1369477336
 C          2.4599410872        1.8912873802        0.1472972279
 C          1.7653054497        0.5842119037        0.4085296077
 H         -5.9926033708       -1.6179556459        3.0943770855
 H         -4.3015117979       -1.2673419579        2.7309088047
 H         -5.5618392774       -0.1151866321        2.2860105913
 H         -5.3252110555       -2.9433050606        1.1595139519
 H         -6.4804447978       -1.7185955289        0.6366908864
 H         -4.5193909904       -2.0303297256       -0.9022748990
 H         -3.4482874801       -1.4700394985        0.3809574470
 H         -4.5940005742        0.7279653094        0.3898153552
 H         -5.7157293778        0.1559609270       -0.8493299811
 H         -3.7882582271       -0.1826744664       -2.4063409835
 H         -3.9808850680        1.4995922947       -1.8947591539
 H         -2.5482814965        2.3233010311        0.0666686175
 H         -0.8821111168        3.1450348819        1.2817980282
 H         -1.7224731038       -1.3412410475       -1.9751124953
 H          0.9607509114       -3.3309073151        0.8345371097
 H          2.3096467230       -2.4852384140        1.6003266975
 H          0.7315160462       -1.6977635362        1.4534389139
 H          2.9445683132       -2.4449052528       -2.1478356351
 H          1.9901715894       -3.7153861294       -1.3852170388
 H          3.4985353598       -3.1752885188       -0.6323045593
 H          2.6830498032       -0.1270033435       -1.3696348988
 H          4.7191848163       -0.7679981841       -0.5394769605
 H          4.0745621673       -1.3818830973        0.9763992092
 H          4.1227810144        0.6726083174        2.0297771883
 H          5.5089612236        0.8440650010        0.9572942779
 H          5.3928876544        2.9315773319       -0.5845371509
 H          5.0919853233        3.4867590249        1.0591703032
 H          4.0090148252        3.9830540768       -0.2496447484
 H          1.9033419097        2.7101609829       -0.2755800952
 H          1.7985460424        0.3856430878        1.4890076479
  53
        -68.44480142
 C         -5.2878068495       -1.1667593682        2.3788326333
 C         -5.4556113389       -1.8645525802        1.0339132631
 C         -4.4573633323       -1.3850123244       -0.0201002164
 C         -4.6970824436        0.0547222482       -0.4660559265
 C         -3.7124242998        0.4876331383       -1.5602722992
 C         -2.2988379447        0.5022206326       -1.0526939491
 C         -1.8705443453        1.5255434489       -0.2164812796
 C         -0.5752717862        1.5434576478        0.2759293480
 O         -0.1581217548        2.5359989770        1.1171342848
 C          0.3350079437        0.5403546798       -0.0657380403
 C         -0.1198819422       -0.5167414097       -0.8523742926
 C         -1.4206039065       -0.5210913557       -1.3533395629
 O          0.6467464416       -1.5920435578       -1.1758027702
 C          1.8340170394       -1.8077203571       -0.4045805763
 C          1.4351355016       -2.3589508297        0.9682496451
 C          2.6262426043       -2.8573665712       -1.1852128543
 C          2.5975408437       -0.4755341565       -0.3307575751
 C          4.0065080890       -0.5577016915        0.2665895918
 C          4.4182509229        0.7463658345        0.9817383126
 C          3.7590232512        1.9593922049        0.3860333382
 C          4.6060930194        3.1651082523        0.1337542089
 C          2.4570319153        1.8927096926        0.1418701269
 C          1.7619328706        0.5863306501        0.4052783928
 H         -4.2646375507       -1.2702246583        2.7337263480
 H         -5.5200741288       -0.1077673785        2.3025345117
 H         -5.9541267697       -1.6054952512        3.1183721532
 H         -5.3193163321       -2.9391627717        1.1773383506
 H         -6.4731049022       -1.7075750508        0.6675958570
 H         -4.5293247369       -2.0376626340       -0.8937362137
 H         -3.4433793654       -1.4736930928        0.3753931142
 H         -4.5916529820        0.7264025149        0.3868276370
 H         -5.7170780880        0.1498240686       -0.8467565605
 H         -3.7919241798       -0.1960238152       -2.4070093173
 H         -3.9856419506        1.4885778145       -1.9034677193
 H         -2.5520384981        2.3224479810        0.0534221447
 H         -0.8869632203        3.1498381231        1.2658801372
 H         -1.7229717850       -1.3489127066       -1.9747978940
 H          0.7271961530       -1.6930067199        1.4551689611
 H          0.9575296578       -3.3278165822        0.8411272449
 H          2.3051227158       -2.4800088499        1.6067727695
 H          3.4978375517       -3.1756877899       -0.6221213779
 H          2.9460305222       -2.4496194973       -2.1405443812
 H          1.9907696320       -3.7182718665       -1.3758959167
 H          2.6831309424       -0.1298185414       -1.3691652823
 H          4.7179717818       -0.7671936215       -0.5332226999
 H          4.0706157087       -1.3781351786        0.9826593303
 H          4.1148089769        0.6787791290        2.0316535350
 H          5.5040209222        0.8479506582        0.9626905556
 H          4.0071654085        3.9833612750       -0.2573273293
 H          5.3924243807        2.9312107431       -0.5843601653
 H          5.0858072586        3.4913193724        1.0566483746
 H          1.9013161441        2.7103949311       -0.2844267712
 H          1.7931826564        0.3907527670        1.4863844755
  53
        -68.44479171
 C         -6.6314563666        0.9927018223       -1.7243355245
 C         -5.1397187952        1.2958071262       -1.6409177569
 C         -4.4837735636        0.7585556233       -0.3687800645
 C         -4.4378797514       -0.7661662194       -0.3121810896
 C         -3.6801380307       -1.2732384408        0.9219733865
 C         -2.2301072114       -0.8850195700        0.8763206060
 C         -1.7423883217        0.1522563167        1.6590273237
 C         -0.4130255161        0.5392046160        1.5751615388
 O          0.0753223630        1.5433467589        2.3624761244
 C          0.4633320715       -0.0952160814        0.6927386319
 C         -0.0165079850       -1.1802905767       -0.0407299102
 C         -1.3552864999       -1.5550249988        0.0408183085
 O          0.7655368000       -1.9321283007       -0.8604009310
 C          2.1840271469       -1.8234382294       -0.6955804904
 C          2.5905493801       -2.5735793098        0.5770342302
 C          2.7778342167       -2.5105200145       -1.9260745603
 C          2.5424188219       -0.3287783816       -0.6656050097
 C          4.0407150068       -0.0107788019       -0.7187658777
 C          4.3900188748        1.2978785778        0.0208003478
 C          3.2564175695        2.2855679924        0.0050241553
 C          3.5729804353        3.7114713225       -0.3136538375
 C          2.0445749500        1.8335379911        0.2989086040
 C          1.8887904861        0.3590645791        0.5456140558
 H         -6.8100339374       -0.0770697497       -1.7934438226
 H         -7.1466978318        1.3723240499       -0.8443213464
 H         -7.0640056898        1.4645633937       -2.6038891905
 H         -4.6337287885        0.8720491612       -2.5112895416
 H         -4.9991627031        2.3790906811       -1.6736002017
 H         -5.0252612919        1.1372716061        0.5019800762
 H         -3.4605087450        1.1376835017       -0.3163575593
 H         -3.9461816364       -1.1437545315       -1.2109146225
 H         -5.4526134333       -1.1667739345       -0.2860983336
 H         -4.1464464135       -0.8661935402        1.8215102259
 H         -3.7611684724       -2.3618952727        0.9595507075
 H         -2.4020020261        0.6676396637        2.3456740435
 H         -0.6353206582        1.8792310804        2.9214077273
 H         -1.6879253471       -2.3891110375       -0.5565345109
 H          3.6529489755       -2.4615571764        0.7720734799
 H          2.0312060021       -2.2036370539        1.4326379451
 H          2.3669648166       -3.6312427838        0.4574691314
 H          2.5255695529       -1.9523026572       -2.8237869268
 H          2.3602282741       -3.5099476457       -2.0156324799
 H          3.8574579808       -2.5819399629       -1.8405784261
 H          2.0666836903        0.1039066823       -1.5553288356
 H          4.3472080664        0.0751253092       -1.7620733639
 H          4.6194295140       -0.8220611584       -0.2750858977
 H          4.6142648237        1.0584705225        1.0654617047
 H          5.2899620972        1.7353119164       -0.4132091458
 H          4.3165758321        4.0994977309        0.3825675790
 H          2.6805323732        4.3286846342       -0.2521607060
 H          3.9863946266        3.7913109491       -1.3193544854
 H          1.1736645352        2.4664413598        0.3118035037
 H          2.4464222727        0.1009992478        1.4568861708
  53
        -68.44478516
 C         -7.2483781391        1.6748000132       -0.1279504073
 C         -7.1235672792        0.1984463643        0.2308540389
 C         -5.9802858706       -0.5063138751       -0.5004443922
 C         -4.5969362179       -0.0294979980       -0.0615179709
 C         -3.4952332763       -0.8212126206       -0.7608437794
 C         -2.0861755792       -0.4963670634       -0.3377926763
 C         -1.7591084785        0.6004378742        0.4440506010
 C         -0.4383821434        0.8727408159        0.7772721788
 O         -0.1512783823        1.9381239473        1.5862240182
 C          0.6065239251        0.0695926961        0.3177096046
 C          0.2623252197       -1.0780744968       -0.4010079471
 C         -1.0626596977       -1.3389462034       -0.7369508826
 O          1.1607127120       -2.0110087762       -0.8129218655
 C          2.4713324041       -1.9804641328       -0.2362384205
 C          2.4166911381       -2.5780933410        1.1732911447
 C          3.3143648634       -2.8769012429       -1.1458728192
 C          2.9538335487       -0.5237850363       -0.2614676759
 C          4.4024012053       -0.2752608447        0.1449771534
 C          4.7850343608        1.1488594605       -0.2586913193
 C          3.6905407746        2.1464977626        0.0124104016
 C          4.0799878995        3.5801268680       -0.1940509000
 C          2.4674463100        1.7940050712        0.3810217206
 C          2.0586394610        0.3629455713        0.6099143799
 H         -8.1225832092        2.1075031569        0.3534852385
 H         -6.3741172073        2.2327575272        0.1968010392
 H         -7.3547192702        1.7967765347       -1.2038991961
 H         -6.9776418544        0.0977794793        1.3089839655
 H         -8.0600739814       -0.3041716667       -0.0226778317
 H         -6.0920368301       -0.3504505957       -1.5762379641
 H         -6.0569289449       -1.5805826805       -0.3136745279
 H         -4.5032474743       -0.1521620190        1.0201190101
 H         -4.4889769874        1.0291993166       -0.3000006648
 H         -3.6637045894       -1.8887547776       -0.5929410164
 H         -3.5719848452       -0.6555059979       -1.8404509783
 H         -2.5275415152        1.2637961870        0.8147159382
 H         -0.9759150608        2.3714034608        1.8371487589
 H         -1.2717303843       -2.2270842482       -1.3124619618
 H          1.6694056953       -2.0699880411        1.7774237417
 H          2.1423177453       -3.6286504401        1.1098313299
 H          3.3858323860       -2.4957395330        1.6567701724
 H          4.2713311692       -3.1017594207       -0.6855391065
 H          3.4786510297       -2.3955589088       -2.1064003647
 H          2.7782751207       -3.8069684381       -1.3160183766
 H          2.8322831002       -0.1895930414       -1.3004330406
 H          5.0767723821       -0.9828280424       -0.3384790066
 H          4.5059524996       -0.3913519823        1.2255206863
 H          5.6941086507        1.4551401981        0.2664780704
 H          5.0135896190        1.1753720113       -1.3301330692
 H          4.8757749754        3.8599694408        0.4963956077
 H          3.2326404519        4.2410138671       -0.0333800554
 H          4.4544000240        3.7295432745       -1.2068173158
 H          1.7204309244        2.5476427634        0.5659841360
 H          2.2419671517        0.1430153052        1.6727937640
  53
        -68.44476267
 C         -5.2666117300        1.7197337141       -2.5170012329
 C         -5.1795498069        0.3013465431       -1.9670752854
 C         -4.4714147882        0.2601081675       -0.6152514716
 C         -4.3848650399       -1.1570082713       -0.0565028042
 C         -3.6669354057       -1.2048460993        1.2985602274
 C         -2.2236759518       -0.8074776619        1.1744388825
 C         -1.8023619001        0.4614203333        1.5299032316
 C         -0.4684961158        0.8450990583        1.4063944383
 O         -0.1680516784        2.1297455086        1.7428475572
 C          0.4722965913       -0.0717769268        0.9509184451
 C          0.0256674802       -1.3228466001        0.5109145023
 C         -1.3026363183       -1.6961876130        0.6365968534
 O          0.9096328787       -2.2255132788       -0.0032596899
 C          1.9560049409       -1.7589955236       -0.8777588707
 C          3.1736680469       -2.6238793531       -0.5449872503
 C          1.4971592692       -2.0395008360       -2.3144196522
 C          2.2193122757       -0.2500570512       -0.6925092030
 C          3.5940303157        0.2355094332       -1.1366934001
 C          3.6382051522        1.7571981923       -1.0037611492
 C          3.3205121229        2.1711930557        0.4066238087
 C          3.9191799288        3.4637115432        0.8680754610
 C          2.5693879263        1.4103503783        1.1949353056
 C          1.9658850032        0.1034516247        0.7836360894
 H         -4.2711865057        2.1399626420       -2.6435359820
 H         -5.7692126263        1.7285266171       -3.4816567838
 H         -5.8220725964        2.3594760955       -1.8345686672
 H         -6.1868567510       -0.1089303582       -1.8612154270
 H         -4.6390845860       -0.3303321471       -2.6760689333
 H         -5.0107257212        0.8946410645        0.0921026915
 H         -3.4631125270        0.6655583472       -0.7217839325
 H         -3.8510027195       -1.7928129140       -0.7660087271
 H         -5.3934990542       -1.5608302248        0.0611553401
 H         -4.1748174941       -0.5374248966        1.9967815983
 H         -3.7274532040       -2.2221125538        1.6918057654
 H         -2.4991968337        1.1911121150        1.9110634912
 H          0.7592475440        2.3082292767        1.5266252585
 H         -1.6005811753       -2.6820455126        0.3163215941
 H          3.9465648591       -2.5096206285       -1.2984909617
 H          3.5797397643       -2.3647473928        0.4295148955
 H          2.8594641398       -3.6639289567       -0.5141341426
 H          0.5592152882       -1.5241995120       -2.5115690564
 H          1.3374263580       -3.1061507526       -2.4477619412
 H          2.2443382026       -1.7007620503       -3.0269913805
 H          1.4738002029        0.2904464050       -1.2903211639
 H          3.7868794928       -0.0542837579       -2.1709328748
 H          4.3707133713       -0.1971298839       -0.5050294029
 H          4.6288225453        2.1284837135       -1.2753975373
 H          2.9204252335        2.2115843607       -1.6943597080
 H          3.6291463793        4.2717247558        0.1966996701
 H          5.0072159413        3.4009803907        0.8571029096
 H          3.5965276136        3.7125863543        1.8760685347
 H          2.4500238958        1.6697690836        2.2410394296
 H          2.4358896604       -0.6732339452        1.4090525568
  53
        -68.44475916
 C         -6.5970840053        0.8688286973       -1.8323591030
 C         -5.0873164081        1.0811245891       -1.8356652474
 C         -4.3174889682       -0.0402375843       -1.1376719571
 C         -4.5644084272       -0.0943066532        0.3675771785
 C         -3.6932788159       -1.1549352317        1.0541355413
 C         -2.2333819478       -0.8151015354        0.9627862543
 C         -1.6956557752        0.1681612821        1.7838186030
 C         -0.3617682012        0.5285857818        1.6779720885
 O          0.1769598952        1.4760302553        2.5018501147
 C          0.4718127940       -0.0788088708        0.7357110842
 C         -0.0565677267       -1.1112477468       -0.0374284929
 C         -1.4025775013       -1.4587589451        0.0658946199
 O          0.6804735905       -1.8361213410       -0.9205860142
 C          2.1056538696       -1.7701391333       -0.7952682668
 C          2.5313191832       -2.5968566215        0.4224207387
 C          2.6442206221       -2.4040137754       -2.0785560645
 C          2.5025688689       -0.2881801191       -0.6974876254
 C          4.0061335362       -0.0033201672       -0.7804496356
 C          4.4101075733        1.2556181076        0.0154183997
 C          3.3016343275        2.2690492572        0.0865537605
 C          3.6441155197        3.7019641853       -0.1673272963
 C          2.0881829961        1.8305871014        0.3942214379
 C          1.9030655728        0.3491673670        0.5681368600
 H         -6.9942764699        0.8959678145       -0.8209968408
 H         -7.0897104629        1.6484382122       -2.4094004643
 H         -6.8461062020       -0.0934099337       -2.2748591861
 H         -4.7439460053        1.1450768900       -2.8709761295
 H         -4.8535759106        2.0327609641       -1.3524930068
 H         -3.2488285199        0.1073446912       -1.3089690740
 H         -4.5953354128       -0.9982920398       -1.5833852142
 H         -5.6127645741       -0.3258222302        0.5635009938
 H         -4.3475263768        0.8841215162        0.8022451182
 H         -3.9853118455       -1.2225451803        2.1051654936
 H         -3.8757896420       -2.1241138771        0.5872316270
 H         -2.3213881696        0.6576134176        2.5195336554
 H         -0.5069086749        1.7983959459        3.1006980399
 H         -1.7730612538       -2.2499439500       -0.5664006839
 H          2.2775084304       -3.6409747777        0.2540362899
 H          3.6016118644       -2.5205867030        0.5895198586
 H          2.0075733739       -2.2602567698        1.3135881396
 H          2.1987519925       -3.3869295934       -2.2076700538
 H          3.7237522322       -2.5056242094       -2.0309468266
 H          2.3792909575       -1.7925385101       -2.9370685029
 H          2.0116367568        0.2027259648       -1.5478758672
 H          4.2835243299        0.1305401749       -1.8268458627
 H          4.5771166672       -0.8504369262       -0.3979561500
 H          4.6592843539        0.9559314462        1.0386522973
 H          5.3074134573        1.6941453385       -0.4228775220
 H          4.4175728829        4.0353684891        0.5246278194
 H          2.7695974322        4.3358146412       -0.0463034620
 H          4.0292755403        3.8248785030       -1.1798668151
 H          1.2340467645        2.4820224036        0.4672940593
 H          2.4811637014        0.0299196934        1.4466548234
  53
        -68.44475526
 C         -6.7966657935       -1.8196488520        0.7865326993
 C         -5.3069639268       -1.8375890554        1.1103106623
 C         -4.4386310690       -1.2583078276       -0.0067627517
 C         -4.6379331485        0.2413610995       -0.2088956480
 C         -3.6722672260        0.8139809730       -1.2554159213
 C         -2.2431401518        0.7220396675       -0.8029387932
 C         -1.7589972598        1.6030609785        0.1558397649
 C         -0.4475279901        1.5211619022        0.5961159505
 O          0.0250067351        2.3718025714        1.5552022097
 C          0.4230267216        0.5587118561        0.0789604301
 C         -0.0868900212       -0.3625655435       -0.8344311115
 C         -1.4035227621       -0.2653645412       -1.2816368435
 O          0.6387501451       -1.3959858103       -1.3384501390
 C          1.8450011841       -1.7477711407       -0.6512563512
 C          1.4775816144       -2.4836121916        0.6414807509
 C          2.5813742775       -2.6902124517       -1.6042652439
 C          2.6467627704       -0.4577087617       -0.4144843566
 C          4.0721940931       -0.6571361267        0.1119501656
 C          4.5436602694        0.5202431682        0.9911837676
 C          3.8979385877        1.8210954159        0.6017574940
 C          4.7685699012        3.0316376223        0.4944777561
 C          2.5870744889        1.8193823848        0.3995670997
 C          1.8658345757        0.5043324326        0.4977222633
 H         -6.9880178270       -2.3399160390       -0.1496256839
 H         -7.3605649503       -2.3144315592        1.5743387258
 H         -7.1656491838       -0.8013229638        0.6963421278
 H         -5.1289781826       -1.2776728954        2.0315106157
 H         -4.9989329994       -2.8706701739        1.2888608113
 H         -4.6588501248       -1.7806291513       -0.9407807692
 H         -3.3887825292       -1.4392768769        0.2346181802
 H         -4.4822650494        0.7551786289        0.7424601243
 H         -5.6603722203        0.4386520906       -0.5354460272
 H         -3.7967279172        0.2689541778       -2.1924581241
 H         -3.9289204332        1.8612124868       -1.4336399681
 H         -2.4093618423        2.3665943674        0.5637609207
 H         -0.6814764005        2.9731828588        1.8186317239
 H         -1.7485929002       -0.9859023813       -2.0060639925
 H          0.8051085377       -1.8799646956        1.2457763048
 H          0.9692677166       -3.4127080880        0.3936913525
 H          2.3649985323       -2.7158219600        1.2227156239
 H          1.9165864804       -3.5000754300       -1.8931124786
 H          3.4625367349       -3.1059467354       -1.1260209943
 H          2.8795307375       -2.1552702857       -2.5020755853
 H          2.7068318420        0.0331116723       -1.3946004729
 H          4.7503077344       -0.7647364314       -0.7356334832
 H          4.1376247108       -1.5737368842        0.6997961733
 H          4.2746141642        0.3080921094        2.0311691425
 H          5.6305291445        0.5994209465        0.9458563675
 H          4.1792074604        3.9110843612        0.2486802982
 H          5.5231299121        2.8872545206       -0.2791482117
 H          5.2883790915        3.2095676886        1.4359703609
 H          2.0397697603        2.7023989226        0.1168885976
 H          1.9282631207        0.1533197345        1.5373689502
  53
        -68.44473635
 C         -6.8725457689       -1.5032902452        1.0116346657
 C         -5.4097739884       -1.3915307695        1.4262327652
 C         -4.6556587830       -0.2840479217        0.6899650654
 C         -4.4818586179       -0.5620728172       -0.8008495103
 C         -3.6264394440        0.5089143137       -1.4903831185
 C         -2.2163762591        0.5142201474       -0.9727786675
 C         -1.7814101334        1.4961539503       -0.0935138210
 C         -0.4810188316        1.4902044155        0.3891055756
 O         -0.0572194797        2.4427230806        1.2721866022
 C          0.4246519998        0.5033283263       -0.0044983108
 C         -0.0383675426       -0.5179837548       -0.8340370804
 C         -1.3409884224       -0.4964179134       -1.3258687932
 O          0.7247616107       -1.5783868206       -1.2107368204
 C          1.9178377367       -1.8283823480       -0.4590323083
 C          1.5297025909       -2.4371521810        0.8924076023
 C          2.7020774507       -2.8446208942       -1.2902307687
 C          2.6835942704       -0.5012972194       -0.3348201309
 C          4.0979459972       -0.6100988986        0.2450342643
 C          4.5194611393        0.6635734803        1.0077481895
 C          3.8540066191        1.9004436064        0.4708485641
 C          4.6990012398        3.1154089561        0.2591243387
 C          2.5492037519        1.8445068525        0.2393363212
 C          1.8560597255        0.5282008585        0.4543422237
 H         -7.3789569337       -0.5490969545        1.1420593098
 H         -6.9622416088       -1.8015922258       -0.0295419976
 H         -7.3818871148       -2.2467987578        1.6208231748
 H         -5.3631783596       -1.1897898883        2.4992987694
 H         -4.9082111751       -2.3455603429        1.2487634959
 H         -3.6658080628       -0.1765188924        1.1397059701
 H         -5.1870255727        0.6618860287        0.8226139234
 H         -5.4578478281       -0.5938244506       -1.2879239851
 H         -4.0057398145       -1.5359308579       -0.9304908360
 H         -3.6135813743        0.3083187866       -2.5641060714
 H         -4.0830866761        1.4881956977       -1.3331204271
 H         -2.4598473916        2.2790934031        0.2211109165
 H         -0.7845258449        3.0495266548        1.4539991292
 H         -1.6487958670       -1.2914442973       -1.9864208814
 H          1.0519566026       -3.4004160311        0.7285469931
 H          2.4046923646       -2.5838723223        1.5186173783
 H          0.8248024269       -1.7931870523        1.4122085549
 H          3.0147431574       -2.3968457771       -2.2298230891
 H          2.0637904819       -3.6958407728       -1.5122529682
 H          3.5776405971       -3.1876912030       -0.7482895926
 H          2.7599393658       -0.1110214664       -1.3580568796
 H          4.8012042228       -0.7887860143       -0.5693942050
 H          4.1669283168       -1.4587025025        0.9270219717
 H          4.2289934541        0.5532054463        2.0576896386
 H          5.6049953232        0.7655727866        0.9794488292
 H          5.4761922148        2.9114930291       -0.4778410895
 H          5.1903765466        3.4024438019        1.1888492834
 H          4.0960629672        3.9495664833       -0.0899374610
 H          1.9892267349        2.6796841675       -0.1455322275
 H          1.8978493045        0.2867384277        1.5257143953
  53
        -68.44473899
 C         -6.8875240689       -1.4334046095        1.0530812343
 C         -5.4229911355       -1.3271418619        1.4629263022
 C         -4.6556703733       -0.2534666084        0.6910109517
 C         -4.4805962860       -0.5841241238       -0.7888715580
 C         -3.6222101212        0.4601153705       -1.5150809778
 C         -2.2130279195        0.4801922727       -0.9958210461
 C         -1.7846423056        1.4777775271       -0.1310286032
 C         -0.4862467999        1.4838170553        0.3567892730
 O         -0.0695781638        2.4511170344        1.2271150038
 C          0.4245437795        0.4944406706       -0.0183658062
 C         -0.0312716644       -0.5406907674       -0.8345887983
 C         -1.3326260954       -0.5323088064       -1.3303619576
 O          0.7378537910       -1.6027989717       -1.1939272359
 C          1.9293079180       -1.8375563140       -0.4347515259
 C          1.5386370301       -2.4307929021        0.9228796281
 C          2.7212950713       -2.8607258908       -1.2500726150
 C          2.6889875692       -0.5057137291       -0.3247145786
 C          4.1010403839       -0.6011526801        0.2632145918
 C          4.5127827179        0.6831267928        1.0133382590
 C          3.8462275359        1.9106993338        0.4568599088
 C          4.6880042313        3.1259805628        0.2345509976
 C          2.5430413862        1.8468369932        0.2183993755
 C          1.8536470995        0.5308544856        0.4467968793
 H         -6.9822977810       -1.7629382928        0.0218119429
 H         -7.4053989952       -2.1509776105        1.6857011493
 H         -7.3816226937       -0.4692008572        1.1539006063
 H         -5.3728975226       -1.0914936192        2.5289324435
 H         -4.9337308569       -2.2927222210        1.3159196434
 H         -3.6660877435       -0.1402879127        1.1399147159
 H         -5.1781675104        0.7016109529        0.7894452608
 H         -5.4560586371       -0.6311009610       -1.2757543847
 H         -4.0062883242       -1.5628621160       -0.8835354609
 H         -3.6087073100        0.2217659273       -2.5809536229
 H         -4.0770106922        1.4451709621       -1.3926103620
 H         -2.4669486130        2.2633305316        0.1684057717
 H         -0.7999265630        3.0577624593        1.3968607605
 H         -1.6355041600       -1.3389753268       -1.9790512928
 H          2.4116777225       -2.5652705095        1.5545389860
 H          0.8284960271       -1.7836317664        1.4314674970
 H          1.0661311626       -3.3983211121        0.7695908686
 H          2.0877411367       -3.7175192214       -1.4639955558
 H          3.5962670161       -3.1931377073       -0.7005170773
 H          3.0358187101       -2.4234080625       -2.1939699550
 H          2.7685796736       -0.1288846096       -1.3527401794
 H          4.8090826979       -0.7857274832       -0.5456924218
 H          4.1707025338       -1.4415290005        0.9552304736
 H          4.2156669691        0.5842724849        2.0625676864
 H          5.5980914135        0.7888340976        0.9910289355
 H          4.0840703646        3.9532024960       -0.1289952811
 H          5.4704123391        2.9154784255       -0.4950229738
 H          5.1725899881        3.4268840538        1.1634541983
 H          1.9822086497        2.6748328223       -0.1806777577
 H          1.8910242203        0.3033679347        1.5214017287
  53
        -68.44470706
 C         -6.0574750197        1.3302738022        0.3825310314
 C         -5.6482996173        1.2709278990       -1.0840043916
 C         -4.3093252025        0.5734016699       -1.3325842752
 C         -4.2992545894       -0.9218904786       -0.9913386031
 C         -3.7375346372       -1.2380297548        0.4026038360
 C         -2.2915667230       -0.8482984618        0.5115831110
 C         -1.9029634315        0.2636958328        1.2441856019
 C         -0.5717150931        0.6512789046        1.3040710175
 O         -0.2084904162        1.7269041331        2.0673846810
 C          0.4146460227       -0.0528099145        0.6093742150
 C          0.0262733963       -1.2184673909       -0.0556526580
 C         -1.3133801113       -1.5934473159       -0.1191695195
 O          0.8950503051       -2.0640336666       -0.6698859563
 C          2.2890013224       -1.9270493114       -0.3712961245
 C          2.5737129040       -2.5416673496        1.0027703355
 C          2.9983069364       -2.7382070594       -1.4578251354
 C          2.6344853209       -0.4340823819       -0.4537880485
 C          4.1099425530       -0.0655642551       -0.3420034978
 C          4.2836616520        1.3905448203       -0.7746493693
 C          3.1877811368        2.2869994239       -0.2626686032
 C          3.4068136267        3.7507024662       -0.5058151565
 C          2.0984385760        1.8265022502        0.3351342435
 C          1.8661708452        0.3632811688        0.6048412137
 H         -6.2636656264        0.3364396557        0.7707632146
 H         -5.2690591703        1.7837864043        0.9795841448
 H         -6.9586446086        1.9294806126        0.4973614337
 H         -6.4290182670        0.7606499410       -1.6537088604
 H         -5.5772529806        2.2915879101       -1.4691997049
 H         -3.5236013314        1.0775254913       -0.7672025964
 H         -4.0693008731        0.6932525845       -2.3915568274
 H         -3.6847975978       -1.4496384214       -1.7230095076
 H         -5.3136037867       -1.3197346812       -1.0667035805
 H         -4.3151533696       -0.7183273640        1.1662141465
 H         -3.8342757835       -2.3127916690        0.5757038591
 H         -2.6420890680        0.8370851585        1.7903367523
 H         -0.9928718610        2.0801660682        2.5038782210
 H         -1.5623153530       -2.4918603492       -0.6614412898
 H          2.3781707410       -3.6110275322        0.9677794181
 H          3.6116462314       -2.3823773974        1.2804567085
 H          1.9280765044       -2.1051451863        1.7605711631
 H          4.0447574902       -2.8835433210       -1.2087549496
 H          2.9211012381       -2.2352053467       -2.4181838563
 H          2.5179355860       -3.7097070455       -1.5403333822
 H          2.2764959427       -0.1011418607       -1.4371068200
 H          4.7275436489       -0.7070146498       -0.9715069667
 H          4.4408710476       -0.1839549843        0.6915515339
 H          5.2515064241        1.7690201617       -0.4340259066
 H          4.2881381554        1.4478398633       -1.8690164607
 H          4.2996204598        4.0923439966        0.0181145268
 H          2.5575015386        4.3343059991       -0.1613334536
 H          3.5552120514        3.9408711389       -1.5688185216
 H          1.3441121127        2.5109101568        0.6856430844
 H          2.2819866707        0.1511933253        1.6017976148
  53
        -68.44469740
 C         -8.2124020740       -0.6036504472        0.2753850593
 C         -6.7583624606       -0.4768306792        0.7132258274
 C         -5.8227706273       -0.2687535490       -0.4752311971
 C         -4.3646250124       -0.1462364110       -0.0422483883
 C         -3.4266712908        0.0613870760       -1.2367877547
 C         -2.0032031663        0.1642334679       -0.7717214270
 C         -1.4511185962        1.3952046187       -0.4642602656
 C         -0.1516753373        1.5061236430        0.0250086635
 O          0.3121853887        2.7659443940        0.2509712869
 C          0.5997973761        0.3574911911        0.2489641224
 C          0.0667836970       -0.8753742012       -0.1425283248
 C         -1.2269861621       -0.9770753365       -0.6290571379
 O          0.8019842386       -2.0157765662       -0.0031104357
 C          2.2069111234       -1.9833133245       -0.3237700723
 C          2.8730056332       -2.9123748170        0.6933826287
 C          2.3578521728       -2.5649660519       -1.7351061072
 C          2.7640915655       -0.5451331049       -0.2829509004
 C          4.2696800460       -0.4304232427       -0.0756851297
 C          4.6644995769        1.0414799781       -0.1883935887
 C          3.8926551637        1.8701098254        0.8010950374
 C          4.5589665232        3.1235710613        1.2774429036
 C          2.6980745379        1.4862338812        1.2371732177
 C          2.0020017547        0.2336513051        0.8038996664
 H         -8.3360273118       -1.4506383766       -0.3962238971
 H         -8.8611183453       -0.7506637571        1.1358836619
 H         -8.5332930694        0.2953014225       -0.2467073849
 H         -6.6584135096        0.3653379870        1.4017663673
 H         -6.4611515336       -1.3798563337        1.2513897827
 H         -6.1182831925        0.6361756334       -1.0118257171
 H         -5.9257194074       -1.1097364433       -1.1654885347
 H         -4.0641502067       -1.0498901682        0.4926464042
 H         -4.2556244690        0.6952439391        0.6454216210
 H         -3.5330292925       -0.7798979116       -1.9245697226
 H         -3.7138301553        0.9734273145       -1.7634020004
 H         -2.0129033212        2.3051877580       -0.6048091620
 H          1.2502815916        2.7229511824        0.4892439751
 H         -1.6104276677       -1.9494650011       -0.8946404661
 H          2.3060457977       -3.8386615709        0.7368626726
 H          3.8944995181       -3.1357111892        0.4020742417
 H          2.8703896430       -2.4679261896        1.6854258136
 H          1.7769588584       -1.9766228807       -2.4426067039
 H          1.9882169792       -3.5867697072       -1.7532858819
 H          3.4005379431       -2.5592647880       -2.0409039361
 H          2.5305433547       -0.0737528497       -1.2465564276
 H          4.8049845254       -1.0184206342       -0.8230242429
 H          4.5447866427       -0.7954255100        0.9145482947
 H          5.7342751046        1.1578749006       -0.0013428610
 H          4.4712415140        1.4013463554       -1.2041407429
 H          5.4812255981        2.8833284038        1.8062197270
 H          3.9126183393        3.6866399531        1.9462112095
 H          4.8210204012        3.7544251089        0.4282848866
 H          2.2120105093        2.0370745036        2.0347910620
 H          1.9217866218       -0.4092412760        1.6958231230
  53
        -68.44465790
 C         -5.8541680448       -1.4947491701       -1.8304713534
 C         -6.2681500602       -0.0339658930       -1.7037012809
 C         -5.8265934187        0.6228490782       -0.3945010172
 C         -4.3041384320        0.7172079449       -0.2250681601
 C         -3.7259362827       -0.3844722147        0.6731182856
 C         -2.2304582332       -0.2721862828        0.7331141619
 C         -1.6166021706        0.5164244604        1.6953995745
 C         -0.2385809268        0.6727100791        1.7175589493
 O          0.3474060276        1.4183741534        2.7031525594
 C          0.5710456043        0.0610904109        0.7564109909
 C         -0.0481274213       -0.7931065660       -0.1585695047
 C         -1.4341608040       -0.9350213453       -0.1803837324
 O          0.6256019763       -1.5415324934       -1.0712838635
 C          2.0379457363       -1.7015337501       -0.8956071244
 C          2.2956609880       -2.7214203092        0.2180347079
 C          2.5329340271       -2.2586030102       -2.2321331589
 C          2.6262128632       -0.3153886892       -0.5997452441
 C          4.1468289532       -0.2137650302       -0.5475451557
 C          4.5387027913        1.2637381734       -0.5789677774
 C          3.6428338773        2.1240379476        0.2719553803
 C          4.0911844639        3.5478363047        0.4180386242
 C          2.5292672826        1.6742133998        0.8321040304
 C          2.0692284737        0.2452949656        0.7126599072
 H         -6.2163302384       -2.0697881699       -0.9806249099
 H         -6.2728719303       -1.9260335836       -2.7375066061
 H         -4.7729346542       -1.5889355514       -1.8813898883
 H         -5.8546565165        0.5309729654       -2.5426155940
 H         -7.3573925528        0.0313116221       -1.7698463641
 H         -6.2530450969        0.0703832604        0.4457493574
 H         -6.2519152352        1.6288795299       -0.3697181856
 H         -4.0424298975        1.6816407627        0.2158857796
 H         -3.8203452580        0.6701315143       -1.2023247197
 H         -4.1479465718       -0.2832091063        1.6756177520
 H         -4.0047888702       -1.3627964790        0.2832538751
 H         -2.2165094644        1.0133871599        2.4475962722
 H         -0.3389453134        1.7458141506        3.2967192397
 H         -1.8633626661       -1.5908779720       -0.9212983117
 H          1.9198546167       -3.6947187295       -0.0892767258
 H          3.3602592297       -2.8020233454        0.4178101735
 H          1.7797577923       -2.4331172966        1.1303804526
 H          2.4854745279       -1.4938857931       -3.0029954016
 H          1.8902299689       -3.0836839776       -2.5279987917
 H          3.5523376281       -2.6210595480       -2.1445637764
 H          2.2714932552        0.3357948600       -1.4097245460
 H          4.6077806649       -0.7291436420       -1.3908031452
 H          4.5143625400       -0.6720137132        0.3726066085
 H          5.5752415634        1.3829359681       -0.2512393065
 H          4.4875986678        1.6327648983       -1.6095662913
 H          3.3754066302        4.1241423912        0.9978117726
 H          4.2044496160        4.0124297258       -0.5615202793
 H          5.0591977795        3.5910423281        0.9174591043
 H          1.9243064038        2.3305580119        1.4349735910
 H          2.5026538889       -0.3033080965        1.5629106097
  53
        -68.44464596
 C         -6.8170331554        0.7374312942        0.9859268652
 C         -6.7036286609       -0.0578857867       -0.3092789823
 C         -5.7955904076       -1.2828723306       -0.1876272438
 C         -4.3394463080       -0.9742255608        0.1612801841
 C         -3.6235523347       -0.1361625865       -0.9044054649
 C         -2.1742819870        0.0262925201       -0.5489914009
 C         -1.7639226291        1.0755684779        0.2582628834
 C         -0.4291591519        1.2169865415        0.6103791380
 O         -0.1087963096        2.2612378530        1.4276730482
 C          0.5312857142        0.3116887227        0.1513234573
 C          0.0992420782       -0.7799136077       -0.6030682959
 C         -1.2391681929       -0.9071999407       -0.9606161747
 O          0.9306969231       -1.7716779496       -1.0292033667
 C          2.2008608296       -1.8839280096       -0.3820879779
 C          1.9943101068       -2.4739862965        1.0172070654
 C          3.0051163266       -2.8524905196       -1.2500567832
 C          2.8448591647       -0.4877435933       -0.3693637786
 C          4.3073127963       -0.4381133403        0.0869890844
 C          4.6648198767        0.8962876603        0.7777369850
 C          3.8501659154        2.0415953679        0.2471495195
 C          4.5557857028        3.3112448362       -0.1004962713
 C          2.5404673147        1.8548483071        0.1304308134
 C          1.9953747078        0.4898260836        0.4633628908
 H         -7.5506931614        1.5332580068        0.8767044447
 H         -7.1314502044        0.0913112306        1.8030258115
 H         -5.8656163926        1.1901720777        1.2517737807
 H         -7.6994348631       -0.4021956623       -0.6003195736
 H         -6.3409790668        0.5933457671       -1.1062432224
 H         -5.8214102142       -1.8290149763       -1.1342295329
 H         -6.2019965678       -1.9425381287        0.5836015773
 H         -3.8031311116       -1.9197236405        0.2735254524
 H         -4.2853163250       -0.4560999830        1.1195224662
 H         -3.7150812706       -0.6343135673       -1.8715729439
 H         -4.0913907627        0.8461281782       -0.9745426840
 H         -2.4680253294        1.8043747827        0.6271740425
 H          0.8445322432        2.2748980359        1.5795381752
 H         -1.5267940464       -1.7551115459       -1.5618690873
 H          1.6141485239       -3.4886041357        0.9251380724
 H          2.9277153474       -2.5008706300        1.5718876567
 H          1.2648864429       -1.8908169028        1.5740827713
 H          2.4333730379       -3.7659252029       -1.3904489420
 H          3.9523469954       -3.0938583338       -0.7781899671
 H          3.1919827717       -2.4127042333       -2.2261470695
 H          2.7922746192       -0.1325339534       -1.4065086594
 H          4.9534198492       -0.5742926683       -0.7807254329
 H          4.5181980225       -1.2516980446        0.7820768749
 H          4.4648555287        0.7994703777        1.8501374118
 H          5.7306579508        1.0952025913        0.6635381694
 H          5.2813970998        3.1317799938       -0.8936745391
 H          5.0983790193        3.6927549958        0.7645180258
 H          3.8518346451        4.0685948641       -0.4358335277
 H          1.8867412492        2.6037706592       -0.2906507885
 H          2.1775945290        0.2810654983        1.5300837529
  53
        -68.44464276
 C         -3.1317022981       -3.0611223507        1.4559752593
 C         -3.5536514668       -1.6029434816        1.3254024992
 C         -4.5716217310       -1.4109458285        0.2017437016
 C         -4.9084980514        0.0595383508       -0.0675329254
 C         -4.0171047016        0.7051343811       -1.1399452787
 C         -2.5646848008        0.6907553988       -0.7632695523
 C         -2.0790385566        1.5858378730        0.1822010231
 C         -0.7499448589        1.5506506038        0.5732825180
 O         -0.2748019365        2.4103616037        1.5227139578
 C          0.1354329273        0.6218700340        0.0205740655
 C         -0.3698784108       -0.3054954392       -0.8893676163
 C         -1.7023296238       -0.2499772576       -1.2935941811
 O          0.3742876459       -1.3098429527       -1.4241122038
 C          1.5981692116       -1.6398681413       -0.7576086391
 C          1.2656479838       -2.3890670886        0.5369898787
 C          2.3400305700       -2.5616873812       -1.7261699137
 C          2.3743884734       -0.3329824414       -0.5278225626
 C          3.8133339040       -0.5002761483       -0.0285951692
 C          4.2759955498        0.6901999028        0.8380155372
 C          3.5872896114        1.9742853210        0.4663228418
 C          4.4233357143        3.2074412088        0.3425617169
 C          2.2725285902        1.9392087610        0.2947919026
 C          1.5886609580        0.6053422085        0.4044809188
 H         -3.9955702948       -3.6974668376        1.6385118640
 H         -2.6458846562       -3.3951870033        0.5418793376
 H         -2.4328328920       -3.1857476843        2.2800791041
 H         -3.9928162499       -1.2649861594        2.2675578750
 H         -2.6719382651       -0.9926210744        1.1299517030
 H         -5.4852332129       -1.9473301239        0.4707401730
 H         -4.1848795985       -1.8646431814       -0.7123734006
 H         -4.8246973200        0.6244566088        0.8629902555
 H         -5.9437568468        0.1373586363       -0.4079823630
 H         -4.1543113367        0.1702037645       -2.0812288268
 H         -4.3458611188        1.7373139513       -1.2860635308
 H         -2.7450220885        2.3149319897        0.6259681104
 H         -0.9930346345        2.9825639909        1.8175122398
 H         -2.0435412073       -0.9754330555       -2.0147218153
 H          0.5852906265       -1.8053044638        1.1519058441
 H          0.7777973881       -3.3300063141        0.2927295802
 H          2.1659519869       -2.6005062480        1.1062158779
 H          3.2373305185       -2.9598290611       -1.2631887883
 H          2.6125860057       -2.0165711629       -2.6259848668
 H          1.6891019927       -3.3850163241       -2.0085253379
 H          2.4050198980        0.1641405973       -1.5061560518
 H          4.4771849392       -0.5964950125       -0.8887362819
 H          3.9090065622       -1.4133558731        0.5606449840
 H          4.0393902944        0.4719980646        1.8846237542
 H          5.3589092683        0.7978579297        0.7650757541
 H          3.8057765140        4.0716048007        0.1122304956
 H          5.1638065491        3.0843411098       -0.4481616106
 H          4.9593556800        3.3971046145        1.2725897615
 H          1.6957810564        2.8083933691        0.0280119732
 H          1.6838213554        0.2529446012        1.4412618660
  53
        -68.44463879
 C         -5.8970223822       -1.2438823149       -2.0720659259
 C         -6.4222957268       -1.5126202819       -0.6673756655
 C         -5.9570942520       -0.4922324040        0.3731855776
 C         -4.4405811681       -0.4862933668        0.6091452273
 C         -3.7153340659        0.6386043594       -0.1414063667
 C         -2.2341040339        0.5475402268        0.0848780588
 C         -1.6435928626        1.1781118062        1.1703661710
 C         -0.2789030812        1.0793928981        1.3977650210
 O          0.2743416237        1.6794077009        2.4953662591
 C          0.5452542995        0.3574486390        0.5300346959
 C         -0.0703602592       -0.3435778456       -0.5091834414
 C         -1.4401758571       -0.2283206304       -0.7370961636
 O          0.5896989659       -1.1760777615       -1.3566446226
 C          1.9127642907       -1.5894242937       -0.9965125235
 C          1.8267509642       -2.6723732915        0.0836829456
 C          2.4944407969       -2.1846282551       -2.2806857395
 C          2.6805332648       -0.3396069307       -0.5455976636
 C          4.1719418909       -0.5119212367       -0.2785875919
 C          4.8121240645        0.8724945527       -0.1738951583
 C          3.9640855268        1.8512081266        0.5939540143
 C          4.6249800082        3.1664743496        0.8817734147
 C          2.7202905257        1.5898811675        0.9691944465
 C          2.0426447243        0.2709982361        0.7063169445
 H         -4.8170453028       -1.3562643071       -2.1112790502
 H         -6.3345939166       -1.9475771070       -2.7773273414
 H         -6.1558595981       -0.2361418014       -2.3905694160
 H         -7.5151717742       -1.5033811473       -0.6916507753
 H         -6.1103063507       -2.5110523929       -0.3515021876
 H         -6.4638655580       -0.7242686267        1.3128917880
 H         -6.2818699061        0.5049326828        0.0679178579
 H         -4.0167256613       -1.4462046343        0.3088169098
 H         -4.2357456927       -0.3649940968        1.6752063057
 H         -3.9269301272        0.5672978283       -1.2076701993
 H         -4.0869127134        1.6012295037        0.2170201680
 H         -2.2522427883        1.7577075119        1.8532440657
 H         -0.4246854189        2.1120335722        3.0001505961
 H         -1.8613055419       -0.7685925208       -1.5702268997
 H          1.2401826496       -2.3250092146        0.9304241949
 H          1.3389852945       -3.5538479252       -0.3263563455
 H          2.8211219291       -2.9464918874        0.4241622271
 H          1.7698705286       -2.8728839522       -2.7080949556
 H          3.4126839986       -2.7250302719       -2.0733470460
 H          2.6918580938       -1.4004879976       -3.0069016920
 H          2.5647317607        0.3886925617       -1.3592951748
 H          4.6551260343       -1.0754886046       -1.0774045988
 H          4.3173026549       -1.0557823337        0.6567480970
 H          5.7955930205        0.7952060560        0.2981359826
 H          4.9739106431        1.2765997839       -1.1795987168
 H          4.9573444912        3.6349047113       -0.0446603285
 H          5.5031975263        3.0197292311        1.5106963501
 H          3.9427909110        3.8422802300        1.3902242875
 H          2.1567244689        2.3241857043        1.5199737638
 H          2.2449776989       -0.3725423469        1.5761880287
  53
        -68.44463665
 C         -8.0315262029        0.3002846964       -0.5500035696
 C         -6.5655174242        0.4659883626       -0.1680172881
 C         -5.6375522274       -0.0385265824       -1.2712579446
 C         -4.1569661354        0.2058163535       -0.9823134747
 C         -3.6207796449       -0.6300858048        0.1862948686
 C         -2.1426856556       -0.4169783868        0.3395579362
 C         -1.6588295364        0.6053082812        1.1448281655
 C         -0.2968967079        0.8455798048        1.2425789059
 O          0.1846226932        1.8324113574        2.0555349546
 C          0.6196540995        0.0756824951        0.5231208766
 C          0.1310327865       -0.9895925719       -0.2323620098
 C         -1.2398294230       -1.2165793770       -0.3352711863
 O          0.9323125782       -1.8613072711       -0.9005334549
 C          2.3167023430       -1.8930633386       -0.5349383471
 C          2.4541230840       -2.6144020896        0.8097585946
 C          2.9979544976       -2.7014436118       -1.6399933106
 C          2.8308135145       -0.4445661606       -0.5074334960
 C          4.3475921080       -0.2881653200       -0.3531687457
 C          4.7320972479        1.0135896088        0.3810845836
 C          3.7286095290        2.1120321330        0.1637886007
 C          4.2430200978        3.4784759668       -0.1575121541
 C          2.4448543004        1.8050415388        0.2943328503
 C          2.0931937743        0.3698592232        0.5696272120
 H         -8.2565535220        0.8602311733       -1.4553382583
 H         -8.2614288575       -0.7475588771       -0.7312474680
 H         -8.6792630146        0.6606876181        0.2460272448
 H         -6.3578018041        1.5218858628        0.0214907235
 H         -6.3750608948       -0.0831983446        0.7555606477
 H         -5.8974824591        0.4694219640       -2.2035984787
 H         -5.8044296600       -1.1077781751       -1.4218211701
 H         -3.9967779639        1.2649994390       -0.7679984873
 H         -3.5757948111       -0.0403934692       -1.8739364696
 H         -4.1306412763       -0.3440704654        1.1072440761
 H         -3.8242783141       -1.6847006810       -0.0080933566
 H         -2.3487872032        1.2217999255        1.7071459046
 H         -0.5559037327        2.2711615072        2.4906656275
 H         -1.5753225438       -2.0393181490       -0.9465434644
 H          2.1341424774       -3.6477853267        0.6973310559
 H          3.4841304596       -2.6036136059        1.1535852968
 H          1.8238756369       -2.1442588590        1.5604064173
 H          2.9381339166       -2.1672568806       -2.5845494514
 H          2.4887523761       -3.6549623541       -1.7530284044
 H          4.0401150243       -2.8808501540       -1.3956214918
 H          2.5361678628       -0.0113463323       -1.4721261287
 H          4.8057260694       -0.2893326643       -1.3430864282
 H          4.7643496768       -1.1312525485        0.1995240459
 H          4.7787648020        0.8069810429        1.4553635157
 H          5.7271628666        1.3313282427        0.0672278073
 H          4.9174648431        3.8236978679        0.6261992927
 H          3.4246014437        4.1873383002       -0.2518133182
 H          4.8024646678        3.4616399339       -1.0931739828
 H          1.6563401791        2.5250287717        0.1563755496
 H          2.4845744747        0.1028002282        1.5612920651
  53
        -68.44463200
 C         -7.8230135361       -0.5611179014       -1.3758290481
 C         -6.3103711318       -0.6450941035       -1.2101756009
 C         -5.7400692360        0.6351235489       -0.6033491181
 C         -4.2138466771        0.6448855919       -0.5252827749
 C         -3.6509739857       -0.3703985036        0.4767319693
 C         -2.1576846109       -0.2415317848        0.5609341482
 C         -1.5749110046        0.6294786843        1.4716097363
 C         -0.1990342631        0.7953844250        1.5121790088
 O          0.3800326377        1.6298568867        2.4259122129
 C          0.6322898456        0.1029388173        0.6290892047
 C          0.0454521683       -0.8170844076       -0.2389847667
 C         -1.3388694241       -0.9691856296       -0.2816948815
 O          0.7597314995       -1.6128298454       -1.0786534823
 C          2.1598109663       -1.7571217734       -0.8137947597
 C          2.3390019585       -2.6749922692        0.3998296534
 C          2.7318991995       -2.4208925751       -2.0671342015
 C          2.7487995821       -0.3518395421       -0.6101375790
 C          4.2781062948       -0.2845018572       -0.5352754836
 C          4.7720740531        0.8759011629        0.3540583087
 C          3.8159011025        2.0362382077        0.3654769176
 C          4.3807431198        3.4119896611        0.2130738179
 C          2.5278556463        1.7682507736        0.5340228302
 C          2.1192073809        0.3243840795        0.6202114723
 H         -8.0907716484        0.2643184109       -2.0321947390
 H         -8.2138866804       -1.4809188715       -1.8049245460
 H         -8.3036300636       -0.4007127534       -0.4129377135
 H         -6.0697859184       -1.4964141845       -0.5714048015
 H         -5.8477526954       -0.8171901581       -2.1847326458
 H         -6.1551585400        0.7757132664        0.3978463990
 H         -6.0614097876        1.4827446048       -1.2142780268
 H         -3.8803624316        1.6428657525       -0.2301085849
 H         -3.7954389458        0.4379616699       -1.5125102274
 H         -4.0977731294       -0.1900079992        1.4569337487
 H         -3.9111974931       -1.3803595014        0.1595753514
 H         -2.1974179669        1.1843235160        2.1622398184
 H         -0.3097549582        2.0299539189        2.9684480077
 H         -1.7520545266       -1.6783656142       -0.9813029507
 H          3.3866935965       -2.7588152687        0.6729435256
 H          1.7791507386       -2.2951254741        1.2507235710
 H          1.9601506709       -3.6658466434        0.1598072944
 H          3.7760065154       -2.6785809557       -1.9207516666
 H          2.6440756788       -1.7505306974       -2.9180271936
 H          2.1683718232       -3.3246719702       -2.2836239843
 H          2.4203914996        0.2317454899       -1.4800157979
 H          4.6762517240       -0.1575739538       -1.5428360461
 H          4.6827599927       -1.2173624151       -0.1403437016
 H          4.8708194553        0.5099616404        1.3813217699
 H          5.7621722517        1.1940181885        0.0252500178
 H          4.8803417220        3.5109098664       -0.7509470081
 H          5.1189802111        3.6071076925        0.9909986571
 H          3.5964009310        4.1614058038        0.2792540642
 H          1.7709483843        2.5336571785        0.5546067008
 H          2.5541959901       -0.1032884842        1.5344376152
  53
        -68.44463064
 C         -6.1822609654       -2.0453079336       -1.4666297173
 C         -6.5178451426       -0.6838706340       -0.8693036431
 C         -5.9308301470       -0.4763740604        0.5279691884
 C         -4.4046668481       -0.5296221005        0.6008035599
 C         -3.7183176387        0.5693456686       -0.2187553482
 C         -2.2332690030        0.5243451207       -0.0049330917
 C         -1.6519008632        1.2245365638        1.0403456780
 C         -0.2822660076        1.1660237514        1.2552693174
 O          0.2107017776        1.8634522566        2.3189797852
 C          0.5414794613        0.4085467903        0.4182200659
 C         -0.0603359219       -0.3480949553       -0.5879977250
 C         -1.4327485506       -0.2737626384       -0.8034548160
 O          0.6304004404       -1.1906688692       -1.4062645351
 C          1.9409533944       -1.5808776782       -0.9879949009
 C          1.8158536544       -2.5854472507        0.1626784219
 C          2.5648237474       -2.2539555240       -2.2111559647
 C          2.7100801203       -0.3052692285       -0.6065659244
 C          4.2078615589       -0.4912611536       -0.3389297935
 C          4.7521691226        0.5185029815        0.6952989228
 C          4.0008322582        1.8190282609        0.6626985583
 C          4.7851138093        3.0900932384        0.6584677670
 C          2.6743085465        1.7558449263        0.6509293925
 C          2.0388748924        0.3905813671        0.5917683220
 H         -5.1163811234       -2.1367234921       -1.6574370777
 H         -6.4806530606       -2.8423819715       -0.7886995388
 H         -6.7069917315       -2.1831479043       -2.4096062577
 H         -6.1671301781        0.1038249438       -1.5381042267
 H         -7.6043565699       -0.5879768581       -0.7977562200
 H         -6.3339468722       -1.2447686708        1.1929238852
 H         -6.2666883526        0.4933084540        0.9045941542
 H         -4.0470542193       -1.5032759836        0.2633928927
 H         -4.1045861363       -0.4186291971        1.6456569369
 H         -3.9359988312        0.4283918176       -1.2777405975
 H         -4.1085612496        1.5411820447        0.0897339908
 H         -2.2474244573        1.8294095176        1.7054518941
 H          1.1712410810        1.7717237392        2.3512923876
 H         -1.8532171845       -0.8580783019       -1.6066473334
 H          1.3367042557       -3.4905090177       -0.2029830125
 H          2.7916100128       -2.8453436802        0.5626546694
 H          1.2000302962       -2.1778017253        0.9607138666
 H          3.5264823891       -2.6900642812       -1.9597816926
 H          2.6971492750       -1.5289824622       -3.0099097200
 H          1.9000153915       -3.0367005413       -2.5665597836
 H          2.5914305008        0.3735744558       -1.4607953858
 H          4.7523610232       -0.3698345088       -1.2757825880
 H          4.4081529973       -1.4990216075        0.0269262919
 H          4.6471092018        0.0853399851        1.6956680078
 H          5.8161463770        0.6829631601        0.5235194216
 H          5.4115075258        3.1411543695       -0.2319616094
 H          5.4412045863        3.1337644431        1.5278572504
 H          4.1258572452        3.9542534872        0.6718677556
 H          2.0559252630        2.6374898056        0.5741949520
 H          2.3019793137       -0.1675135388        1.5049881659
  53
        -68.44462965
 C         -6.2123148120        0.9565303651        0.6487308734
 C         -5.9610494094       -0.4389566027        1.2064372456
 C         -4.5928196751       -1.0206893837        0.8448628285
 C         -4.3924193090       -1.2899274447       -0.6517744649
 C         -3.6519496783       -0.1672325076       -1.3933931669
 C         -2.2507503674        0.0060540089       -0.8813422845
 C         -1.9094453835        1.0891135554       -0.0846813256
 C         -0.6171114241        1.2444875087        0.3968204903
 O         -0.3172164721        2.3002501548        1.2134884609
 C          0.3853746209        0.3257109485        0.0771260549
 C          0.0140344978       -0.8021693640       -0.6591128076
 C         -1.2819955588       -0.9425461719       -1.1488658453
 O          0.8565016632       -1.8288420424       -0.9475947433
 C          2.0868653062       -1.9120438477       -0.2195789747
 C          1.8073778732       -2.4621954449        1.1826440091
 C          2.9353551169       -2.9120092971       -1.0081268880
 C          2.7135719744       -0.5113414614       -0.2102611706
 C          4.1218162195       -0.3956309497        0.3631171922
 C          4.6918632324        0.9716444332       -0.0150278596
 C          3.6793962751        2.0794928614        0.1039596100
 C          4.2334123483        3.4610247115       -0.0803189938
 C          2.3919563823        1.8601650802        0.3286631168
 C          1.8164751269        0.4836085103        0.5329823979
 H         -6.2709952649        0.9385145121       -0.4362486439
 H         -7.1528638443        1.3497298988        1.0296843545
 H         -5.4150924771        1.6347491117        0.9456965351
 H         -6.0374391140       -0.3995487504        2.2962712823
 H         -6.7425398038       -1.1140330579        0.8487644401
 H         -4.4834584724       -1.9619934967        1.3885044935
 H         -3.8059757500       -0.3527057982        1.1995487153
 H         -5.3630586401       -1.4511076030       -1.1258474066
 H         -3.8125385307       -2.2065180105       -0.7733838745
 H         -3.6150394549       -0.4243922196       -2.4549779761
 H         -4.1958421314        0.7711392500       -1.2910549876
 H         -2.6561363914        1.8324980770        0.1667146296
 H         -1.1146241005        2.8251192642        1.3522569773
 H         -1.5079954189       -1.8176567500       -1.7372525071
 H          1.4363468833       -3.4815321532        1.1035139798
 H          2.7168903860       -2.4636147706        1.7764350807
 H          1.0506915745       -1.8657751369        1.6859729927
 H          3.2583649200       -2.4760513301       -1.9498657045
 H          2.3318219843       -3.7893349428       -1.2259185277
 H          3.8044736563       -3.2170289224       -0.4338322176
 H          2.7496893087       -0.1961606568       -1.2616013208
 H          4.7730965913       -1.1798718623       -0.0241315382
 H          4.0849613047       -0.4906927201        1.4500374087
 H          5.5580989430        1.2021267533        0.6114832790
 H          5.0480643157        0.9445423235       -1.0510332709
 H          4.7361897268        3.5427561216       -1.0440170584
 H          4.9678530219        3.6813394174        0.6945202189
 H          3.4445693145        4.2067399696       -0.0330909715
 H          1.7088615690        2.6891531024        0.4080890176
 H          1.8522796008        0.2780884157        1.6138514864
  53
        -68.44462510
 C         -8.1027807882       -0.0739106156       -0.2291147404
 C         -6.6277730846        0.2213439748        0.0153490832
 C         -5.7734106424       -1.0376650141       -0.1186489063
 C         -4.3010152457       -0.8153096670        0.2248922107
 C         -3.5721119184        0.0826351524       -0.7821043401
 C         -2.1124386368        0.1707670806       -0.4417846401
 C         -1.6537885919        1.1388333138        0.4414488045
 C         -0.3108260183        1.2109455986        0.7781375604
 O          0.1409498987        2.1488189931        1.6629315379
 C          0.6137730999        0.3190534012        0.2302592580
 C          0.1352667476       -0.6936162786       -0.6003614114
 C         -1.2138458254       -0.7515907177       -0.9435073907
 O          0.9254443261       -1.6707860393       -1.1190865746
 C          2.2121406608       -1.8621730752       -0.5200124329
 C          2.0274182193       -2.5668023589        0.8279589447
 C          2.9683383537       -2.7694866022       -1.4914893320
 C          2.8878488073       -0.4863540797       -0.4030929586
 C          4.3635446459       -0.5118209552        0.0100634742
 C          4.7731834429        0.7475698036        0.8022138132
 C          3.9648120904        1.9552803202        0.4165820288
 C          4.6909438904        3.2423684776        0.1905686258
 C          2.6498719347        1.8090835253        0.3227269057
 C          2.0822733076        0.4330472742        0.5313185828
 H         -8.2495560680       -0.4767611847       -1.2290193452
 H         -8.4713467781       -0.8028650862        0.4896182287
 H         -8.6968686673        0.8321754701       -0.1338895317
 H         -6.2928661800        0.9736306435       -0.7006175214
 H         -6.5027642200        0.6355354985        1.0186522477
 H         -5.8524555963       -1.4199828575       -1.1391051280
 H         -6.1743721566       -1.8028978463        0.5510053736
 H         -3.7931933658       -1.7822081151        0.2518866062
 H         -4.2213985208       -0.3743403980        1.2212872992
 H         -3.6925722389       -0.3353404988       -1.7831407846
 H         -4.0118174281        1.0807470022       -0.7695879921
 H         -2.3484889637        1.8491915280        0.8716500615
 H         -0.6030909649        2.6862578153        1.9592628087
 H         -1.5375995546       -1.5381881012       -1.6065346435
 H          1.6086820557       -3.5566508883        0.6613273400
 H          2.9764199238       -2.6721639067        1.3451950792
 H          1.3391016699       -2.0092589206        1.4581759126
 H          2.3727784006       -3.6563521560       -1.6915514133
 H          3.9229749737       -3.0689308548       -1.0707571108
 H          3.1376414747       -2.2514151287       -2.4317401112
 H          2.8177429789       -0.0403432818       -1.4037051847
 H          4.9806092521       -0.5869820487       -0.8862344013
 H          4.5733684518       -1.3885247481        0.6243050857
 H          4.6085880391        0.5577530813        1.8679711744
 H          5.8388235636        0.9359384592        0.6659075242
 H          3.9942240793        4.0438906005       -0.0404203972
 H          5.3943175925        3.1395315800       -0.6361347787
 H          5.2603444920        3.5174233960        1.0784909003
 H          1.9915432542        2.6164983054        0.0509364768
 H          2.2618326346        0.1403130276        1.5753237962
  53
        -68.44454006
 C         -6.5046678600        1.0603486433        0.6069043965
 C         -6.5510360042        0.8149072473       -0.8960900724
 C         -5.6847407934       -0.3582590166       -1.3587291472
 C         -4.1809882882       -0.1564758923       -1.1269623419
 C         -3.6602908834       -0.8720607419        0.1266351872
 C         -2.1984132114       -0.5890581231        0.3159072392
 C         -1.7801646869        0.4899846305        1.0813316934
 C         -0.4329884090        0.7927197955        1.2129718886
 O         -0.0424691172        1.8335694490        2.0098974628
 C          0.5423540230        0.0353411687        0.5585334136
 C          0.1170400124       -1.0937688449       -0.1447813369
 C         -1.2391768142       -1.3833975786       -0.2811270030
 O          0.9614098028       -1.9830988331       -0.7304193300
 C          2.3438190163       -1.9398479773       -0.3587099239
 C          2.5170085400       -2.5913442478        1.0169386596
 C          3.0561951728       -2.7786815707       -1.4219350371
 C          2.7865339469       -0.4709854887       -0.3967211828
 C          4.2744053496       -0.1993389865       -0.2024438425
 C          4.5624150214        1.2487156743       -0.5996854049
 C          3.4994419929        2.2059639670       -0.1300823044
 C          3.8226180060        3.6559618320       -0.3365449222
 C          2.3531887924        1.8076376860        0.4024290397
 C          2.0154845667        0.3586294987        0.6348953764
 H         -5.5115057029        1.3724078885        0.9182105944
 H         -7.2061276783        1.8456251469        0.8815841718
 H         -6.7737378566        0.1567376072        1.1500383830
 H         -7.5849911456        0.6142301340       -1.1882400063
 H         -6.2331950958        1.7206211185       -1.4183623974
 H         -5.8651797999       -0.5005421226       -2.4266669212
 H         -6.0121464287       -1.2682631708       -0.8512226389
 H         -3.9601404156        0.9099764927       -1.0499457766
 H         -3.6219005788       -0.5383347322       -1.9834429263
 H         -4.2185650761       -0.5400574594        1.0020635509
 H         -3.8150645167       -1.9464168043        0.0099825256
 H         -2.5104945781        1.1036657787        1.5941341450
 H         -0.8249730724        2.2324446546        2.4088506480
 H         -1.5161708194       -2.2551349142       -0.8525181790
 H          3.5470619047       -2.5030009504        1.3500433393
 H          1.8616443005       -2.1252801462        1.7483077282
 H          2.2561709609       -3.6453067287        0.9529738249
 H          2.5200650858       -3.7158911540       -1.5467118157
 H          4.0767987282       -2.9947618452       -1.1220915650
 H          3.0616162694       -2.2575279671       -2.3756913677
 H          2.5024469424       -0.1016832064       -1.3911119088
 H          4.8824282763       -0.8699663430       -0.8105179102
 H          4.5423402497       -0.3535726222        0.8445497300
 H          5.5326319384        1.5596910620       -0.2022353609
 H          4.6288789274        1.3212517072       -1.6911264142
 H          2.9947328462        4.2876589238       -0.0264866832
 H          4.0384524181        3.8508904807       -1.3870627127
 H          4.7063157884        3.9327867379        0.2385693246
 H          1.6259518236        2.5338095289        0.7249327156
 H          2.3648452391        0.1066794514        1.6479425545
  53
        -68.44453468
 C         -6.9312404958       -1.3494574410       -0.3500656249
 C         -6.3369445602       -0.4637889245       -1.4404034652
 C         -5.7034407780        0.8251579450       -0.8974715265
 C         -4.1827687941        0.7632001789       -0.7486307915
 C         -3.7000112054       -0.2588688976        0.2863991546
 C         -2.2104379899       -0.1662695387        0.4472223627
 C         -1.6511373619        0.6943791088        1.3807215655
 C         -0.2752752037        0.8284634350        1.4935959081
 O          0.2535017192        1.6487289562        2.4519799420
 C          0.5885944797        0.1198573167        0.6539170099
 C          0.0187525152       -0.8015294149       -0.2272971708
 C         -1.3648974683       -0.9214498439       -0.3416047197
 O          0.7401878650       -1.6393329074       -1.0175815881
 C          2.1317132598       -1.8067136506       -0.7230902148
 C          2.2832543876       -2.7286859117        0.4909426096
 C          2.7103659337       -2.4875633061       -1.9653751308
 C          2.7288000855       -0.4099764269       -0.5050085571
 C          4.2434234201       -0.3300087525       -0.3474789645
 C          4.6711257705        1.1321232332       -0.4772392522
 C          3.7360211899        2.0790038675        0.2268058360
 C          4.2059755791        3.5021898527        0.2828827937
 C          2.5739167873        1.6993301250        0.7381737287
 C          2.0899100357        0.2736403376        0.7080507300
 H         -7.3572072251       -2.2509127256       -0.7860111655
 H         -6.1780656872       -1.6438847374        0.3752071855
 H         -7.7231316425       -0.8204239776        0.1765434334
 H         -5.5887356896       -1.0267408832       -2.0017558210
 H         -7.1358394342       -0.2046040615       -2.1388481479
 H         -6.1512811213        1.0691224342        0.0683824052
 H         -5.9316280319        1.6491447710       -1.5775880906
 H         -3.8204571529        1.7515651119       -0.4539451944
 H         -3.7321023243        0.5260837431       -1.7148750930
 H         -4.1914178597       -0.0608174793        1.2415415471
 H         -3.9659552285       -1.2635213162       -0.0420402729
 H         -2.2930911266        1.2666978249        2.0388076142
 H         -0.4669960151        2.0395279801        2.9606659505
 H         -1.7541955053       -1.6322071756       -1.0532808011
 H          3.3281563341       -2.8092444192        0.7763885540
 H          1.7086388365       -2.3524869858        1.3335224938
 H          1.9083875549       -3.7188005632        0.2417145078
 H          3.7117836565       -2.8581323101       -1.7703308403
 H          2.7376263780       -1.7929743291       -2.8008786281
 H          2.0719236710       -3.3244572225       -2.2362509289
 H          2.4500753557        0.1730974671       -1.3928445378
 H          4.7528354197       -0.9255976231       -1.1057348744
 H          4.5313136984       -0.7115696363        0.6339963526
 H          5.6834193701        1.2619486840       -0.0843156628
 H          4.7042113854        1.4099525203       -1.5367833595
 H          3.4645789415        4.1389060306        0.7577431321
 H          4.3991323834        3.8778984594       -0.7219559171
 H          5.1369257289        3.5720351892        0.8456603095
 H          1.9420328395        2.4165026564        1.2347730159
 H          2.4460774644       -0.2054608067        1.6329106015
  53
        -68.44453242
 C         -5.8308887952        1.9629555633        1.2036370598
 C         -5.6001365122        0.8050062278        0.2405532940
 C         -4.6937219336       -0.2598063883        0.8538293752
 C         -4.4584364937       -1.4603367204       -0.0620629495
 C         -3.5793175885       -1.1397393906       -1.2792069872
 C         -2.2084175479       -0.6961554213       -0.8569671885
 C         -1.8557718639        0.6415644936       -0.8739279635
 C         -0.6055064013        1.0692464862       -0.4318004833
 O         -0.3453273162        2.4021142894       -0.5310775899
 C          0.3000123917        0.1431098440        0.0733558643
 C         -0.0286450186       -1.2155488341        0.0059635563
 C         -1.2739965358       -1.6324213128       -0.4353697198
 O          0.8628954839       -2.1586633923        0.4258299602
 C          2.2583997046       -1.9911429051        0.1067169261
 C          3.0163916934       -2.5214023889        1.3256697525
 C          2.5488393261       -2.8775368995       -1.1110511783
 C          2.5924401474       -0.5205065865       -0.2188263716
 C          4.0554572109       -0.1275488132       -0.0515045777
 C          4.2298031457        1.3117725128       -0.5342363775
 C          3.3073061628        2.2330706640        0.2151332492
 C          3.7607384078        3.6531123809        0.3561475077
 C          2.1687252686        1.7916747592        0.7379325886
 C          1.6838049303        0.3788044209        0.6379441543
 H         -6.4797733737        2.7126232346        0.7560892812
 H         -6.2962183241        1.6104658855        2.1219553353
 H         -4.8850192761        2.4354439228        1.4595550092
 H         -6.5599968745        0.3543284532       -0.0244331000
 H         -5.1501053574        1.1913583789       -0.6747916520
 H         -5.1517182587       -0.6138948478        1.7811084676
 H         -3.7310844704        0.1875530804        1.1096521786
 H         -5.4205767439       -1.8440525304       -0.4102972500
 H         -3.9716313950       -2.2497541661        0.5147695566
 H         -3.4973110802       -2.0410126116       -1.8912667148
 H         -4.0524619289       -0.3646483639       -1.8821242192
 H         -2.5388047046        1.3926706967       -1.2380068141
 H          0.5795331274        2.5656794738       -0.2937294385
 H         -1.4974754730       -2.6874749885       -0.4477340944
 H          2.5928847837       -3.4831503448        1.6032665446
 H          4.0701253147       -2.6505002417        1.0994734237
 H          2.9097867841       -1.8483211839        2.1726196195
 H          1.9149467433       -2.5818343916       -1.9446642799
 H          2.3361269222       -3.9155175528       -0.8693874754
 H          3.5901948748       -2.7886571069       -1.4084153474
 H          2.3261295664       -0.3469127369       -1.2696814965
 H          4.6994154213       -0.7945944233       -0.6269760825
 H          4.3457732600       -0.1859512613        0.9981599435
 H          5.2626434950        1.6344090096       -0.3855479253
 H          4.0221616250        1.3714475859       -1.6075216568
 H          4.6888450471        3.6983152680        0.9257505433
 H          3.0136306985        4.2595787044        0.8622262323
 H          3.9559318116        4.0832332217       -0.6260126039
 H          1.5773684875        2.4434722168        1.3714682196
 H          1.6683165747       -0.0246485755        1.6637479493
  53
        -68.44452861
 C         -6.8203896553        0.1375797465       -1.7192996888
 C         -6.4233704593       -1.1015409210       -0.9235305119
 C         -5.8860871965       -0.7765493300        0.4776042128
 C         -4.3603488934       -0.7780780212        0.5808053866
 C         -3.6789720778        0.3105929380       -0.2556767584
 C         -2.1989264284        0.3100637129       -0.0033791618
 C         -1.6566014754        1.0655283374        1.0262040184
 C         -0.2929487529        1.0525472286        1.2789387675
 O          0.2141166251        1.7767719831        2.3226131258
 C          0.5777080467        0.2925702608        0.4929482497
 C          0.0125565778       -0.5298319920       -0.4840993581
 C         -1.3568942810       -0.5000592550       -0.7397689272
 O          0.7244901037       -1.4058920296       -1.2407499469
 C          2.0569115320       -1.7239908866       -0.8229202793
 C          1.9967133594       -2.7022554637        0.3545218704
 C          2.6883464887       -2.4118219990       -2.0352780903
 C          2.7610961320       -0.4038094476       -0.4821883058
 C          4.2533769556       -0.4819596873       -0.1786074465
 C          4.8298428028        0.9339898045       -0.1973250387
 C          3.9245687766        1.9420097678        0.4593182903
 C          4.5203693995        3.3082918776        0.6264092695
 C          2.6868512832        1.6609414387        0.8402822630
 C          2.0740519134        0.2929097267        0.6965853217
 H         -7.1833388272       -0.1467271529       -2.7049841289
 H         -7.6152777373        0.6764673905       -1.2074693355
 H         -5.9788767774        0.8125974163       -1.8468536084
 H         -7.3040182161       -1.7411948681       -0.8311173988
 H         -5.6717038662       -1.6667851758       -1.4778664363
 H         -6.2623400686       -1.5188434985        1.1855034865
 H         -6.2683950078        0.1962187071        0.7946074564
 H         -3.9761117207       -1.7526465465        0.2716081729
 H         -4.0815512890       -0.6355136162        1.6282285924
 H         -3.8635611470        0.1260570020       -1.3138378989
 H         -4.1008030071        1.2824970570        0.0092668670
 H         -2.3027044830        1.6759275671        1.6448479846
 H         -0.5120927540        2.2208626953        2.7765191555
 H         -1.7397526535       -1.1344071807       -1.5235338126
 H          1.5559682055       -3.6398206593        0.0233150250
 H          2.9950834817       -2.8975154143        0.7351789504
 H          1.3789060911       -2.3029235945        1.1548283015
 H          2.8661670599       -1.6920612435       -2.8299938187
 H          2.0022543304       -3.1689450095       -2.4059791833
 H          3.6246313065       -2.8888495132       -1.7631719727
 H          2.6286406250        0.2381946962       -1.3632132787
 H          4.7757490735       -1.0959187280       -0.9130089101
 H          4.4051576377       -0.9277277874        0.8062923381
 H          5.8060675079        0.9470019910        0.2954593250
 H          4.9940001717        1.2473059272       -1.2345511091
 H          3.8004723744        3.9969199642        1.0600920628
 H          4.8449045549        3.7010897277       -0.3372019182
 H          5.3947757438        3.2638174933        1.2757774099
 H          2.0805430046        2.4181996461        1.3084027539
 H          2.2896094288       -0.2545514403        1.6269274766
  53
        -68.44452686
 C         -6.5670195700        1.1777585013        0.2470775859
 C         -6.7664853591       -0.3116261077        0.4986099096
 C         -5.8357141357       -1.2080558400       -0.3203723173
 C         -4.3475044970       -1.0413534625        0.0159525348
 C         -3.5981507172       -0.1429054942       -0.9770535137
 C         -2.1621893348        0.0064041553       -0.5653850663
 C         -1.7754669418        1.0255824143        0.2930293543
 C         -0.4549194871        1.1567624179        0.6964537462
 O         -0.1046008277        2.1473003928        1.5723079674
 C          0.5291599318        0.2777137328        0.2358716917
 C          0.1153469501       -0.7941270114       -0.5581275291
 C         -1.2111975893       -0.9104810694       -0.9685247231
 O          0.9415155466       -1.7869375100       -0.9804512138
 C          2.2198085735       -1.9111987323       -0.3468816341
 C          2.0412646825       -2.5693001709        1.0249808139
 C          3.0178105626       -2.8388233560       -1.2657669269
 C          2.8370557991       -0.5081951554       -0.2732764365
 C          4.2808677151       -0.4201173298        0.2093574719
 C          4.8146352177        0.9785903206       -0.1007906600
 C          3.8058874557        2.0623660743        0.1722142798
 C          4.3373562737        3.4602178218        0.0577044280
 C          2.5384390956        1.8116371932        0.4668916768
 C          1.9872628262        0.4168849426        0.6037383285
 H         -5.5857166261        1.5003607017        0.5843064409
 H         -6.6632690951        1.4022805225       -0.8131675619
 H         -7.3152396450        1.7540430744        0.7876579748
 H         -6.6188082338       -0.5201640654        1.5611029971
 H         -7.7988697855       -0.5744761212        0.2539656338
 H         -5.9923495213       -1.0120332915       -1.3832618428
 H         -6.1288364032       -2.2440071120       -0.1355619897
 H         -3.8587404080       -2.0176888312        0.0140738033
 H         -4.2412791063       -0.6320073314        1.0226040355
 H         -3.6496384201       -0.5939325773       -1.9698564479
 H         -4.0733303043        0.8370415611       -1.0226739881
 H         -2.5102765536        1.7333005823        0.6565383630
 H         -0.8941499157        2.6480411228        1.8099434674
 H         -1.4743212995       -1.7415042744       -1.6036032065
 H          1.6721118323       -3.5839502854        0.8937406843
 H          2.9895872034       -2.6051483373        1.5533492823
 H          1.3174213072       -2.0213994575        1.6228726496
 H          3.2722253461       -2.3290122978       -2.1913029421
 H          2.4059323397       -3.7038337708       -1.5081846886
 H          3.9264125876       -3.1766732564       -0.7773784814
 H          2.7983015449       -0.1136226662       -1.2973608665
 H          4.9087212119       -1.1649083023       -0.2808237399
 H          4.3200385752       -0.5982125831        1.2857025820
 H          5.7208104128        1.1706912990        0.4805529868
 H          5.0982040736        1.0346988311       -1.1578427656
 H          3.5485911420        4.1910145041        0.2138262848
 H          4.7741571101        3.6205609489       -0.9280087523
 H          5.1204141179        3.6296326597        0.7969144026
 H          1.8570657929        2.6240363955        0.6563438145
 H          2.0989605789        0.1302185226        1.6606768458
  53
        -68.44450758
 C         -6.2831695117        0.5236622558       -2.6246968024
 C         -6.6020214060        0.7438983109       -1.1505774354
 C         -5.8475114892       -0.2094300982       -0.2231517849
 C         -4.3424034719        0.0434537120       -0.1935082429
 C         -3.6335447831       -0.8680121816        0.8151001811
 C         -2.1554212100       -0.6066672617        0.8084126892
 C         -1.5998425959        0.3278566119        1.6716677537
 C         -0.2442777649        0.6159366224        1.6263941186
 O          0.3111109402        1.5134800764        2.4938453657
 C          0.5914723559       -0.0142657719        0.7019036321
 C          0.0386607006       -0.9973065031       -0.1182496396
 C         -1.3263583281       -1.2726940292       -0.0744275831
 O          0.7697662191       -1.7399766715       -0.9914147887
 C          2.1906107886       -1.7540202379       -0.8120656331
 C          2.5252395023       -2.6321170887        0.3980613338
 C          2.7432067378       -2.3843728126       -2.0911534403
 C          2.6614787932       -0.2985029124       -0.6604372565
 C          4.1801578373       -0.0934049679       -0.6812954802
 C          4.6207414064        1.1204031260        0.1636623299
 C          3.5664275114        2.1907971120        0.2223914482
 C          3.9948135786        3.6089675136        0.0217058185
 C          2.3203433933        1.8116281506        0.4729426833
 C          2.0492255030        0.3386353035        0.5992129631
 H         -6.4802385181       -0.5087040539       -2.9058820128
 H         -6.8994481439        1.1709282633       -3.2448689915
 H         -5.2405947889        0.7455137300       -2.8362240332
 H         -6.3638900339        1.7747407128       -0.8780909139
 H         -7.6747594170        0.6017892098       -0.9974164946
 H         -6.0349818142       -1.2391984592       -0.5366556628
 H         -6.2423872537       -0.0970259356        0.7901893063
 H         -4.1526117399        1.0861183028        0.0721676237
 H         -3.9126090162       -0.1317255474       -1.1803837470
 H         -4.0413900174       -0.6878940111        1.8121852761
 H         -3.8265214101       -1.9093892198        0.5507366867
 H         -2.2271443745        0.8366489958        2.3927055986
 H         -0.3780381271        1.8591069945        3.0733728229
 H         -1.7153564942       -2.0272420301       -0.7395804196
 H          3.5908057421       -2.6170231216        0.6069410847
 H          1.9856909413       -2.2902169461        1.2776978518
 H          2.2239573228       -3.6567747651        0.1925846179
 H          2.5436736363       -1.7386374385       -2.9422583980
 H          2.2516155433       -3.3384573793       -2.2624576013
 H          3.8132851888       -2.5450994577       -2.0069109466
 H          2.2295223342        0.2390852194       -1.5145682985
 H          4.5031301582        0.0526126522       -1.7128999041
 H          4.6905920879       -0.9800036992       -0.3026919425
 H          4.8143419517        0.7810749852        1.1865551401
 H          5.5563203251        1.5203871560       -0.2291661454
 H          3.1515479411        4.2862491084        0.1283960180
 H          4.4244678707        3.7371685645       -0.9721031267
 H          4.7579796952        3.8813305712        0.7508238250
 H          1.5003239960        2.5067512963        0.5324920339
 H          2.5753150688       -0.0338788858        1.4893580789
  53
        -68.44450346
 C         -7.1168730017       -0.6072096478        0.3595054754
 C         -6.6014477959        0.5708015320       -0.4609163419
 C         -5.5917025446        0.1618751498       -1.5429892913
 C         -4.1287214640        0.3716084033       -1.1503751553
 C         -3.6681064225       -0.4992623357        0.0237692450
 C         -2.1940800790       -0.3252654797        0.2481388615
 C         -1.7204015384        0.6676809541        1.0935342677
 C         -0.3589473264        0.8742058111        1.2596746715
 O          0.0842731578        1.8297853299        2.1321895997
 C          0.5764362545        0.1043161333        0.5627751638
 C          0.0914121839       -0.9435469925       -0.2227873984
 C         -1.2781948350       -1.1356182867       -0.3937185606
 O          0.8865628654       -1.8420313356       -0.8610106405
 C          2.2641543170       -1.9108330999       -0.4755465673
 C          2.3796031287       -2.6653760950        0.8526990814
 C          2.9371626216       -2.7168748416       -1.5886271904
 C          2.7965162409       -0.4731574906       -0.4072529431
 C          4.2959309081       -0.3080244413       -0.1842016893
 C          4.6759980137        1.1435458544       -0.4774470100
 C          3.6692045523        2.1293617041        0.0529037081
 C          4.0832505425        3.5674760790       -0.0470525744
 C          2.4950129972        1.7663227686        0.5484685334
 C          2.0656931996        0.3284342408        0.6745309650
 H         -7.8181892975       -0.2624945335        1.1169257474
 H         -7.6335078086       -1.3169984763       -0.2832881650
 H         -6.3044923687       -1.1287628500        0.8575356700
 H         -7.4589386542        1.0546612698       -0.9341136721
 H         -6.1435220118        1.3068137481        0.2032004267
 H         -5.7758613101        0.7517901832       -2.4438700077
 H         -5.7473139670       -0.8867344092       -1.8049105461
 H         -3.9681036019        1.4226766619       -0.8983041652
 H         -3.4989002753        0.1436071023       -2.0137973547
 H         -4.2110726303       -0.2142307327        0.9256780756
 H         -3.8860164190       -1.5449912730       -0.2006245535
 H         -2.4188105639        1.2891694492        1.6401521194
 H         -0.6777008995        2.2494744452        2.5491513152
 H         -1.6007264677       -1.9448260817       -1.0295741903
 H          1.7434010066       -2.2123485192        1.6087769078
 H          2.0572647564       -3.6946888566        0.7127740107
 H          3.4085067893       -2.6627602746        1.2007735718
 H          2.9871111657       -2.1323849981       -2.5035837108
 H          2.3458972300       -3.6079118349       -1.7831425095
 H          3.9384914122       -3.0164811505       -1.2957160343
 H          2.5467777175       -0.0186962591       -1.3752622386
 H          4.8686073778       -0.9711518499       -0.8334073590
 H          4.5423367928       -0.5504743290        0.8513056240
 H          5.6597115377        1.3655073668       -0.0543423704
 H          4.7568997354        1.2876741443       -1.5607803418
 H          4.3199350653        3.8233557425       -1.0798516591
 H          4.9772778705        3.7468209344        0.5503253952
 H          3.2932727537        4.2256633377        0.3041126672
 H          1.8108596640        2.5116471523        0.9180941929
 H          2.3860543634       -0.0156316283        1.6699120061
  53
        -68.44450394
 C         -7.1187805598       -0.5989326361        0.3638467956
 C         -6.6002551543        0.5716191996       -0.4652855103
 C         -5.5917709459        0.1516465955       -1.5443603281
 C         -4.1283300047        0.3626510828       -1.1541862855
 C         -3.6684856505       -0.4990443824        0.0270130453
 C         -2.1943443899       -0.3243036706        0.2501904120
 C         -1.7201224006        0.6689253528        1.0949034964
 C         -0.3585435616        0.8755725210        1.2600050058
 O          0.0854190625        1.8312289453        2.1320902715
 C          0.5763188827        0.1056011802        0.5625597192
 C          0.0908343330       -0.9422117769       -0.2227811470
 C         -1.2788654412       -1.1345200594       -0.3924664892
 O          0.8857344342       -1.8403899942       -0.8617743809
 C          2.2632365521       -1.9101570599       -0.4761371146
 C          2.3779369483       -2.6655137020        0.8517068503
 C          2.9357759569       -2.7160130206       -1.5896631549
 C          2.7966505810       -0.4729052730       -0.4070428282
 C          4.2959484069       -0.3092039714       -0.1821160644
 C          4.6778997187        1.1420907334       -0.4744431163
 C          3.6704337180        2.1289698794        0.0526758898
 C          4.0851028344        3.5667818197       -0.0491237091
 C          2.4952964950        1.7670686630        0.5468468924
 C          2.0655797872        0.3294082723        0.6740548981
 H         -7.8184378920       -0.2467542553        1.1194093116
 H         -7.6381968852       -1.3115745411       -0.2736019430
 H         -6.3075908247       -1.1195587851        0.8648373643
 H         -7.4564562112        1.0543796021       -0.9419384296
 H         -6.1401603379        1.3111995284        0.1932954693
 H         -5.7754974994        0.7337587439       -2.4504204706
 H         -5.7490240799       -0.8990106597       -1.7967635486
 H         -3.9661707686        1.4154936436       -0.9109057007
 H         -3.4992269162        0.1265030143       -2.0159027037
 H         -4.2114251665       -0.2066077775        0.9265704078
 H         -3.8870370909       -1.5463915256       -0.1890486310
 H         -2.4181460241        1.2904028505        1.6420303353
 H         -0.6761658929        2.2509937731        2.5496712406
 H         -1.6019061526       -1.9438497907       -1.0279121211
 H          3.4070935912       -2.6652562250        1.1990308867
 H          1.7432919917       -2.2114239029        1.6084627356
 H          2.0532717759       -3.6940744874        0.7115469090
 H          2.9856601397       -2.1312114287       -2.5044261511
 H          2.3442441465       -3.6068242310       -1.7843917935
 H          3.9371274822       -3.0159370036       -1.2971460143
 H          2.5484464861       -0.0180272265       -1.3752432591
 H          4.8688669715       -0.9727068996       -0.8307461183
 H          4.5407102591       -0.5522695845        0.8536329492
 H          5.6605565123        1.3633529738       -0.0485047081
 H          4.7621218550        1.2859884917       -1.5575437946
 H          4.9778251410        3.7470454061        0.5499447418
 H          3.2945335990        4.2258922587        0.2989800907
 H          4.3242091931        3.8205951238       -1.0818818632
 H          1.8105155487        2.5131138615        0.9138582945
 H          2.3857506025       -0.0139998244        1.6697043681
  53
        -68.44449652
 C         -6.9864996376        0.6858255734       -1.1741579729
 C         -6.7062571403       -0.0235866760        0.1466709301
 C         -5.7949398369       -1.2501404406       -0.0042794938
 C         -4.3278971991       -0.9903498775        0.3402925857
 C         -3.6345076761        0.0038027986       -0.5978652282
 C         -2.1727074113        0.0971395751       -0.2682577715
 C         -1.7181127697        1.0073490663        0.6749464509
 C         -0.3723610342        1.0843962582        1.0018490091
 O          0.0466478283        1.9634955230        1.9623420313
 C          0.5685350436        0.2613440609        0.3768876229
 C          0.0903436456       -0.7082461919       -0.5072907903
 C         -1.2616898255       -0.7703175863       -0.8385440640
 O          0.8748756977       -1.6482399134       -1.0969850447
 C          2.1907766134       -1.8510672795       -0.5694926092
 C          2.0957149079       -2.6649028036        0.7249754273
 C          2.9152599153       -2.6676158361       -1.6418967911
 C          2.8280982433       -0.4688511022       -0.3741232726
 C          4.3016871147       -0.4436834672        0.0172611408
 C          4.8301177380        0.9796275754       -0.1626642439
 C          3.8547050235        2.0277314311        0.3028728529
 C          4.3937605787        3.4272835954        0.3172826407
 C          2.6067840328        1.7490568848        0.6509108546
 C          2.0492855741        0.3501818751        0.6601045500
 H         -6.0676679782        1.0228265864       -1.6455464542
 H         -7.4955322855        0.0140213679       -1.8623027217
 H         -7.6252189729        1.5516051619       -1.0102995012
 H         -6.2557483550        0.6788880823        0.8509195068
 H         -7.6623732934       -0.3366010345        0.5723423213
 H         -5.8630162608       -1.6273765479       -1.0266892729
 H         -6.1507818502       -2.0427196296        0.6581514145
 H         -3.7856707160       -1.9381025271        0.2968678589
 H         -4.2567732276       -0.6208339345        1.3662101729
 H         -3.7577509717       -0.3330868828       -1.6287174868
 H         -4.0945593609        0.9870835168       -0.4937225262
 H         -2.4194429422        1.6698280479        1.1669550736
 H         -0.7198433254        2.4350065226        2.3098618531
 H         -1.5762154372       -1.5206430361       -1.5465728430
 H          3.0763644310       -2.7658212903        1.1809888471
 H          1.4191378598       -2.1883708952        1.4298302185
 H          1.7072669794       -3.6558737116        0.5011202491
 H          3.8499593050       -3.0642659976       -1.2581689178
 H          3.1142549214       -2.0536531955       -2.5163694533
 H          2.2784320716       -3.4956081785       -1.9423231114
 H          2.7261599754        0.0433592083       -1.3401333113
 H          4.8868669860       -1.1282954238       -0.5975891998
 H          4.4100517061       -0.7468698450        1.0603892438
 H          5.7752411619        1.0985198804        0.3745528705
 H          5.0431931294        1.1583517150       -1.2226504982
 H          5.2277277086        3.5050296913        1.0149511607
 H          3.6263009507        4.1373640489        0.6129360174
 H          4.7636251589        3.7015977797       -0.6707124727
 H          1.9492265369        2.5361720815        0.9799144808
 H          2.2269982545       -0.0592693310        1.6663478019
  53
        -68.44448558
 C         -6.5058344031       -2.5968831494        0.1644058933
 C         -6.7734369353       -1.1208482654        0.4347090139
 C         -5.9067413482       -0.1877190296       -0.4116744642
 C         -4.4262390833       -0.2401594496       -0.0435039279
 C         -3.6040651666        0.7677404377       -0.8550400667
 C         -2.1513902392        0.6840033239       -0.4854040390
 C         -1.6307047455        1.4880083944        0.5193248026
 C         -0.2944180442        1.3967759657        0.8781012740
 O          0.2174789493        2.1727351483        1.8792758717
 C          0.5607162638        0.5005882332        0.2333231411
 C          0.0146229599       -0.3535371616       -0.7242609759
 C         -1.3254808425       -0.2455871141       -1.0890764767
 O          0.7276947243       -1.3265002375       -1.3514135607
 C          1.9772307762       -1.7067266978       -0.7638772912
 C          1.6977605888       -2.5520030202        0.4831216915
 C          2.6732633403       -2.5531500175       -1.8305500191
 C          2.7691477037       -0.4229340557       -0.4676855551
 C          4.2261831881       -0.6328039079       -0.0415399946
 C          4.7282516193        0.4805603889        0.9018323001
 C          4.0374163582        1.7936554683        0.6580065661
 C          4.8785642191        3.0281676110        0.5994392036
 C          2.7170471297        1.7787652116        0.5327259465
 C          2.0262465469        0.4441807524        0.5636497704
 H         -7.1973575038       -3.2159270959        0.7317741808
 H         -6.6357498118       -2.8190554654       -0.8926830478
 H         -5.4940021932       -2.8695830564        0.4520859207
 H         -7.8240138411       -0.9089751109        0.2208382752
 H         -6.6032728995       -0.9091567730        1.4929298502
 H         -6.2648356440        0.8369520269       -0.2808781930
 H         -6.0259831534       -0.4453632097       -1.4667685632
 H         -4.0290366105       -1.2391254402       -0.2268432771
 H         -4.3069668657       -0.0245760978        1.0209876774
 H         -3.7266652918        0.5526874783       -1.9182605148
 H         -3.9803182616        1.7753190888       -0.6652991598
 H         -2.2701133229        2.1983104559        1.0281518936
 H         -0.4829230568        2.7342741615        2.2318919138
 H         -1.7010885549       -0.9090990292       -1.8518357637
 H          1.0484227455       -2.0148470115        1.1698329896
 H          1.1949256607       -3.4705309278        0.1891346304
 H          2.6209525896       -2.8080655785        0.9944116252
 H          2.0064946518       -3.3508878052       -2.1472544729
 H          3.5871189125       -2.9875166207       -1.4378687829
 H          2.9105991712       -1.9411830236       -2.6967203238
 H          2.7633062352        0.1471268389       -1.4058315738
 H          4.8550908750       -0.6576113867       -0.9324068371
 H          4.3415670935       -1.5917987117        0.4654076890
 H          4.5255823990        0.1796040590        1.9349213759
 H          5.8088930043        0.5876652043        0.8001259437
 H          4.2601536944        3.9110568410        0.4606255202
 H          5.5880720656        2.9633168323       -0.2258595528
 H          5.4503836598        3.1415747777        1.5205264532
 H          2.1382430361        2.6691504236        0.3555329782
 H          2.1556009733        0.0115831167        1.5656522474
  53
        -68.44447330
 C         -6.9015925273       -0.7505986286        1.6784200932
 C         -6.7393635979       -1.3349559113        0.2798635464
 C         -5.8710960652       -0.4721288755       -0.6365380398
 C         -4.4050830307       -0.4279448733       -0.2132602240
 C         -3.5510824511        0.3645183230       -1.2098649256
 C         -2.1163857947        0.3960479100       -0.7688056670
 C         -1.6685263406        1.3840475111        0.0978779229
 C         -0.3503186624        1.4055170829        0.5266663212
 O          0.0890548690        2.3640182228        1.3954716784
 C          0.5604287572        0.4406478923        0.0906249643
 C          0.0866194000       -0.5884223989       -0.7223384305
 C         -1.2365762827       -0.5957482804       -1.1588064262
 O          0.8568126057       -1.6300493579       -1.1347515849
 C          2.0869965433       -1.8543273921       -0.4365716987
 C          1.7721032010       -2.4776982574        0.9271907997
 C          2.8583997834       -2.8480680310       -1.3061536211
 C          2.8259906822       -0.5099435272       -0.3385077252
 C          4.2660481409       -0.5877916588        0.1802008707
 C          4.6878466084        0.6895950075        0.9363495828
 C          3.9736500250        1.9142504032        0.4353896246
 C          4.7814546170        3.1497951269        0.1990729204
 C          2.6622866290        1.8294101786        0.2555612968
 C          2.0086641926        0.4963928168        0.4901654488
 H         -7.5888879858       -1.3575202893        2.2636840146
 H         -5.9495148572       -0.7195136930        2.2015212155
 H         -7.2994632801        0.2607185534        1.6241898885
 H         -6.3029758721       -2.3337364908        0.3524969464
 H         -7.7277629565       -1.4388812083       -0.1746033553
 H         -6.2725918453        0.5440644148       -0.6598814436
 H         -5.9298110718       -0.8722069831       -1.6520472785
 H         -4.0141255185       -1.4452359401       -0.1417922829
 H         -4.3131332902        0.0334694532        0.7711078919
 H         -3.6242674458       -0.1011812312       -2.1943400212
 H         -3.9406195062        1.3822555247       -1.2840798910
 H         -2.3517311522        2.1504007339        0.4417341251
 H         -0.6432292256        2.9537731831        1.6103831230
 H         -1.5552750199       -1.3975601245       -1.8058116719
 H          1.3126051379       -3.4523248233        0.7791849007
 H          2.6762115243       -2.6040441524        1.5153173665
 H          1.0735041992       -1.8538173368        1.4789899212
 H          3.7641886512       -3.1728468610       -0.8041117372
 H          3.1199399933       -2.3888471848       -2.2557840597
 H          2.2312387526       -3.7130691482       -1.5053436019
 H          2.8494421576       -0.1138431234       -1.3620622999
 H          4.9384498399       -0.7417873523       -0.6647637859
 H          4.3851407118       -1.4399729548        0.8507100949
 H          4.4412443875        0.5648313819        1.9958639930
 H          5.7688336021        0.8168405904        0.8665254167
 H          4.1461725577        3.9717585561       -0.1202710093
 H          5.5336567072        2.9685634855       -0.5690701505
 H          5.3021201134        3.4425737527        1.1108970061
 H          2.0683763671        2.6535455362       -0.1011533109
 H          2.0999942590        0.2502503492        1.5573943163
  53
        -68.44438887
 C         -3.5346051838        1.1592408481       -2.6392634812
 C         -3.6537010998        0.9625934586       -1.1329956479
 C         -4.6597420301       -0.1345767339       -0.7895454579
 C         -4.7904147203       -0.3962912850        0.7138966179
 C         -3.7977095180       -1.4391217832        1.2478603095
 C         -2.3661036970       -1.0155343274        1.0955122438
 C         -1.8412843798       -0.0225600107        1.9141155308
 C         -0.5383637114        0.4178670281        1.7457469251
 O         -0.0112367463        1.3802698276        2.5595179263
 C          0.2764903207       -0.1206666973        0.7466528651
 C         -0.2292193808       -1.1718575747       -0.0163821774
 C         -1.5454571875       -1.5998055090        0.1494291499
 O          0.5017732200       -1.8375338949       -0.9493688538
 C          1.9247164876       -1.6824425147       -0.9009717036
 C          2.4687420899       -2.4963954374        0.2775790068
 C          2.4301130820       -2.2634421683       -2.2222164241
 C          2.2318410924       -0.1794928829       -0.8001119821
 C          3.7071046763        0.2028070553       -0.9610189622
 C          4.0730084010        1.4769134894       -0.1707066366
 C          2.9068706066        2.4142961201       -0.0211702257
 C          3.1406194981        3.8696079895       -0.2707978734
 C          1.7440784688        1.8934633949        0.3475221178
 C          1.6656723028        0.4009534210        0.5074522527
 H         -4.4991793150        1.4191199959       -3.0714596857
 H         -2.8302219401        1.9560987928       -2.8663956075
 H         -3.1817045637        0.2457788177       -3.1127457473
 H         -2.6753065823        0.7066592267       -0.7264941731
 H         -3.9745399578        1.8992241098       -0.6696664627
 H         -4.3689257242       -1.0585630191       -1.2929980764
 H         -5.6353199354        0.1602467915       -1.1854255092
 H         -5.7979749756       -0.7618658514        0.9270809382
 H         -4.6592496287        0.5424953128        1.2556975453
 H         -4.0130604229       -1.6060173477        2.3069389485
 H         -3.9567256608       -2.3808745078        0.7198143332
 H         -2.4550399611        0.4165359892        2.6902498715
 H         -0.6796231966        1.6527220736        3.1991994509
 H         -1.9021681094       -2.3991239268       -0.4804271241
 H          3.5398534071       -2.3547411776        0.3866403794
 H          1.9759619251       -2.2054091194        1.2018300216
 H          2.2717464404       -3.5522192596        0.1063175782
 H          2.0416501484       -3.2712775670       -2.3432291920
 H          3.5149025181       -2.2959258407       -2.2355017360
 H          2.0794915601       -1.6590317342       -3.0545997422
 H          1.6636118028        0.2902804462       -1.6135402300
 H          3.9170340947        0.3652419855       -2.0190077884
 H          4.3513680458       -0.6096208851       -0.6221064280
 H          4.3999350321        1.1830085968        0.8321230822
 H          4.9129033112        1.9787922362       -0.6526773587
 H          2.2350759586        4.4430910602       -0.0910199700
 H          3.4589649236        4.0300177004       -1.3011500087
 H          3.9288023796        4.2445388365        0.3822016053
 H          0.8549491750        2.4864107533        0.4787889317
 H          2.3119614048        0.1091689866        1.3471138056
  53
        -68.44435280
 C         -4.4999735258       -1.3076672007       -3.0719738842
 C         -4.8378023636       -1.0875201239       -1.6024910872
 C         -4.2498549665        0.2226085893       -1.0833436533
 C         -4.5628349284        0.4908700850        0.3883683589
 C         -3.8217066929       -0.4438661004        1.3556825488
 C         -2.3327393807       -0.2924955773        1.2313653361
 C         -1.6947360453        0.7925595206        1.8080789932
 C         -0.3201026228        0.9772234917        1.6856703601
 O          0.2015032532        2.0977159038        2.2566882430
 C          0.4414385711        0.0387799518        0.9968704049
 C         -0.2193766134       -1.0076006455        0.3457487296
 C         -1.5876539060       -1.1870152873        0.4764900440
 O          0.4885641936       -1.9064277126       -0.3977376255
 C          1.5516127182       -1.4221751746       -1.2419419098
 C          2.6230001618       -2.5136305979       -1.2019837586
 C          0.9802301200       -1.3055208759       -2.6608373609
 C          2.0710910354       -0.0483531101       -0.7677501047
 C          3.4896669780        0.3026536624       -1.2004711179
 C          3.7920316251        1.7338772571       -0.7584356376
 C          3.6005445260        1.8779975184        0.7262165903
 C          4.4226072660        2.9323416786        1.4004208983
 C          2.7629610969        1.0909670005        1.3922234020
 C          1.9361971679        0.0125872324        0.7642404586
 H         -3.4215654782       -1.3510956259       -3.2100102184
 H         -4.9296956315       -2.2404877760       -3.4303935772
 H         -4.8895282054       -0.4942294923       -3.6807815714
 H         -5.9231967202       -1.0718921196       -1.4762036497
 H         -4.4482849394       -1.9241499546       -1.0210759601
 H         -4.6517654291        1.0449878055       -1.6810414457
 H         -3.1664824033        0.2128396617       -1.2203105268
 H         -5.6384133139        0.3912677207        0.5532186439
 H         -4.2818824986        1.5199006664        0.6228147860
 H         -4.1277595426       -0.1963193435        2.3744844683
 H         -4.1065024774       -1.4777451447        1.1599119462
 H         -2.2511463626        1.5278718916        2.3678418724
 H          1.1393108959        2.1678211890        2.0240081957
 H         -2.0507751198       -2.0265846825       -0.0168779334
 H          2.1424094478       -3.4746433902       -1.3658404827
 H          3.3674893397       -2.3534083468       -1.9754200019
 H          3.1118017528       -2.5415709955       -0.2314451536
 H          0.6378377585       -2.2792921193       -3.0010299525
 H          1.7363283127       -0.9351800885       -3.3478126645
 H          0.1330470695       -0.6223307152       -2.6644924348
 H          1.4046646554        0.7182339240       -1.1844158944
 H          3.5916270762        0.2174269605       -2.2836356633
 H          4.2069246920       -0.3713596263       -0.7307433664
 H          4.8198719720        1.9968522280       -1.0179558815
 H          3.1348742927        2.4324913550       -1.2863895300
 H          4.2451978733        3.9011450361        0.9338331380
 H          5.4839277199        2.7067119023        1.2975609794
 H          4.1845807674        3.0041755596        2.4588469073
 H          2.7264654537        1.1348484392        2.4751153235
 H          2.2935462789       -0.9441540999        1.1792940883
  53
        -68.44433799
 C         -3.8649495327        2.3551552682       -1.4683805967
 C         -3.6635011147        0.8568522726       -1.2758054381
 C         -4.7864535841        0.2422298665       -0.4419252406
 C         -4.6079918667       -1.2572838361       -0.1860239831
 C         -3.7793569529       -1.5783487471        1.0661243217
 C         -2.3613518446       -1.0967132869        0.9669855609
 C         -1.9276888317       -0.0000873257        1.6998295561
 C         -0.6325294771        0.4767200421        1.5617228581
 O         -0.1962808733        1.5448225551        2.2930761669
 C          0.2627918022       -0.1292902591        0.6783973799
 C         -0.1540333604       -1.2787274585        0.0068494969
 C         -1.4596206398       -1.7438786687        0.1412814021
 O          0.6607403209       -2.0080094699       -0.8009674487
 C          2.0707690930       -1.7853906651       -0.6843406714
 C          2.5676394721       -2.4409161634        0.6082246279
 C          2.6822603487       -2.4839396040       -1.8995367017
 C          2.3139263557       -0.2682398573       -0.7336300684
 C          3.7808503479        0.1601412021       -0.8475837059
 C          4.0457595899        1.5289779073       -0.1856524575
 C          2.8369720893        2.4229804794       -0.2114357919
 C          3.0297707275        3.8514524977       -0.6079973484
 C          1.6740012079        1.8933051497        0.1438320154
 C          1.6433422496        0.4251933772        0.4648662570
 H         -3.8687742366        2.8656254089       -0.5073902274
 H         -3.0649049593        2.7735880259       -2.0745835115
 H         -4.8127509819        2.5554541221       -1.9644541360
 H         -3.6362045875        0.3672589502       -2.2520833737
 H         -2.7031867099        0.6804602091       -0.7913635262
 H         -5.7305414170        0.4031525296       -0.9693625646
 H         -4.8558131220        0.7668068769        0.5136658054
 H         -4.1386679694       -1.7179790079       -1.0568212797
 H         -5.5913376677       -1.7162321515       -0.0569132617
 H         -4.2620594468       -1.1271759883        1.9356818229
 H         -3.7790985780       -2.6623091465        1.2062269382
 H         -2.6048772033        0.4972264994        2.3826196795
 H         -0.9150262192        1.8561556533        2.8557869252
 H         -1.7471863302       -2.6233642858       -0.4124489397
 H          3.6234931573       -2.2409513116        0.7645985346
 H          2.0058261557       -2.0727385811        1.4629580729
 H          2.4215546489       -3.5167963102        0.5443401179
 H          2.3405502902       -3.5152133022       -1.9304301059
 H          3.7660751261       -2.4693337404       -1.8436416350
 H          2.3638335897       -1.9901399881       -2.8137996678
 H          1.7818623604        0.0841936478       -1.6269108193
 H          4.0527263657        0.2140787201       -1.9025651554
 H          4.4321875383       -0.5800152226       -0.3807896764
 H          4.3194652761        1.3625056708        0.8614000958
 H          4.8944491230        2.0127146293       -0.6707744536
 H          3.4068006034        3.9127656720       -1.6291745167
 H          3.7595613220        4.3309201446        0.0445042886
 H          2.0930907868        4.3993214326       -0.5473498750
 H          0.7560565243        2.4560407822        0.1549759265
 H          2.2454604108        0.2566049132        1.3686876024
  53
        -68.44428199
 C         -4.1103480710       -0.7247337908        2.9524352140
 C         -3.7895251265       -1.1092772900        1.5129693932
 C         -4.9135805720       -0.7038442372        0.5611865334
 C         -4.6431991374       -1.0690891215       -0.9010724638
 C         -3.8365142781       -0.0132560635       -1.6701044389
 C         -2.4380860074        0.1600820773       -1.1522725092
 C         -2.0714971610        1.3056084787       -0.4587421060
 C         -0.7816632961        1.4573764240        0.0284788185
 O         -0.4265355481        2.5706590522        0.7360166046
 C          0.1827595733        0.4692680356       -0.1782288789
 C         -0.2073887968       -0.7030631216       -0.8258982990
 C         -1.4994119235       -0.8409024026       -1.3262856243
 O          0.6198094412       -1.7668235455       -1.0069708196
 C          1.8034542570       -1.8202108504       -0.2025641962
 C          1.4097466707       -2.2089411384        1.2262651756
 C          2.6595611996       -2.9197598121       -0.8323190766
 C          2.4980413867       -0.4520093115       -0.2954625862
 C          3.9002766809       -0.3830108088        0.3187796069
 C          4.2372751857        1.0239365401        0.8561688289
 C          3.5237783425        2.1123120098        0.1029283445
 C          4.3109763383        3.3174275739       -0.3007381572
 C          2.2298712974        1.9465832910       -0.1370783568
 C          1.5994865304        0.6508585094        0.2905865852
 H         -3.3060631305       -1.0288141364        3.6183270210
 H         -4.2377690553        0.3523387885        3.0398660144
 H         -5.0296511976       -1.2044881355        3.2827820547
 H         -2.8576583104       -0.6322606860        1.2096975455
 H         -3.6430612135       -2.1901917819        1.4514942045
 H         -5.0842683038        0.3722096499        0.6403438513
 H         -5.8309150155       -1.2026211674        0.8856561575
 H         -5.5989254809       -1.1921195497       -1.4167171997
 H         -4.1193298623       -2.0253751407       -0.9422370249
 H         -3.7886321396       -0.3195851769       -2.7183710441
 H         -4.3665667782        0.9404338360       -1.6234055196
 H         -2.7978382891        2.0898957120       -0.2866990425
 H         -1.1900649387        3.1556031430        0.8073272346
 H         -1.7510229001       -1.7540810291       -1.8415709810
 H          0.6591102358       -1.5251341600        1.6145736935
 H          0.9857384443       -3.2105076212        1.2220232513
 H          2.2735761735       -2.1986076777        1.8842577388
 H          2.0709287029       -3.8296042002       -0.9159007735
 H          3.5363352291       -3.1173620375       -0.2238382672
 H          2.9745718809       -2.6229956415       -1.8292297285
 H          2.5815060115       -0.2389751016       -1.3691606571
 H          4.6328017125       -0.6613245372       -0.4399917091
 H          3.9934771721       -1.0964492676        1.1387369577
 H          3.9265318167        1.0801629279        1.9046036211
 H          5.3165998460        1.1783500058        0.8280425788
 H          5.1164713780        3.0332700706       -0.9783425853
 H          4.7627402880        3.7857470640        0.5738080779
 H          3.6755714965        4.0453468851       -0.7983382998
 H          1.6382505721        2.6716990567       -0.6694492386
 H          1.6268626051        0.5992776558        1.3881311718
  53
        -68.44428074
 C         -4.0618931399       -0.7336988383        2.9589298324
 C         -3.7651880554       -1.1243146206        1.5159801867
 C         -4.8942964966       -0.7023159326        0.5773955917
 C         -4.6447332512       -1.0695975642       -0.8881721703
 C         -3.8432799570       -0.0173262745       -1.6675473315
 C         -2.4431653154        0.1596381058       -1.1558623181
 C         -2.0768079415        1.3062347762       -0.4641180804
 C         -0.7867079322        1.4594458739        0.0219157834
 O         -0.4318333484        2.5737201931        0.7280168237
 C          0.1780549974        0.4714709906       -0.1839066668
 C         -0.2114504345       -0.7013461006       -0.8311421842
 C         -1.5036198897       -0.8404042089       -1.3307751111
 O          0.6163713154       -1.7647847587       -1.0114366938
 C          1.7982017785       -1.8183161063       -0.2043723763
 C          1.4010775650       -2.2062072616        1.2237893602
 C          2.6552273627       -2.9185297373       -0.8316651980
 C          2.4935512339       -0.4504561385       -0.2964480427
 C          3.8943106920       -0.3815096767        0.3211857732
 C          4.2299124269        1.0253553798        0.8596387400
 C          3.5191480381        2.1137515881        0.1038460239
 C          4.3080431182        3.3184052811       -0.2979467901
 C          2.2258951963        1.9483231747       -0.1398665750
 C          1.5940958064        0.6530483126        0.2869957575
 H         -4.9847960827       -1.1980243144        3.3009982313
 H         -3.2545797917       -1.0506036538        3.6151042670
 H         -4.1703647947        0.3453634014        3.0470777490
 H         -2.8298502807       -0.6621113669        1.2008306329
 H         -3.6364764045       -2.2074378939        1.4537773508
 H         -5.0490848256        0.3758716369        0.6595284181
 H         -5.8147094279       -1.1886381435        0.9118239763
 H         -5.6072244349       -1.1890261990       -1.3918230260
 H         -4.1251433971       -2.0279171147       -0.9354723783
 H         -3.8003425466       -0.3293315810       -2.7142947029
 H         -4.3739541428        0.9361049636       -1.6232401802
 H         -2.8036004329        2.0900877446       -0.2921091108
 H         -1.1956031265        3.1583814571        0.7988792840
 H         -1.7551560994       -1.7543339352       -1.8447625718
 H          0.9762307644       -3.2074496201        1.2190598117
 H          2.2634670526       -2.1963067792        1.8837055654
 H          0.6501750532       -1.5216351818        1.6103075816
 H          3.5306894692       -3.1160602722       -0.2212717986
 H          2.9724052835       -2.6224486422       -1.8280832887
 H          2.0664808801       -3.8282270704       -0.9159003527
 H          2.5795509663       -0.2380898848       -1.3700624306
 H          4.6287246105       -0.6596801530       -0.4358111554
 H          3.9855326720       -1.0950258612        1.1412913254
 H          3.9156489862        1.0816970085        1.9070343231
 H          5.3093796014        1.1794778001        0.8351800155
 H          4.7567024389        3.7873173306        0.5779073341
 H          3.6746158327        4.0461405342       -0.7983580281
 H          5.1158913946        3.0336253024       -0.9725109432
 H          1.6359451243        2.6732818973       -0.6742846446
 H          1.6192667850        0.6020202665        1.3846409780
  53
        -68.44426149
 C         -3.1212823334       -2.4172203919        1.3968582950
 C         -3.8745608061       -1.1161987944        1.6462366505
 C         -5.0592005886       -0.9066455796        0.7013243881
 C         -4.7175759674       -0.8172290466       -0.7869490803
 C         -3.9843813869        0.4666574137       -1.1987638373
 C         -2.5424647880        0.5064094532       -0.7785845953
 C         -2.0791692933        1.4818242500        0.0947190524
 C         -0.7486431868        1.5123126461        0.4852884779
 O         -0.2987563452        2.4544063939        1.3664360905
 C          0.1610291715        0.5689589134        0.0038608127
 C         -0.3199675589       -0.4360091189       -0.8345865880
 C         -1.6518628546       -0.4452689183       -1.2407738468
 O          0.4515599715       -1.4555863293       -1.2978208589
 C          1.6848169030       -1.7025527886       -0.6128003629
 C          1.3741057903       -2.3646620915        0.7335919241
 C          2.4508587121       -2.6713785467       -1.5143265296
 C          2.4248755461       -0.3617162024       -0.4802410371
 C          3.8682323483       -0.4534431384        0.0259260899
 C          4.2989381277        0.8085553936        0.8031312726
 C          3.5752100755        2.0432728753        0.3416915278
 C          4.3772836548        3.2864694006        0.1269635813
 C          2.2617790669        1.9602079359        0.1764977892
 C          1.6143856671        0.6197402634        0.3840606966
 H         -2.5824320368       -2.3779081892        0.4541560773
 H         -2.3956804969       -2.5868279993        2.1895774267
 H         -3.8083199810       -3.2609767307        1.3747584323
 H         -4.2621139491       -1.1231473180        2.6688617241
 H         -3.1798502481       -0.2811866916        1.5610119489
 H         -5.5827195229        0.0069583301        0.9963176573
 H         -5.7561139963       -1.7387295143        0.8375521212
 H         -5.6575279291       -0.8568291799       -1.3443269754
 H         -4.1277971821       -1.6844934912       -1.0810199315
 H         -4.0252008011        0.5428822990       -2.2892550197
 H         -4.5128474616        1.3283511606       -0.7853586430
 H         -2.7622895020        2.2259527708        0.4857020332
 H         -1.0323154012        3.0281755762        1.6172702606
 H         -1.9681520304       -1.2213432120       -1.9198726709
 H          0.9109483826       -3.3332772478        0.5593981974
 H          2.2804822281       -2.5106232943        1.3136277213
 H          0.6793560151       -1.7555808222        1.3064585598
 H          2.7077440552       -2.1854728265       -2.4518830078
 H          1.8224094659       -3.5303279527       -1.7346592575
 H          3.3590514364       -3.0104739067       -1.0262924813
 H          2.4411872797        0.0640793476       -1.4919922456
 H          4.5339158988       -0.5935068993       -0.8267438235
 H          3.9891428576       -1.3186022402        0.6793336459
 H          4.0691549149        0.6601303554        1.8633762194
 H          5.3784520167        0.9400091490        0.7196866114
 H          5.1192598513        3.1271503593       -0.6558549493
 H          4.9098118369        3.5564993658        1.0389650216
 H          3.7360918633        4.1150254128       -0.1621311883
 H          1.6615506260        2.7920006738       -0.1507642204
 H          1.7197824573        0.3457211142        1.4432524372
  53
        -68.44425166
 C         -5.3609638195       -0.8448126858        2.3642249990
 C         -5.8286884502        0.1453008465        1.3037808138
 C         -4.7852136219        0.3952180450        0.2147739076
 C         -4.5442035974       -0.8191027276       -0.6777370869
 C         -3.5357081813       -0.5173043149       -1.7935195241
 C         -2.1762820860       -0.2183921245       -1.2294672111
 C         -1.6982669476        1.0783669260       -1.1711766978
 C         -0.4590783106        1.3712073901       -0.6050490251
 O         -0.0637368048        2.6735799204       -0.6387159820
 C          0.3030565369        0.3492569080       -0.0502304942
 C         -0.1463015999       -0.9687215761       -0.1897884305
 C         -1.3789440883       -1.2514472972       -0.7553107324
 O          0.6095403117       -2.0034216382        0.2784749999
 C          2.0371993770       -1.9667405372        0.0837889632
 C          2.6309732113       -2.6006632440        1.3435491154
 C          2.3463341710       -2.8454819674       -1.1348989234
 C          2.5385048919       -0.5282940341       -0.1617540286
 C          4.0111916947       -0.2849672645        0.1461503516
 C          4.3650333219        1.1418658368       -0.2710074569
 C          3.4705570775        2.1303924722        0.4248081745
 C          4.0426999080        3.4953420869        0.6519520825
 C          2.2523820547        1.7900159263        0.8306627314
 C          1.6460129106        0.4343704939        0.6415508705
 H         -5.2207822703       -1.8355255732        1.9402218674
 H         -4.4168021055       -0.5191904319        2.7954552838
 H         -6.0963168499       -0.9198882733        3.1625478659
 H         -6.7503868130       -0.2216756813        0.8453620692
 H         -6.0587127947        1.0968801445        1.7893456794
 H         -3.8421891421        0.6912274929        0.6788473474
 H         -5.1220643575        1.2270380980       -0.4092169678
 H         -5.4905396280       -1.1311801882       -1.1266754673
 H         -4.1636353354       -1.6471129466       -0.0788709042
 H         -3.4717928679       -1.3855717752       -2.4536227906
 H         -3.8889687019        0.3327055795       -2.3799189932
 H         -2.2721318890        1.8998862841       -1.5700283876
 H          0.8464068570        2.7397287064       -0.3133739171
 H         -1.6992239779       -2.2791403928       -0.8227042746
 H          3.6832499771       -2.8268791032        1.2031811664
 H          2.5154087856       -1.9425893483        2.2010415731
 H          2.0945813493       -3.5229716332        1.5509252394
 H          1.8182095205       -2.4675452890       -2.0080734218
 H          2.0156009813       -3.8636284817       -0.9476631236
 H          3.4132723957       -2.8511437042       -1.3407166689
 H          2.3862492499       -0.3032829571       -1.2254750428
 H          4.6378982519       -0.9974157010       -0.3928053647
 H          4.1986062871       -0.3976407298        1.2146347421
 H          5.4062271944        1.3579289831       -0.0215948209
 H          4.2620681641        1.2481690717       -1.3557751177
 H          4.3651795473        3.9285345213       -0.2946772901
 H          4.9161024635        3.4354613445        1.3011602932
 H          3.3143594419        4.1592125045        1.1111621048
 H          1.6708494360        2.4808692689        1.4310467655
 H          1.4993838529        0.0090001441        1.6479553664
  53
        -68.44418094
 C         -7.0595102624       -0.2404298902        1.1645186122
 C         -5.6181840595        0.0581299306        1.5617335981
 C         -4.7180494548        0.3842941374        0.3698386929
 C         -4.4839053495       -0.8089565404       -0.5526941920
 C         -3.4894557597       -0.4804905774       -1.6742848212
 C         -2.1178150414       -0.2064746737       -1.1279704589
 C         -1.6389319262        1.0870394358       -1.0210406203
 C         -0.3879320062        1.3553320314       -0.4689369145
 O          0.0057683331        2.6585081450       -0.4503495993
 C          0.3866202504        0.3098616414        0.0209426209
 C         -0.0643565796       -1.0009721907       -0.1706472546
 C         -1.3095133835       -1.2591676590       -0.7203659116
 O          0.7032799045       -2.0547990544        0.2308466775
 C          2.1261853981       -2.0053507373        0.0060845148
 C          2.7487139149       -2.6987029855        1.2197833757
 C          2.4089602043       -2.8227547973       -1.2607206075
 C          2.6204868129       -0.5555418366       -0.1800217592
 C          4.0989603785       -0.3238177018        0.1086200615
 C          4.4420754161        1.1224553108       -0.2459417608
 C          3.5607803312        2.0740650404        0.5151206960
 C          4.1355228082        3.4278300419        0.7962793786
 C          2.3517023713        1.7115461384        0.9289380203
 C          1.7437640509        0.3650041701        0.6873682342
 H         -7.1200828277       -1.1419796270        0.5606139070
 H         -7.6735889069       -0.3858059072        2.0506712221
 H         -7.4749206652        0.5865794601        0.5924002608
 H         -5.6120327053        0.9108355926        2.2450745760
 H         -5.2050237031       -0.7980548361        2.0999653738
 H         -3.7511555928        0.7279877836        0.7439385980
 H         -5.1621524430        1.2022525076       -0.2026557778
 H         -5.4276757571       -1.1192062379       -1.0044192854
 H         -4.0965688118       -1.6455232148        0.0327520870
 H         -3.4427224523       -1.3290923758       -2.3607795288
 H         -3.8482054815        0.3884481785       -2.2286392612
 H         -2.2213764712        1.9250779971       -1.3701119663
 H          0.9223333115        2.7109122935       -0.1408429287
 H         -1.6311777349       -2.2830021858       -0.8279436743
 H          3.7979288766       -2.9151213483        1.0452429238
 H          2.6512220564       -2.0836514681        2.1107904711
 H          2.2183640681       -3.6313898414        1.3935113004
 H          2.0840407386       -3.8496849099       -1.1161733394
 H          3.4709890349       -2.8156077255       -1.4904697739
 H          1.8607396592       -2.4038926601       -2.1022620763
 H          2.4457386843       -0.2796544744       -1.2281969198
 H          4.7152965129       -1.0077038881       -0.4772466345
 H          4.3087879088       -0.4877623674        1.1662420339
 H          5.4878837840        1.3286307853       -0.0076945864
 H          4.3166824215        1.2810220614       -1.3219313037
 H          4.4389048595        3.9066681172       -0.1345313823
 H          5.0214695910        3.3387757321        1.4247989172
 H          3.4154096736        4.0672221831        1.3009420905
 H          1.7813058294        2.3712892785        1.5733878520
 H          1.6190560193       -0.1087784434        1.6749329510
  53
        -68.44407836
 C         -3.1949311400        0.7980723228       -2.1290787164
 C         -3.9032725387        1.2193160272       -0.8474754103
 C         -5.0456237141        0.2840165021       -0.4480246392
 C         -4.6466527222       -1.1619673108       -0.1496869484
 C         -3.8310923080       -1.3449365499        1.1374626806
 C         -2.3969754413       -0.9146516192        1.0127925836
 C         -1.8817978109        0.0990082451        1.8101340620
 C         -0.5663943836        0.5152844563        1.6679279327
 O         -0.0520294157        1.4993541151        2.4637878493
 C          0.2692460129       -0.0664558301        0.7128315811
 C         -0.2284203765       -1.1392566260       -0.0258731187
 C         -1.5521469538       -1.5467244426        0.1183577021
 O          0.5204886230       -1.8475974255       -0.9125461459
 C          1.9433242545       -1.7057344939       -0.8307260426
 C          2.4459658690       -2.4823697947        0.3905630911
 C          2.4772972883       -2.3394144595       -2.1160509018
 C          2.2651031723       -0.2034617054       -0.7754694399
 C          3.7486351096        0.1567211728       -0.9097695080
 C          4.1088783390        1.4531387327       -0.1539250029
 C          2.9510363634        2.4088124732       -0.0696803494
 C          3.2099103104        3.8516495989       -0.3633030502
 C          1.7721639559        1.9147398951        0.2844720794
 C          1.6708379207        0.4299123706        0.4945022955
 H         -2.6309200674       -0.1180649944       -1.9766331039
 H         -3.9133960157        0.6400070712       -2.9312606237
 H         -2.4961908920        1.5711967681       -2.4410498071
 H         -3.1731633862        1.2781876138       -0.0409206427
 H         -4.3244651334        2.2186733220       -0.9883734421
 H         -5.7781324283        0.2710562834       -1.2603055249
 H         -5.5443577372        0.6986883062        0.4324532424
 H         -4.0923335181       -1.5719627816       -0.9931243522
 H         -5.5668024131       -1.7439949414       -0.0482787188
 H         -4.3130805687       -0.7947943360        1.9484366551
 H         -3.8482398699       -2.4068402102        1.3996892487
 H         -2.5115836171        0.5785556943        2.5494839147
 H         -0.7351996182        1.8017351239        3.0737483385
 H         -1.8948960358       -2.3764359099       -0.4797291324
 H          2.2406819316       -3.5414705089        0.2521653790
 H          3.5154851112       -2.3488627629        0.5231468471
 H          1.9325016630       -2.1523258932        1.2901275727
 H          2.0813308191       -3.3471357226       -2.2110784621
 H          3.5616386959       -2.3830203674       -2.0990203502
 H          2.1553383456       -1.7621853442       -2.9787953097
 H          1.7243110924        0.2426463463       -1.6203018070
 H          3.9883773699        0.2802916760       -1.9666809552
 H          4.3739931081       -0.6505876141       -0.5261599417
 H          4.4042452062        1.1905022392        0.8672118517
 H          4.9681067537        1.9279161441       -0.6292280316
 H          3.9839940290        4.2403174905        0.2984994379
 H          2.3068856021        4.4414484676       -0.2295616748
 H          3.5591086360        3.9720254728       -1.3891167498
 H          0.8871263800        2.5219736154        0.3700513520
 H          2.2902322787        0.1607963075        1.3615913683
  53
        -68.44406229
 C         -6.3330460402       -0.4731106355       -1.9524617793
 C         -4.8135616702       -0.3507674784       -1.9465787059
 C         -4.2958510628        0.7269212488       -0.9928713069
 C         -4.5641054168        0.4585143397        0.4881579727
 C         -3.7856219812       -0.7409331014        1.0463207999
 C         -2.3028086669       -0.5206313721        0.9603067214
 C         -1.6716225498        0.3210411356        1.8678249190
 C         -0.3134821546        0.5782327651        1.7705518225
 O          0.3150911460        1.3842539299        2.6772172572
 C          0.4523833700        0.0079152414        0.7508071508
 C         -0.1726248913       -0.8889924998       -0.1138177095
 C         -1.5416597957       -1.1325012060       -0.0169925763
 O          0.4872824724       -1.5746576598       -1.0849898899
 C          1.9146825163       -1.6389802883       -0.9882834088
 C          2.2885964925       -2.6229929633        0.1249902387
 C          2.3780879523       -2.1740974059       -2.3438822353
 C          2.4359741975       -0.2133791294       -0.7447660649
 C          3.9566630115       -0.0453421417       -0.8345975855
 C          4.4777993470        1.0830672595        0.0800425492
 C          3.4601810135        2.1707287581        0.2855944047
 C          3.9184568203        3.5895810671        0.1769162693
 C          2.2189967489        1.8030931405        0.5746787357
 C          1.9120427842        0.3318814336        0.5952737069
 H         -6.7920372476        0.4903707549       -2.1651169447
 H         -6.6515837066       -1.1797180965       -2.7158710283
 H         -6.7029539288       -0.8260307059       -0.9931301793
 H         -4.3729481201       -1.3150119100       -1.6907284591
 H         -4.4771218666       -0.0989581645       -2.9552554254
 H         -4.7617110326        1.6790492440       -1.2606040856
 H         -3.2180979273        0.8329478996       -1.1359390917
 H         -5.6311610038        0.2960581257        0.6484309116
 H         -4.2790191412        1.3493885013        1.0530354124
 H         -4.0725133968       -0.8812398958        2.0917190868
 H         -4.0581723554       -1.6437342808        0.5000824414
 H         -2.2431758317        0.7802385616        2.6646318728
 H         -0.3308045969        1.6970702374        3.3215499116
 H         -1.9840649925       -1.8191259331       -0.7209519638
 H          1.8087722021       -2.3419558062        1.0591079764
 H          1.9457429603       -3.6189614393       -0.1460028357
 H          3.3639835602       -2.6525764133        0.2731271150
 H          3.4459636670       -2.3678129734       -2.3338281037
 H          2.1516380143       -1.4549253718       -3.1265955752
 H          1.8500008999       -3.0980380697       -2.5646236667
 H          1.9745063174        0.4040845756       -1.5264053178
 H          4.2274560474        0.1775180516       -1.8674777808
 H          4.4604885258       -0.9727006643       -0.5586959920
 H          4.7168246355        0.6553838884        1.0592798955
 H          5.4019333342        1.4909750793       -0.3312904874
 H          4.2964292527        3.7890717041       -0.8261247752
 H          4.7282689699        3.7814315506        0.8809200011
 H          3.1026948571        4.2764828807        0.3864550100
 H          1.4241985149        2.5110266354        0.7370823028
 H          2.4744182916       -0.1263528912        1.4209199055
  53
        -68.44405970
 C         -6.4248540453       -1.9568863673       -0.9441483207
 C         -4.9074137112       -2.0059278842       -0.8072295456
 C         -4.3975809905       -1.4017619385        0.5020612213
 C         -4.6424014093        0.0994587723        0.6561501552
 C         -3.8277642867        0.9597391494       -0.3201091906
 C         -2.3514198940        0.8054924021       -0.0926426730
 C         -1.7436629125        1.4425062390        0.9820551491
 C         -0.3856907044        1.2976302912        1.2169933127
 O          0.2105067113        1.9057118434        2.2854684066
 C          0.4078913102        0.5163529804        0.3735615485
 C         -0.2194915615       -0.1725890830       -0.6630163177
 C         -1.5832933249       -0.0105904834       -0.9007795590
 O          0.4316177094       -1.0315449052       -1.4919491140
 C          1.7176322019       -1.5009007006       -1.0715708510
 C          1.5238755441       -2.5366257807        0.0408124024
 C          2.3201227371       -2.1638288727       -2.3109968079
 C          2.5451041336       -0.2812025335       -0.6347468465
 C          4.0277227294       -0.5565901070       -0.3615914139
 C          4.6136019160        0.3910933189        0.7061840130
 C          3.9219541789        1.7260012569        0.7305699357
 C          4.7707871014        2.9543209201        0.8062108799
 C          2.5958417604        1.7308960370        0.7067799779
 C          1.8934868038        0.4084110162        0.5766088375
 H         -6.7804853425       -0.9321754609       -1.0156734941
 H         -6.7396523201       -2.4850401535       -1.8416318947
 H         -6.9003637312       -2.4272216674       -0.0857330388
 H         -4.5842799712       -3.0490947013       -0.8468474036
 H         -4.4506659350       -1.4936971659       -1.6548389062
 H         -3.3237813185       -1.5868833688        0.5792457897
 H         -4.8840349550       -1.9180779540        1.3339369758
 H         -4.3749371932        0.3860378343        1.6761681491
 H         -5.7031564251        0.3171656148        0.5219815537
 H         -4.0740339406        0.6862521806       -1.3458918281
 H         -4.1093776619        2.0056985835       -0.1743282496
 H         -2.3335858938        2.0638471618        1.6441476539
 H         -0.4544325658        2.4026377243        2.7764375626
 H         -2.0191984234       -0.5456401858       -1.7292908026
 H          0.9866224232       -3.3946093417       -0.3570066434
 H          2.4802323067       -2.8735034387        0.4296894009
 H          0.9376086643       -2.1169362597        0.8543889644
 H          2.4977810397       -1.4200647483       -3.0832495044
 H          1.6218128121       -2.9005761331       -2.6993425677
 H          3.2561676838       -2.6550824166       -2.0650489137
 H          2.4748025486        0.4324908599       -1.4659367339
 H          4.5866767299       -0.4377409227       -1.2907166904
 H          4.1697433587       -1.5845408728       -0.0251582362
 H          4.4869524989       -0.0722008216        1.6901801104
 H          5.6844962422        0.5136502187        0.5396554780
 H          5.4128137832        2.9180669127        1.6864060455
 H          4.1541987611        3.8477736357        0.8594429455
 H          5.4141282829        3.0237890789       -0.0713211170
 H          2.0159886867        2.6380173721        0.7195280679
 H          2.0937078235       -0.1796816883        1.4832687104
  53
        -68.44404239
 C         -6.7502010190        1.1216430095       -0.4726642421
 C         -5.2728006188        1.4350880325       -0.2660620240
 C         -4.3491692594        0.6169068629       -1.1702435598
 C         -4.3429806748       -0.8865254195       -0.8923127581
 C         -3.7215609370       -1.2600281273        0.4605435336
 C         -2.2761221001       -0.8585890331        0.5276467622
 C         -1.8769265505        0.2677172497        1.2337143859
 C         -0.5474491027        0.6629628325        1.2457800415
 O         -0.1487120990        1.7576322201        1.9596409454
 C          0.4196157342       -0.0540764006        0.5390060624
 C          0.0235501303       -1.2226791758       -0.1114268331
 C         -1.3152059576       -1.6055703960       -0.1289964565
 O          0.8903292720       -2.0510209030       -0.7527899735
 C          2.2830838595       -1.9022729217       -0.4543923894
 C          2.5557990358       -2.4965287477        0.9312495398
 C          3.0056624745       -2.7154181874       -1.5292941134
 C          2.6311472015       -0.4085034100       -0.5586351642
 C          4.1256385736       -0.0755916262       -0.4913407269
 C          4.3908199635        1.3132902060        0.1268584306
 C          3.2621966286        2.2755913050       -0.1200009536
 C          3.6062212116        3.6609265282       -0.5643748843
 C          2.0275115977        1.8414006954        0.0951841931
 C          1.8511678698        0.4021984258        0.4910367707
 H         -7.0225594123        1.2457190492       -1.5186998090
 H         -6.9801634287        0.1015177179       -0.1762482393
 H         -7.3658114791        1.7921606176        0.1232544739
 H         -5.1054723948        2.4941369184       -0.4783883677
 H         -5.0120159626        1.2689355020        0.7802043805
 H         -3.3283335959        0.9915207306       -1.0652071887
 H         -4.6535544647        0.7754822696       -2.2079341765
 H         -3.7671746040       -1.3764963769       -1.6804119622
 H         -5.3613256047       -1.2758440940       -0.9364890104
 H         -4.2798610481       -0.7852074141        1.2681017008
 H         -3.8020219041       -2.3419990143        0.5881127901
 H         -2.6051698964        0.8484771505        1.7854018954
 H         -0.9160805672        2.1452105981        2.3968835698
 H         -1.5800308928       -2.5065225545       -0.6594580709
 H          3.5912078919       -2.3461922629        1.2221399092
 H          1.9077577412       -2.0408015255        1.6756499827
 H          2.3501484014       -3.5643521439        0.9109058091
 H          2.6033592033       -3.7249384469       -1.5466649294
 H          4.0705299990       -2.7597773045       -1.3241263209
 H          2.8473188459       -2.2668684861       -2.5064649164
 H          2.2503335242       -0.0870871694       -1.5368218305
 H          4.5398032069       -0.1032199596       -1.5000619559
 H          4.6572980471       -0.8227067774        0.0995113294
 H          4.5040828184        1.1968469452        1.2097065314
 H          5.3302371784        1.7124119927       -0.2575819754
 H          4.2705768544        4.1365270979        0.1571943536
 H          2.7103205381        4.2674613409       -0.6677086023
 H          4.1236742491        3.6327655276       -1.5236261418
 H          1.1581344849        2.4584541199       -0.0554034151
 H          2.3102106020        0.2575397314        1.4791370894
  53
        -68.44402311
 C         -3.1264294235       -0.0839300038       -3.0211935298
 C         -3.4100631768        0.3314010831       -1.5824414498
 C         -4.4672261990       -0.5645849270       -0.9389602014
 C         -4.7262776017       -0.2406489536        0.5359062605
 C         -3.8256401606       -1.0189700606        1.5068479568
 C         -2.3701309977       -0.6946071855        1.3359661481
 C         -1.8676383380        0.5095310928        1.8002949790
 C         -0.5299769266        0.8541400985        1.6258741065
 O         -0.1478504099        2.0795972188        2.0791275158
 C          0.3347778979       -0.0399779268        1.0030354160
 C         -0.1944431078       -1.2196882682        0.4698808252
 C         -1.5254208465       -1.5595575393        0.6546984006
 O          0.6145760868       -2.0825648812       -0.2102203190
 C          1.5731092331       -1.5380550307       -1.1391790641
 C          2.7810295695       -2.4732815181       -1.0582504917
 C          0.9428686348       -1.6174516378       -2.5353365584
 C          1.9200562847       -0.0721614405       -0.8014775199
 C          3.2699728653        0.4184583719       -1.3112075806
 C          3.3927654584        1.9100758085       -1.0025135315
 C          3.2175036605        2.1598461036        0.4700815881
 C          3.9085577953        3.3674414999        1.0234135159
 C          2.5058137403        1.3339279058        1.2289921520
 C          1.8143551169        0.1062654253        0.7236481570
 H         -2.3892255847        0.5758049233       -3.4741472525
 H         -2.7431691108       -1.1018719624       -3.0536710358
 H         -4.0346838597       -0.0428922059       -3.6192513009
 H         -2.4877207746        0.2841849818       -1.0032976959
 H         -3.7604510932        1.3662773141       -1.5658411797
 H         -4.1579725051       -1.6076388420       -1.0306797380
 H         -5.3986348025       -0.4506995090       -1.4999302728
 H         -5.7628820937       -0.4860272974        0.7792109041
 H         -4.5926209699        0.8301597703        0.6992212112
 H         -4.1305120635       -0.7738254229        2.5271208072
 H         -3.9820380048       -2.0885158422        1.3544527294
 H         -2.5069441876        1.2184255631        2.3024119663
 H          0.7696869816        2.2455942511        1.8160187017
 H         -1.8857969450       -2.4921586521        0.2506719213
 H          3.4725396441       -2.2837562483       -1.8731168637
 H          3.2996164296       -2.3547983231       -0.1102393158
 H          2.4278629642       -3.4991083590       -1.1240012561
 H          0.0104968637       -1.0565884528       -2.5533234128
 H          0.7261382857       -2.6531479230       -2.7835665297
 H          1.6175157077       -1.2075264987       -3.2821553419
 H          1.1495982614        0.5628639168       -1.2581867584
 H          3.3566246260        0.2517612480       -2.3862048669
 H          4.0802169205       -0.1137550121       -0.8115525503
 H          4.3714080029        2.2785026230       -1.3179752108
 H          2.6383694248        2.4693052310       -1.5653822124
 H          4.9878052470        3.2721984191        0.9049076856
 H          3.6864683848        3.5024489057        2.0791363962
 H          3.5952552690        4.2596094928        0.4815282878
 H          2.4878598155        1.4692464450        2.3048010031
 H          2.3038419696       -0.7560991124        1.2053652690
  53
        -68.44398916
 C         -6.9402278586        0.1060289700        0.8243657235
 C         -5.4821318309        0.4092236481        1.1493333584
 C         -4.5557300691       -0.7910609786        0.9459836636
 C         -4.4042482278       -1.2476103050       -0.5053304150
 C         -3.6549696842       -0.2436455386       -1.3923978696
 C         -2.2436700743       -0.0377162845       -0.9218746318
 C         -1.8893178319        1.0884502829       -0.1919766241
 C         -0.5878407225        1.2639161277        0.2542856340
 O         -0.2433742690        2.3595784675        0.9944757609
 C          0.4005173223        0.3197469242       -0.0298048740
 C          0.0234151280       -0.8400836154       -0.7066599990
 C         -1.2826620977       -1.0029028182       -1.1614033834
 O          0.8771488835       -1.8668593757       -0.9629692177
 C          2.0997599879       -1.9060549362       -0.2183594354
 C          1.7913994893       -2.3668110198        1.2100293028
 C          2.9638889827       -2.9454788552       -0.9336485937
 C          2.7387317121       -0.5095269586       -0.2859906039
 C          4.1654617602       -0.4123133480        0.2653187585
 C          4.4739242845        0.9802710451        0.8543007898
 C          3.6903117609        2.0729618638        0.1814809395
 C          4.4158127917        3.3227312548       -0.2013118416
 C          2.3938897251        1.8690797741       -0.0108372982
 C          1.8292447769        0.5338553458        0.3861204169
 H         -7.5677179565        0.9603671058        1.0695401295
 H         -7.0693094180       -0.1137989084       -0.2322306747
 H         -7.2875675533       -0.7501480944        1.3988859569
 H         -5.1441772786        1.2478527362        0.5387501179
 H         -5.4126711747        0.7195093507        2.1951039901
 H         -4.9418116810       -1.6277048041        1.5338773976
 H         -3.5652348786       -0.5443270117        1.3353208712
 H         -5.3875056949       -1.4397960607       -0.9374517976
 H         -3.8511794555       -2.1892649541       -0.5109063284
 H         -3.6400060658       -0.6323397012       -2.4131878412
 H         -4.1871369342        0.7081826071       -1.4043195386
 H         -2.6311357035        1.8437615666        0.0342624137
 H         -1.0221981200        2.9155214963        1.1154322824
 H         -1.5245835748       -1.9041476406       -1.7022205158
 H          1.0356772141       -1.7289125258        1.6614183004
 H          1.4056206107       -3.3834083438        1.1841314875
 H          2.6853833622       -2.3485538645        1.8262624687
 H          3.2184762104       -2.5968610796       -1.9310237209
 H          2.4055674161       -3.8732649013       -1.0273711374
 H          3.8761243181       -3.1333970385       -0.3763884280
 H          2.7630704082       -0.2504971106       -1.3525073587
 H          4.8706676425       -0.6245918767       -0.5393141443
 H          4.3258726552       -1.1589235719        1.0443181166
 H          4.2054644818        0.9769184719        1.9158454443
 H          5.5448850405        1.1765156295        0.7899956227
 H          3.7339289645        4.0467309505       -0.6396116611
 H          5.2009636647        3.0978884030       -0.9236022915
 H          4.8878090915        3.7701885941        0.6734925101
 H          1.7540493852        2.5934780817       -0.4851883114
 H          1.9072645679        0.4369239165        1.4781273096
  53
        -68.44398541
 C         -4.8435399670        1.3782534775       -2.3480375196
 C         -5.1066409491       -0.1134649963       -2.1772857840
 C         -4.2310632183       -0.7586964414       -1.1027573869
 C         -4.5640797365       -0.2856547949        0.3095879401
 C         -3.7192010707       -1.0041000059        1.3696079851
 C         -2.2598091657       -0.6788210027        1.2239732678
 C         -1.7812981277        0.5551074152        1.6310556409
 C         -0.4378255475        0.8941159580        1.4959120749
 O         -0.0791860652        2.1473768528        1.8891136130
 C          0.4570724624       -0.0344733162        0.9741854687
 C         -0.0468035015       -1.2439426780        0.4851006198
 C         -1.3864696723       -1.5737691827        0.6236538800
 O          0.7897180312       -2.1513913100       -0.0958305883
 C          1.8301442601       -1.6792828716       -0.9745022882
 C          3.0219249776       -2.6046210920       -0.7199941685
 C          1.3236500375       -1.8683412063       -2.4100929402
 C          2.1556975355       -0.1925538390       -0.7205660104
 C          3.5367566795        0.2639197521       -1.1757806825
 C          3.6425024163        1.7739755106       -0.9665775216
 C          3.3760590533        2.1256115690        0.4711131156
 C          4.0360344723        3.3687584607        0.9820619269
 C          2.6152235060        1.3536647973        1.2390761353
 C          1.9519092434        0.0933561254        0.7778280316
 H         -5.4217150909        1.7714221721       -3.1815443017
 H         -5.1220794642        1.9296182256       -1.4540586650
 H         -3.7888850548        1.5566251613       -2.5467980189
 H         -6.1590961161       -0.2699883092       -1.9285538755
 H         -4.9154139260       -0.6151721697       -3.1292358239
 H         -3.1814727602       -0.5433972757       -1.3139512131
 H         -4.3620497912       -1.8428912671       -1.1490916672
 H         -5.6219782115       -0.4709089671        0.5117796044
 H         -4.3863811556        0.7870757057        0.3905796110
 H         -4.0608907036       -0.6937765421        2.3596104329
 H         -3.8673732580       -2.0816966390        1.2793498166
 H         -2.4417356507        1.2892265235        2.0652288536
 H          0.8497071801        2.3002960709        1.6605148065
 H         -1.7282091878       -2.5296852275        0.2598046502
 H          3.7789352457       -2.4802834186       -1.4879072036
 H          3.4625482139       -2.4111938901        0.2547485205
 H          2.6690035397       -3.6325551632       -0.7330086099
 H          0.4012197315       -1.3094719041       -2.5548983385
 H          1.1196529158       -2.9200400708       -2.5926521492
 H          2.0644034058       -1.5211027632       -3.1252544773
 H          1.4171479355        0.4053622661       -1.2705071209
 H          3.6927405771        0.0213802900       -2.2282460384
 H          4.3116364862       -0.2294425698       -0.5879336989
 H          4.6395361049        2.1219479183       -1.2455244374
 H          2.9256523464        2.2898762910       -1.6135703631
 H          3.7497745483        3.5756184464        2.0103267233
 H          3.7598277295        4.2215306564        0.3621629746
 H          5.1202021817        3.2664282258        0.9371753428
 H          2.5313365031        1.5627274079        2.2997911949
 H          2.4064518634       -0.7316803264        1.3505672469
  53
        -68.44398382
 C         -8.0638274172        0.1254257161       -0.5577469503
 C         -6.5799407584        0.4293127476       -0.3890002310
 C         -5.8175010121       -0.7785710661        0.1515927197
 C         -4.3460874543       -0.4889790158        0.4456537879
 C         -3.5181518369       -0.2145344590       -0.8155938723
 C         -2.0700898378       -0.0497217684       -0.4557369993
 C         -1.5627976993        1.1991797532       -0.1430334618
 C         -0.2370181322        1.3666586752        0.2497455606
 O          0.1742920912        2.6420715091        0.4897830744
 C          0.5908805299        0.2555495768        0.3694344251
 C          0.0961462653       -0.9911113338       -0.0284383472
 C         -1.2246451463       -1.1493010983       -0.4177286780
 O          0.9008095981       -2.0919175296        0.0087552448
 C          2.2719323938       -1.9678820321       -0.4182349161
 C          3.0663641250       -2.8922961065        0.5068503975
 C          2.3415105034       -2.4902459667       -1.8588146780
 C          2.7515153547       -0.5024369979       -0.3641511041
 C          4.2603437346       -0.3087098628       -0.2706519735
 C          4.5638940464        1.1865471118       -0.3551821161
 C          3.8299717379        1.9338124589        0.7238874958
 C          4.4632487303        3.2056573164        1.1965834837
 C          2.6968536434        1.4667375881        1.2361765835
 C          2.0374196842        0.1925067345        0.8087612827
 H         -8.2069532261       -0.7020060696       -1.2496661617
 H         -8.5094431720       -0.1474557426        0.3966289936
 H         -8.5918218778        0.9930230925       -0.9470172854
 H         -6.1662188368        0.7260018962       -1.3541007501
 H         -6.4575906469        1.2686826924        0.2994501743
 H         -5.8881849805       -1.6000667554       -0.5655782765
 H         -6.2978868371       -1.1077484992        1.0766920515
 H         -3.9116106368       -1.3487016882        0.9612586076
 H         -4.2687688817        0.3700237351        1.1156514085
 H         -3.6359350676       -1.0506469480       -1.5078003153
 H         -3.8796392969        0.6919247243       -1.3017982574
 H         -2.1822920676        2.0800483742       -0.2046053189
 H          1.1291123909        2.6441299174        0.6539321243
 H         -1.5746608983       -2.1322033665       -0.6908383908
 H          4.0719706292       -3.0464538907        0.1284761740
 H          3.1188636456       -2.4835684235        1.5127693807
 H          2.5558830966       -3.8505104001        0.5578896776
 H          3.3546989350       -2.4141528247       -2.2440314304
 H          1.6750516437       -1.9118135380       -2.4955105942
 H          2.0277000336       -3.5302901499       -1.8884613093
 H          2.4162345331       -0.0116568420       -1.2872017346
 H          4.7653019899       -0.8382291952       -1.0802467120
 H          4.6334462448       -0.6919559303        0.6798040808
 H          5.6373029627        1.3577143547       -0.2480825641
 H          4.2701211095        1.5702862685       -1.3375406051
 H          4.6207254290        3.8807509705        0.3556322168
 H          5.4371117407        3.0002765257        1.6407981723
 H          3.8434068411        3.7060939224        1.9364688608
 H          2.2471267228        1.9599703471        2.0907868530
 H          2.0634690941       -0.4850619620        1.6779454019
  53
        -68.44394473
 C         -4.6376732969        0.1769223574       -2.9600561874
 C         -5.3169628624        0.7604066546       -1.7265344143
 C         -4.5154874334        0.5473150213       -0.4420665477
 C         -4.4518377917       -0.9142101901       -0.0069589003
 C         -3.7058885570       -1.0861848051        1.3228313107
 C         -2.2541587343       -0.7232361207        1.1922163075
 C         -1.7889457975        0.5103395104        1.6115471774
 C         -0.4470034269        0.8624820051        1.4829931941
 O         -0.1032420645        2.1168624322        1.8856792840
 C          0.4583735692       -0.0531728920        0.9582541562
 C         -0.0327229671       -1.2638872890        0.4570032932
 C         -1.3696257192       -1.6048050695        0.5858013666
 O          0.8135097279       -2.1632141847       -0.1220437644
 C          1.8674347361       -1.6834896203       -0.9799611610
 C          3.0621142615       -2.5986731771       -0.7023679169
 C          1.3903915573       -1.8780887185       -2.4248977995
 C          2.1756282278       -0.1943170803       -0.7207222110
 C          3.5570672822        0.2754999476       -1.1609601086
 C          3.6460755816        1.7863819854       -0.9502404384
 C          3.3618304263        2.1341772287        0.4849327819
 C          4.0042080907        3.3834423963        1.0032642405
 C          2.6015589590        1.3537469474        1.2448214857
 C          1.9538857859        0.0880419155        0.7757323967
 H         -3.6320921121        0.5791019176       -3.0639162774
 H         -4.5697955448       -0.9056803567       -2.8941423660
 H         -5.2016813172        0.4263759290       -3.8563187438
 H         -5.4541929407        1.8341438719       -1.8765907388
 H         -6.3081746306        0.3145878766       -1.6130392891
 H         -4.9776824416        1.1302183246        0.3586432626
 H         -3.5005801964        0.9250148575       -0.5819101643
 H         -3.9452316421       -1.5059647972       -0.7702443424
 H         -5.4679890180       -1.3012289357        0.1029627506
 H         -4.1763681931       -0.4599306612        2.0828341895
 H         -3.7885783434       -2.1285098674        1.6390062109
 H         -2.4565735893        1.2361264277        2.0482848818
 H          0.8243674751        2.2819165805        1.6605460287
 H         -1.7020154929       -2.5616895523        0.2153850921
 H          3.4840755969       -2.4002811667        0.2796251805
 H          2.7179986515       -3.6295320933       -0.7199444518
 H          3.8315934844       -2.4693359916       -1.4569516446
 H          2.1423837171       -1.5267540209       -3.1261782456
 H          0.4669487029       -1.3261952547       -2.5884440656
 H          1.1978702752       -2.9316194508       -2.6095236936
 H          1.4370178008        0.3969830441       -1.2777023052
 H          3.7269337434        0.0346854305       -2.2116354966
 H          4.3301503256       -0.2106013344       -0.5646821464
 H          4.6424970530        2.1441791672       -1.2187380416
 H          2.9309111932        2.2956376945       -1.6043120477
 H          3.7266219978        4.2335025573        0.3802663782
 H          5.0897355362        3.2916058330        0.9703078279
 H          3.7045948630        3.5874785399        2.0282921728
 H          2.5066087997        1.5602923380        2.3050903326
 H          2.4101141926       -0.7332372500        1.3524835672
  53
        -68.44393535
 C         -3.4378653881        1.8303114627       -1.1482496437
 C         -3.7562137042        0.4212047853       -1.6328582582
 C         -4.9638894491       -0.2042516883       -0.9332036877
 C         -4.8365893218       -0.3863958962        0.5800163805
 C         -3.8183697064       -1.4514834646        1.0108940101
 C         -2.3880462360       -1.0047484596        0.9023890285
 C         -1.9253220305        0.0497434435        1.6802304919
 C         -0.6188027230        0.4969074056        1.5640356324
 O         -0.1557515817        1.5226127431        2.3388748743
 C          0.2644250326       -0.0984136040        0.6606985272
 C         -0.1791697800       -1.2109983685       -0.0519643174
 C         -1.4989928424       -1.6449953647        0.0595061662
 O          0.6181777574       -1.9328673126       -0.8834110399
 C          2.0331879855       -1.7498750300       -0.7580994830
 C          2.5115729141       -2.4647756126        0.5097450114
 C          2.6286072143       -2.4184747690       -1.9978670963
 C          2.3145583866       -0.2384968881       -0.7513578333
 C          3.7920830232        0.1564197134       -0.8485299283
 C          4.0911911509        1.4912339745       -0.1338857565
 C          2.9063448484        2.4170715467       -0.1276281989
 C          3.1375209385        3.8539191656       -0.4696357402
 C          1.7290761705        1.9049571013        0.2056186243
 C          1.6594671881        0.4271985558        0.4712249835
 H         -4.3224731104        2.4630281439       -1.1943399282
 H         -3.0717593542        1.8132357223       -0.1252890597
 H         -2.6645802685        2.2741148408       -1.7711908408
 H         -3.9739215215        0.4578778882       -2.7036330545
 H         -2.8793071367       -0.2104083163       -1.4946502303
 H         -5.1614014486       -1.1791603098       -1.3864518796
 H         -5.8371273531        0.4268029704       -1.1238665182
 H         -5.8170260358       -0.6880880694        0.9589957512
 H         -4.5888084834        0.5677393115        1.0449590876
 H         -4.0198980524       -1.7089032997        2.0552633605
 H         -3.9668575198       -2.3514451165        0.4118288030
 H         -2.5873101912        0.5286005898        2.3910679048
 H         -0.8645775538        1.8265335373        2.9180083886
 H         -1.8048650619       -2.4953352759       -0.5299134206
 H          3.5717921053       -2.2969964843        0.6742510217
 H          1.9576442577       -2.1144750444        1.3770410767
 H          2.3389545413       -3.5336264918        0.4062664991
 H          3.7123765285       -2.4332415069       -1.9410384701
 H          2.3238996013       -1.8835234557       -2.8934769910
 H          2.2611268287       -3.4390094327       -2.0668460308
 H          1.7929539684        0.1598793893       -1.6313646748
 H          4.0662889455        0.2443988976       -1.9006139155
 H          4.4239541840       -0.6176525590       -0.4108997272
 H          4.3574337958        1.2774114128        0.9064754015
 H          4.9537052209        1.9706073586       -0.5985116228
 H          3.8776254677        4.2891966541        0.2019573719
 H          2.2152662085        4.4234368908       -0.3902193602
 H          3.5190719266        3.9437070373       -1.4870164699
 H          0.8258766277        2.4903257335        0.2366604348
 H          2.2546034785        0.2091597292        1.3690881145
  53
        -68.44392561
 C         -6.3939000086        0.0335144169       -2.7546829288
 C         -6.6478133579       -0.7874042419       -1.4957185474
 C         -5.8883779771       -0.2672720574       -0.2747126390
 C         -4.3734613928       -0.4256590691       -0.3931840838
 C         -3.6754533645       -0.0142430015        0.9004208505
 C         -2.1702983445        0.0006253082        0.8456557840
 C         -1.4771462121        0.6310017490        1.8708877922
 C         -0.0920693763        0.6817048100        1.8733538046
 O          0.5000318848        1.2754773343        2.9516881363
 C          0.6467441115        0.1289221873        0.8229328429
 C         -0.0513558433       -0.5845589858       -0.1510696262
 C         -1.4436851726       -0.6281728777       -0.1483252446
 O          0.5571425144       -1.2879023523       -1.1469048341
 C          1.9455976662       -1.5932855058       -0.9827117808
 C          2.1049925804       -2.6981493865        0.0667700112
 C          2.3953649592       -2.1093565616       -2.3507620526
 C          2.6592314754       -0.2876797610       -0.6051275477
 C          4.1821257342       -0.3264732798       -0.5360865502
 C          4.7167826578        1.1062758921       -0.4443381727
 C          3.8322607491        2.0349829683        0.3428829328
 C          4.3444549194        3.4382067763        0.4661623943
 C          2.6706877343        1.6601372458        0.8617116455
 C          2.1511446315        0.2469812506        0.7396938623
 H         -7.0150505495       -0.3266969599       -3.5719021680
 H         -6.6314267877        1.0807687893       -2.5798913994
 H         -5.3544783770       -0.0369971822       -3.0635610625
 H         -7.7177474805       -0.7694608621       -1.2736343351
 H         -6.3669292334       -1.8272997109       -1.6782340965
 H         -6.2302416697       -0.8151273110        0.6075388703
 H         -6.1325277751        0.7869358744       -0.1225721474
 H         -3.9992445471        0.1925372215       -1.2100285547
 H         -4.1455270014       -1.4687722939       -0.6203289394
 H         -4.0150981468        0.9860171039        1.1835732602
 H         -3.9834293532       -0.6916960229        1.7038281386
 H         -2.0021731334        1.0884533638        2.6946426747
 H          1.4574452919        1.1787957273        2.8930787268
 H         -1.9194865881       -1.1783443586       -0.9420756136
 H          3.1568772363       -2.8953647414        0.2530115255
 H          1.6203923259       -2.4180678823        0.9988274107
 H          1.6350726075       -3.6094240078       -0.2956471780
 H          3.3803296291       -2.5612045302       -2.2873785202
 H          2.4140694820       -1.2988053784       -3.0745368207
 H          1.6857547948       -2.8577053443       -2.6934673577
 H          2.3712591280        0.4386145073       -1.3763364657
 H          4.6039117599       -0.8110468565       -1.4168027780
 H          4.4944027127       -0.8958500368        0.3417652608
 H          5.7204921823        1.1033397525       -0.0101196362
 H          4.8118134446        1.5227316628       -1.4529888778
 H          3.6459029806        4.0639834929        1.0151854812
 H          4.5004496838        3.8724251659       -0.5210053767
 H          5.3030909569        3.4466568573        0.9847763953
 H          2.0527202438        2.3925560114        1.3609672553
 H          2.6012270309       -0.3557587192        1.5473783056
  53
        -68.44391510
 C         -5.4025593133       -1.1060563409       -2.0756389543
 C         -5.3292511422        0.4096630902       -1.9390125227
 C         -4.2720562426        0.8959842983       -0.9456799134
 C         -4.5471276666        0.5092194147        0.5127503038
 C         -3.8032436221       -0.7542917313        0.9700936532
 C         -2.3161159715       -0.5517161189        0.9392405323
 C         -1.6964008980        0.2223421890        1.9083703288
 C         -0.3311849090        0.4615646736        1.8591374955
 O          0.2027265053        1.1883810464        2.8849819662
 C          0.4488753915       -0.0437486837        0.8146670441
 C         -0.1646821367       -0.9026400503       -0.0983496076
 C         -1.5368134228       -1.1315042920       -0.0458778785
 O          0.5123811395       -1.5724222010       -1.0723784264
 C          1.9332205285       -1.6743811009       -0.9340570430
 C          2.2679462498       -2.6827549569        0.1697864013
 C          2.4193899488       -2.2038576820       -2.2843699353
 C          2.4662383125       -0.2629548739       -0.6509832467
 C          3.9807659499       -0.0866690142       -0.6274497261
 C          4.3117099004        1.4092141735       -0.6319172054
 C          3.3242059223        2.2516372557        0.1295584496
 C          3.6367069286        3.7172846101        0.1575113478
 C          2.2392937786        1.7508773768        0.7050000613
 C          1.9199637964        0.2746760591        0.6775758232
 H         -6.0894065797       -1.3785495976       -2.8747411414
 H         -4.4226026726       -1.5135981983       -2.3139464192
 H         -5.7587491649       -1.5639201916       -1.1566229630
 H         -5.0990277645        0.8384628024       -2.9178647053
 H         -6.3080241747        0.7916561547       -1.6373329298
 H         -4.2301299329        1.9854099586       -1.0181485444
 H         -3.2927153686        0.5154114395       -1.2408024346
 H         -5.6201953856        0.3636964378        0.6553177307
 H         -4.2386610968        1.3297252201        1.1635174265
 H         -4.1150746656       -0.9857055625        1.9917176678
 H         -4.0688558942       -1.5965622013        0.3331189731
 H         -2.2571032793        0.6447061564        2.7270058914
 H          1.1624479685        1.2197999014        2.7995060454
 H         -1.9675748341       -1.7886742154       -0.7850401243
 H          3.3409783548       -2.7220943357        0.3344286301
 H          1.7703424969       -2.4176073286        1.0993835222
 H          1.9212594986       -3.6698052795       -0.1270355692
 H          1.8138502727       -3.0622383763       -2.5629131433
 H          3.4590319471       -2.5106311792       -2.2262127330
 H          2.3082373954       -1.4430024261       -3.0524503469
 H          2.0619745214        0.3700648976       -1.4516802019
 H          4.4456072673       -0.5594173408       -1.4927873302
 H          4.3899419494       -0.5545702052        0.2703221637
 H          5.3156308660        1.5709065654       -0.2294528270
 H          4.3244781939        1.7742980524       -1.6645772581
 H          3.7054255920        4.1090916176       -0.8569632607
 H          4.5971476633        3.8900771838        0.6429381682
 H          2.8707911169        4.2715174855        0.6934265363
 H          1.5366939738        2.4187393037        1.1824125720
 H          2.4687021256       -0.2117214548        1.5025327381
  53
        -68.44391155
 C         -6.4994325420        0.4109415240       -2.1386276387
 C         -5.0029873013        0.7007195117       -2.1058675975
 C         -4.3931742464        0.5704881185       -0.7098206020
 C         -4.3743901694       -0.8648978046       -0.1912320659
 C         -3.6802998893       -0.9752167936        1.1730907513
 C         -2.2181708025       -0.6430737150        1.0845893477
 C         -1.7466847063        0.5989894811        1.4707591977
 C         -0.3943056832        0.9223589662        1.3820162758
 O         -0.0432604038        2.1865663726        1.7457491944
 C          0.5135843144       -0.0300466683        0.9326531255
 C          0.0200063289       -1.2523825531        0.4629617659
 C         -1.3269973995       -1.5648259998        0.5520735962
 O          0.8717063916       -2.1892873841       -0.0441391054
 C          1.9661666640       -1.7633946699       -0.8795483968
 C          3.1324572827       -2.6859379253       -0.5182569689
 C          1.5411815077       -2.0101943863       -2.3327183028
 C          2.2912231055       -0.2700164833       -0.6700632028
 C          3.6968037767        0.1581924435       -1.0749077529
 C          3.8048034861        1.6748980410       -0.9231123622
 C          3.4721462699        2.0868764494        0.4844261685
 C          4.1165729707        3.3460502320        0.9756920465
 C          2.6693899929        1.3514441367        1.2454321537
 C          2.0173382435        0.0782507926        0.8036800220
 H         -6.7033168862       -0.6247637533       -1.8799931055
 H         -7.0257448779        1.0521645430       -1.4346505224
 H         -6.8986224968        0.5953319977       -3.1336930393
 H         -4.4868173922        0.0219456054       -2.7888888800
 H         -4.8352385220        1.7192694240       -2.4645090823
 H         -4.9541079334        1.1986740410       -0.0137008182
 H         -3.3666284967        0.9425840543       -0.7382196281
 H         -3.8527276778       -1.5006983030       -0.9098598300
 H         -5.3960761868       -1.2351469762       -0.0911648041
 H         -4.1694998651       -0.3010956505        1.8782753520
 H         -3.7941028037       -1.9971891180        1.5417452873
 H         -2.4172180526        1.3538019170        1.8502756035
 H          0.8953789360        2.3261613355        1.5510640769
 H         -1.6625676367       -2.5306763362        0.2088687630
 H          2.7706007577       -3.7107792440       -0.5070335054
 H          3.9325123129       -2.6008557345       -1.2468925784
 H          3.5200258530       -2.4538612907        0.4705103596
 H          0.6353253669       -1.4496401617       -2.5547771467
 H          1.3360828911       -3.0670683412       -2.4810618683
 H          2.3259995103       -1.7015702795       -3.0179380403
 H          1.5853189599        0.3095412202       -1.2793144787
 H          3.9024481697       -0.1289696016       -2.1074004095
 H          4.4375736267       -0.3152465958       -0.4294689299
 H          4.8169961685        2.0048856022       -1.1670658338
 H          3.1243389752        2.1679999565       -1.6248303948
 H          5.2007350935        3.2351720344        0.9889229298
 H          3.7816127803        3.5975248888        1.9789970565
 H          3.8783413373        4.1737529947        0.3079408807
 H          2.5375253223        1.6035898867        2.2918435909
 H          2.4357421655       -0.7258060170        1.4311780640
  53
        -68.44388590
 C         -3.4808865918       -1.0081831559        2.3380206756
 C         -3.7663224012       -1.8652139501        1.1108334648
 C         -4.9955566185       -1.4094259540        0.3229606721
 C         -4.9357985892        0.0079225917       -0.2490074876
 C         -3.9286586439        0.1952879416       -1.3928512313
 C         -2.5001625856        0.2910292733       -0.9373873132
 C         -2.0923304287        1.3507389305       -0.1366682306
 C         -0.7791305864        1.4502661502        0.2952962288
 O         -0.3836927269        2.4760351610        1.1065527222
 C          0.1716819182        0.4968746412       -0.0755417835
 C         -0.2533339441       -0.5889114058       -0.8393180325
 C         -1.5719089695       -0.6729834767       -1.2828825593
 O          0.5601452811       -1.6206540338       -1.1893314990
 C          1.7785280213       -1.7700561022       -0.4514503957
 C          1.4465133473       -2.3261161927        0.9371553952
 C          2.5994593110       -2.7866562437       -1.2456658318
 C          2.4751520076       -0.4003203712       -0.4122288763
 C          3.9040570933       -0.4041098446        0.1411710900
 C          4.2735801652        0.9312837474        0.8211989866
 C          3.5299346766        2.0997055330        0.2355140337
 C          4.3025752777        3.3447096744       -0.0609057215
 C          2.2252885761        1.9622323589        0.0398996577
 C          1.6100561738        0.6245154514        0.3418287404
 H         -2.6938773506       -1.4613982106        2.9367236843
 H         -3.1477528836       -0.0156598478        2.0468068142
 H         -4.3711148166       -0.9125931365        2.9570109428
 H         -2.8900282540       -1.8646867812        0.4636365529
 H         -3.9412759837       -2.8951946120        1.4332792752
 H         -5.8671360584       -1.4690983587        0.9816939447
 H         -5.1603795503       -2.1106483605       -0.4992176765
 H         -4.7198903407        0.7170862673        0.5500072792
 H         -5.9300018639        0.2473153803       -0.6364367252
 H         -4.0325219912       -0.6295825249       -2.0996359176
 H         -4.1833693228        1.1200669553       -1.9192126506
 H         -2.8033506041        2.1145552606        0.1530264186
 H         -1.1381731204        3.0513390617        1.2797775138
 H         -1.8490774446       -1.5201996962       -1.8908555038
 H          1.0173399251       -3.3200839903        0.8328047380
 H          2.3387471916       -2.3942352752        1.5524340205
 H          0.7174440779       -1.6932083776        1.4369971441
 H          2.8712371567       -2.3731672989       -2.2132701389
 H          2.0027769040       -3.6800432545       -1.4103877813
 H          3.5014466075       -3.0553864802       -0.7050923447
 H          2.5107861796       -0.0608752251       -1.4556404385
 H          4.5998447830       -0.5937636549       -0.6771843935
 H          4.0295707127       -1.2075293483        0.8683786118
 H          4.0143458808        0.8650434518        1.8829859199
 H          5.3510276472        1.0888523867        0.7587296116
 H          5.0738801408        3.1428452700       -0.8045738867
 H          4.7971836378        3.7075798217        0.8401644015
 H          3.6476191755        4.1252962848       -0.4390050692
 H          1.6124770079        2.7444350755       -0.3746609888
 H          1.6895498725        0.4440442200        1.4230901856
  53
        -68.44388510
 C         -3.4744223253       -1.0549887370        2.3162278496
 C         -3.7849373322       -1.8880779680        1.0786849833
 C         -5.0139581680       -1.4004672419        0.3098954489
 C         -4.9368458582        0.0249469057       -0.2394686487
 C         -3.9286036553        0.2171465875       -1.3816748222
 C         -2.4996892200        0.3043893304       -0.9254452291
 C         -2.0887739600        1.3563254761       -0.1159896881
 C         -0.7746719412        1.4501364620        0.3144102059
 O         -0.3759040436        2.4687300074        1.1330555533
 C          0.1738884198        0.4983314767       -0.0661535271
 C         -0.2545350911       -0.5808581656       -0.8373044791
 C         -1.5738577739       -0.6586739123       -1.2798456932
 O          0.5563522909       -1.6114421642       -1.1964729634
 C          1.7769025810       -1.7673031321       -0.4634848044
 C          1.4489410889       -2.3323716858        0.9224463174
 C          2.5942257894       -2.7792962060       -1.2672507256
 C          2.4750892538       -0.3985793609       -0.4172300166
 C          3.9060166142       -0.4073478897        0.1306682069
 C          4.2801120415        0.9235259979        0.8170068364
 C          3.5345163019        2.0961627265        0.2424150990
 C          4.3067160259        3.3425657832       -0.0494495911
 C          2.2288599585        1.9609730216        0.0518975891
 C          1.6137840796        0.6216848929        0.3472323061
 H         -4.3574058563       -0.9544686804        2.9447631217
 H         -2.6897166442       -1.5304184389        2.9005943901
 H         -3.1275319548       -0.0636540711        2.0371378171
 H         -2.9148114939       -1.8909744957        0.4232460331
 H         -3.9731413355       -2.9201980875        1.3865366411
 H         -5.8805508065       -1.4572240429        0.9754125531
 H         -5.1971193621       -2.0855377492       -0.5220174652
 H         -4.7106617903        0.7184362732        0.5704065140
 H         -5.9285665237        0.2830645545       -0.6211645759
 H         -4.0355217385       -0.6015720772       -2.0951456389
 H         -4.1792405062        1.1470830431       -1.9008509481
 H         -2.7979379342        2.1189940380        0.1811911386
 H         -1.1290150123        3.0440110643        1.3122175422
 H         -1.8532902113       -1.5003054676       -1.8945483837
 H          1.0186387788       -3.3252804072        0.8128729600
 H          2.3431433571       -2.4052560877        1.5343207812
 H          0.7220381512       -1.7022346769        1.4288589813
 H          1.9961049980       -3.6709759895       -1.4358712772
 H          3.4977535001       -3.0524839211       -0.7314962790
 H          2.8631163240       -2.3596067558       -2.2330140135
 H          2.5071878431       -0.0517429243       -1.4583338252
 H          4.5983492293       -0.5933439242       -0.6914351273
 H          4.0331416114       -1.2150913001        0.8527572023
 H          4.0262057847        0.8510302840        1.8796488457
 H          5.3573445716        1.0806547375        0.7500438199
 H          5.0736970666        3.1453241310       -0.7988170901
 H          4.8066852898        3.6987675402        0.8513203251
 H          3.6504660303        4.1263891295       -0.4184685247
 H          1.6148115803        2.7465062169       -0.3544594794
 H          1.6971599568        0.4338026049        1.4269051188
  53
        -68.44387583
 C         -7.9274113234        0.2473024470       -0.9383940064
 C         -6.4652218202        0.4929187305       -0.5858210151
 C         -5.5417298353       -0.4855441477       -1.3084635418
 C         -4.0572952158       -0.2084841054       -1.0732566325
 C         -3.6111775111       -0.4768580543        0.3691344833
 C         -2.1295801859       -0.2734971412        0.5038927433
 C         -1.6197211395        0.9740773478        0.8177356745
 C         -0.2482091257        1.1915689694        0.9251009528
 O          0.1509311624        2.4641104031        1.1986234282
 C          0.6325919090        0.1300209363        0.7474717975
 C          0.1160791110       -1.1049407059        0.3409349324
 C         -1.2501928670       -1.3130361290        0.2365187138
 O          0.9553037331       -2.1505063054        0.0898007154
 C          2.1931250510       -1.9006192054       -0.6050856370
 C          3.2089312353       -2.8538034724        0.0281750105
 C          1.9676731488       -2.2830407309       -2.0734240922
 C          2.6112299077       -0.4188407307       -0.5038867411
 C          4.0948307073       -0.1398054651       -0.7137786553
 C          4.3101320583        1.3730522161       -0.7065187217
 C          3.7976256666        1.9711746440        0.5745380948
 C          4.4644927276        3.2321107912        1.0299620768
 C          2.8236186170        1.3888352735        1.2649891408
 C          2.1414903007        0.1195488575        0.8591119265
 H         -8.2220242115       -0.7624235915       -0.6600339596
 H         -8.5719009118        0.9491861115       -0.4140219292
 H         -8.0886041576        0.3668488770       -2.0078269366
 H         -6.1923542346        1.5143556517       -0.8611324755
 H         -6.3384656148        0.3927480905        0.4932663997
 H         -5.7409588400       -0.4238991136       -2.3816155459
 H         -5.7744377727       -1.5042967534       -0.9889647449
 H         -3.8344788035        0.8301668427       -1.3272438990
 H         -3.4683923997       -0.8438842090       -1.7391204922
 H         -4.1337117873        0.1993300055        1.0460306114
 H         -3.8691123249       -1.5034533060        0.6365521183
 H         -2.2753542856        1.8138335614        0.9864915970
 H          1.1174715225        2.5123867185        1.1529915461
 H         -1.6100112223       -2.2885841383       -0.0499424379
 H          4.1130631569       -2.9082798577       -0.5699629132
 H          3.4627293156       -2.5367944441        1.0365209367
 H          2.7627687919       -3.8431373554        0.0874811473
 H          1.1546030261       -1.6917490722       -2.4899015306
 H          1.6986206980       -3.3336830053       -2.1426839439
 H          2.8679897838       -2.1080886055       -2.6561568468
 H          2.0627645975        0.1322009350       -1.2790251962
 H          4.4332243181       -0.5602042035       -1.6622518707
 H          4.6814668838       -0.5840897112        0.0911479263
 H          5.3731151194        1.6007203654       -0.8123372928
 H          3.7944359518        1.8258358841       -1.5595373344
 H          4.4080926760        3.9892030410        0.2480595082
 H          5.5190554683        3.0486143063        1.2352101230
 H          3.9990393985        3.6235596379        1.9311832325
 H          2.5498967924        1.7729275990        2.2414158502
 H          2.3854318164       -0.6313264744        1.6285142492
  53
        -68.44387070
 C         -6.2698162493       -1.7820192857       -2.7127922249
 C         -5.7018175665       -0.5135811548       -2.0880237263
 C         -5.0336034926       -0.7917822443       -0.7437061383
 C         -4.4815891027        0.4824939848       -0.1064888793
 C         -3.7359524208        0.2237502875        1.2115788785
 C         -2.2361451532        0.1837639128        1.0848306929
 C         -1.4494610074        0.7060845112        2.1033680961
 C         -0.0650126047        0.6931391146        2.0243559956
 O          0.6815804218        1.1787844498        3.0623390987
 C          0.5864196632        0.1750617115        0.9020855846
 C         -0.2075065264       -0.4207471262       -0.0792071043
 C         -1.5984553905       -0.3963421269        0.0054223176
 O          0.2911892082       -1.0654791572       -1.1675702322
 C          1.6800009448       -1.4147628649       -1.1618065100
 C          1.8880653009       -2.6429364463       -0.2700321708
 C          1.9946783781       -1.7722690725       -2.6160971869
 C          2.4647322867       -0.1821214436       -0.6927499577
 C          3.9850692537       -0.2661836738       -0.7747633393
 C          4.5620958571        1.1376833720       -0.5908770212
 C          3.8554882384        1.9238414112        0.4812550093
 C          4.4965319986        3.2351827729        0.8262136569
 C          2.7393839954        1.5095960924        1.0633232836
 C          2.0880738351        0.1898052299        0.7448802510
 H         -7.0157447058       -2.2287828098       -2.0587118181
 H         -6.7396258352       -1.5622905958       -3.6687953992
 H         -5.4800333045       -2.5117361883       -2.8782868085
 H         -4.9705802311       -0.0703823959       -2.7679527584
 H         -6.5052698463        0.2136617332       -1.9481308817
 H         -4.2299095180       -1.5161500160       -0.8864920228
 H         -5.7640230831       -1.2431848456       -0.0669659760
 H         -5.3180295990        1.1598504420        0.0810837485
 H         -3.8107996127        0.9818834564       -0.8080321670
 H         -3.9935952879        1.0009078881        1.9342812339
 H         -4.0760287945       -0.7273728500        1.6329026998
 H         -1.9194327984        1.1305686523        2.9821571752
 H          0.0877357071        1.4733183862        3.7631762900
 H         -2.1490431278       -0.8544398484       -0.7983807233
 H          1.4843118514       -2.4688293569        0.7241367877
 H          1.3678851104       -3.4952023675       -0.7015049900
 H          2.9455326183       -2.8785401333       -0.1917913469
 H          1.2294374852       -2.4506804483       -2.9842616185
 H          2.9619447607       -2.2588641090       -2.6924576981
 H          1.9884240666       -0.8797377453       -3.2362631278
 H          2.1364438546        0.6420045594       -1.3400507870
 H          4.3086334644       -0.6683615993       -1.7353631434
 H          4.3597028851       -0.9235504413        0.0121896945
 H          5.6278152581        1.0759233933       -0.3533315942
 H          4.4786746839        1.6925983141       -1.5321853698
 H          5.4972010879        3.0738378353        1.2274349930
 H          3.9090392763        3.7737748964        1.5647261295
 H          4.5944800639        3.8556581357       -0.0646087678
 H          2.2739723010        2.1086356289        1.8280342459
 H          2.5087860295       -0.5516448453        1.4413259878
  53
        -68.44386951
 C         -7.7552078737       -0.9035742357       -1.3274329245
 C         -6.2564897849       -0.9745459879       -1.0601208100
 C         -5.6249901073        0.4157024983       -1.0297425056
 C         -4.1045605417        0.3909564861       -0.8770725147
 C         -3.6407461985       -0.1138134496        0.4946433116
 C         -2.1460757975       -0.0231218993        0.6058563140
 C         -1.5457146323        1.1369732072        1.0627401727
 C         -0.1604559805        1.2509555604        1.1510511426
 O          0.3299340472        2.4482584674        1.5747260445
 C          0.6423532463        0.1687809051        0.8063669348
 C          0.0338369608       -0.9662735052        0.2599872358
 C         -1.3456079250       -1.0715979274        0.1755382680
 O          0.7936391869       -2.0209186447       -0.1533585660
 C          2.0289604551       -1.7617268877       -0.8492141585
 C          2.9932960998       -2.8516960183       -0.3764115178
 C          1.7440446750       -1.9346922341       -2.3465512937
 C          2.5475256367       -0.3353801164       -0.5716041370
 C          4.0406579014       -0.1252938433       -0.7937706370
 C          4.3568575477        1.3569568931       -0.5986888979
 C          3.9184298735        1.8128886687        0.7656445955
 C          4.6798416293        2.9584288816        1.3572984382
 C          2.9255731457        1.2075732649        1.4078114232
 C          2.1495355300        0.0483078279        0.8646096947
 H         -8.2531619466       -0.3237871766       -0.5530782172
 H         -7.9507230130       -0.4294199567       -2.2870642427
 H         -8.1903469474       -1.9003057343       -1.3425486910
 H         -6.0892745305       -1.4773212136       -0.1062942354
 H         -5.7767750859       -1.5699852830       -1.8405228417
 H         -6.0612551084        0.9922937173       -0.2105145859
 H         -5.8721939819        0.9302683901       -1.9620374590
 H         -3.7172448336        1.4026151169       -1.0194217511
 H         -3.6695352629       -0.2405899914       -1.6549254281
 H         -4.1072821669        0.4924482059        1.2733613702
 H         -3.9524096487       -1.1499914465        0.6286868820
 H         -2.1388360723        1.9867860040        1.3620289737
 H          1.2960030148        2.4413116043        1.5023183710
 H         -1.7773965827       -1.9759744497       -0.2230256935
 H          2.4832499313       -3.8099902318       -0.4300581287
 H          3.8772443388       -2.8852365601       -1.0054694984
 H          3.2917877110       -2.6853305086        0.6555314506
 H          0.9631517828       -1.2436070104       -2.6575977525
 H          1.4033227358       -2.9481000982       -2.5413923583
 H          2.6402472199       -1.7431894945       -2.9304019284
 H          2.0176746400        0.3458959495       -1.2501365508
 H          4.3260204006       -0.4383287461       -1.7994540507
 H          4.6164373398       -0.7073089277       -0.0732320784
 H          5.4296303302        1.5291802207       -0.7104010516
 H          3.8508817997        1.9491881859       -1.3680054727
 H          5.7244059788        2.6829507669        1.5018921839
 H          4.2643355820        3.2574174910        2.3164778983
 H          4.6552176528        3.8133378796        0.6818282177
 H          2.7037722776        1.4762697555        2.4346948129
 H          2.3618733460       -0.8108683567        1.5218867858
  53
        -68.44386241
 C         -7.0160519288        0.6506579098        1.3404128091
 C         -6.8469673314       -0.6533041877        0.5694714709
 C         -5.8653498784       -0.5392933986       -0.5974148441
 C         -4.4205287104       -0.3298026893       -0.1515406993
 C         -3.4564703459       -0.3100845571       -1.3433672510
 C         -2.0472272624       -0.1005687246       -0.8707925882
 C         -1.5491043552        1.1792603864       -0.6993706622
 C         -0.2656928627        1.3985823376       -0.2050758097
 O          0.1444979937        2.6938608473       -0.1184120324
 C          0.5248315009        0.3146532052        0.1619774855
 C          0.0481594514       -0.9755624239       -0.0931244611
 C         -1.2310334412       -1.1852724123       -0.5842938023
 O          0.8245652516       -2.0613126861        0.1878250948
 C          2.2331281089       -2.0078424944       -0.1136505618
 C          2.9151187873       -2.7870424510        1.0129280060
 C          2.4341992579       -2.7396186611       -1.4466980109
 C          2.7328103574       -0.5526741493       -0.2294989545
 C          4.2283103860       -0.3530577247       -0.0138203405
 C          4.5671447039        1.1115445500       -0.2881780504
 C          3.7439139602        2.0148121128        0.5880762063
 C          4.3507738333        3.3408139841        0.9279144588
 C          2.5568646468        1.6340659952        1.0468715039
 C          1.9193059980        0.3126745336        0.7491734035
 H         -6.0872097710        0.9416497571        1.8235350040
 H         -7.3220702737        1.4512452952        0.6702007188
 H         -7.7770327114        0.5384851710        2.1096635886
 H         -6.5057978970       -1.4359104112        1.2510060091
 H         -7.8202653912       -0.9586423346        0.1770991097
 H         -6.1688386567        0.2887338266       -1.2426436783
 H         -5.9195184473       -1.4558571817       -1.1907790643
 H         -4.1278338949       -1.1325204904        0.5290282578
 H         -4.3267701793        0.6142339198        0.3865745736
 H         -3.5315253122       -1.2567734429       -1.8820549543
 H         -3.7450394629        0.4946399207       -2.0224961580
 H         -2.1423432184        2.0432378257       -0.9545104743
 H          1.0784938156        2.7165957799        0.1380681908
 H         -1.5713589370       -2.1966723239       -0.7405459947
 H          3.9500708083       -2.9996746367        0.7642611445
 H          2.8758014099       -2.2331120761        1.9474391055
 H          2.3843302192       -3.7250179441        1.1537318695
 H          1.8444296272       -2.2601290833       -2.2254186936
 H          2.1055828664       -3.7712908545       -1.3532792876
 H          3.4816054780       -2.7255529798       -1.7356610127
 H          2.5001552044       -0.2040880060       -1.2442108316
 H          4.8010102499       -0.9996362879       -0.6807247759
 H          4.4978734357       -0.5913693388        1.0157467033
 H          5.6276066979        1.2925275692       -0.0994631447
 H          4.3800611869        1.3452005845       -1.3412715578
 H          5.2715697423        3.2007630796        1.4939798475
 H          3.6698620044        3.9487834879        1.5185162459
 H          4.6037773715        3.8816375082        0.0162070741
 H          2.0336705191        2.2515348012        1.7685961191
 H          1.8465621564       -0.2273863060        1.7074630087
  53
        -68.44385794
 C         -6.1124902449       -0.9600981011       -2.2822785422
 C         -6.4787547513       -0.6544677851       -0.8348398327
 C         -5.8467512699        0.6367136395       -0.3119999844
 C         -4.3180265627        0.6453554594       -0.2955858595
 C         -3.7138259542       -0.4146102106        0.6329708323
 C         -2.2198152160       -0.2746902761        0.6731526471
 C         -1.6126451583        0.5500167936        1.6105547658
 C         -0.2376690411        0.7279653454        1.6123888875
 O          0.3662332367        1.5155210141        2.5513173839
 C          0.5678435245        0.0952247823        0.6630522132
 C         -0.0413637660       -0.7807805408       -0.2346164658
 C         -1.4248992727       -0.9450534825       -0.2372718618
 O          0.6494159369       -1.5203078597       -1.1426618373
 C          2.0591754313       -1.6645495688       -0.9354658503
 C          2.2890467573       -2.6472987235        0.2173610971
 C          2.5921699351       -2.2503504373       -2.2437555985
 C          2.6427907705       -0.2667838154       -0.6730811633
 C          4.1730979102       -0.1875436464       -0.6479671948
 C          4.6884097473        0.9266846286        0.2871530438
 C          3.7230416151        2.0741601368        0.3976829480
 C          4.2699922820        3.4623206979        0.3037770326
 C          2.4442567174        1.7833258435        0.5960007016
 C          2.0515322585        0.3325977504        0.6148104988
 H         -6.6669633309       -1.8264652844       -2.6366032341
 H         -6.3530102137       -0.1138442717       -2.9225336358
 H         -5.0518772060       -1.1754458112       -2.3803551700
 H         -7.5646501109       -0.5543304752       -0.7593875891
 H         -6.1866807280       -1.4928273266       -0.2002428150
 H         -6.2106177616        0.8145373999        0.7035710762
 H         -6.1885466638        1.4684336924       -0.9336687804
 H         -3.9817666052        1.6303966372        0.0381017423
 H         -3.9309965686        0.4974748745       -1.3043447637
 H         -4.1293055885       -0.2911090384        1.6355670527
 H         -3.9742564732       -1.4096713047        0.2719061082
 H         -2.2151124151        1.0583957795        2.3527796426
 H         -0.3072946237        1.8770146170        3.1394593211
 H         -1.8557266102       -1.6184235222       -0.9613113728
 H          1.7569469781       -2.3217436410        1.1077071029
 H          1.9099562752       -3.6268688511       -0.0649027375
 H          3.3465079680       -2.7358193353        0.4481565633
 H          3.6430280633       -2.5046322553       -2.1487781820
 H          2.4683394481       -1.5342352819       -3.0518594412
 H          2.0293519451       -3.1466101407       -2.4912064891
 H          2.2790129534        0.3612946295       -1.4966708016
 H          4.5343203421       -0.0007671767       -1.6601274230
 H          4.5993173561       -1.1366134472       -0.3200394797
 H          4.8273615409        0.5050981309        1.2880890824
 H          5.6631498780        1.2734556227       -0.0581422192
 H          4.7338613707        3.6206319834       -0.6701022966
 H          5.0338792210        3.6212211194        1.0650113134
 H          3.4819377380        4.1983441087        0.4398322229
 H          1.6819584975        2.5382518633        0.6865335010
 H          2.5223700711       -0.1410394871        1.4876938846
  53
        -68.44385798
 C         -6.1155794898       -0.9672652107       -2.2719658872
 C         -6.4827125357       -0.6511753839       -0.8269567149
 C         -5.8470059966        0.6410790949       -0.3114392659
 C         -4.3182366989        0.6469778358       -0.2984746313
 C         -3.7138190733       -0.4146074309        0.6279645687
 C         -2.2198965236       -0.2744183317        0.6687594104
 C         -1.6137165614        0.5513805420        1.6058380740
 C         -0.2388221663        0.7295151889        1.6087880003
 O          0.3641131698        1.5183030205        2.5473138386
 C          0.5676398622        0.0958354571        0.6608888003
 C         -0.0405690651       -0.7811173973       -0.2364720851
 C         -1.4240956346       -0.9455797529       -0.2402896166
 O          0.6512970554       -1.5215619264       -1.1429514332
 C          2.0607774014       -1.6657483121       -0.9337137780
 C          2.2889257503       -2.6473218929        0.2203576010
 C          2.5954702051       -2.2534441355       -2.2404232554
 C          2.6443906005       -0.2678175453       -0.6721920879
 C          4.1747091516       -0.1889661583       -0.6449023004
 C          4.6887042573        0.9264765808        0.2895130722
 C          3.7233749813        2.0742130022        0.3974522197
 C          4.2706300890        3.4622021026        0.3027038542
 C          2.4442526570        1.7837534284        0.5942707618
 C          2.0513740275        0.3331013829        0.6141426338
 H         -6.6729822211       -1.8335926361       -2.6216335961
 H         -6.3520314613       -0.1241811807       -2.9178483990
 H         -5.0557008199       -1.1872426239       -2.3674403535
 H         -7.5682930048       -0.5468528197       -0.7531064682
 H         -6.1940351214       -1.4863542307       -0.1866534996
 H         -6.2083565546        0.8241708942        0.7040725378
 H         -6.1884375896        1.4705953053       -0.9361429385
 H         -3.9796165180        1.6312542048        0.0349451267
 H         -3.9337761669        0.4989622534       -1.3081975781
 H         -4.1294561996       -0.2930470709        1.6307500324
 H         -3.9741178286       -1.4089903350        0.2650475154
 H         -2.2169671705        1.0604607617        2.3469544206
 H         -0.3100084867        1.8804451802        3.1343693669
 H         -1.8541048866       -1.6200476501       -0.9637948038
 H          3.3460739799       -2.7361851122        0.4522874345
 H          1.7561710142       -2.3202592058        1.1097046294
 H          1.9094469724       -3.6269636368       -0.0611247886
 H          2.4732952469       -1.5380609914       -3.0494004107
 H          2.0325210892       -3.1496370537       -2.4878450092
 H          3.6460621128       -2.5081344237       -2.1435192897
 H          2.2817697505        0.3593961897       -1.4969637369
 H          4.5373967270       -0.0034202076       -1.6567607727
 H          4.6003295860       -1.1377232841       -0.3152558500
 H          4.8262162629        0.5060968203        1.2911639522
 H          5.6639742485        1.2726909460       -0.0548432750
 H          5.0327179684        3.6221432184        1.0655186256
 H          3.4823614375        4.1984552760        0.4360138645
 H          4.7368188896        3.6192574367       -0.6702927746
 H          1.6818546619        2.5388360876        0.6825558985
 H          2.5210644377       -0.1395261055        1.4881857713
  53
        -68.44384401
 C         -6.1722804084       -2.0465513527       -1.4802682682
 C         -6.5118323963       -0.6852693994       -0.8849294955
 C         -5.9322795948       -0.4771228007        0.5153311757
 C         -4.4063961485       -0.5288408389        0.5956136105
 C         -3.7169273574        0.5737101341       -0.2166049524
 C         -2.2315756147        0.5242803181       -0.0042816467
 C         -1.6439300521        1.2289275291        1.0376356793
 C         -0.2754122687        1.1674345610        1.2509158343
 O          0.3038175327        1.8433896953        2.2873409660
 C          0.5455647559        0.4032724536        0.4187226063
 C         -0.0599760721       -0.3572742473       -0.5808950299
 C         -1.4341413124       -0.2795155795       -0.7968842498
 O          0.6246052061       -1.2066187325       -1.3923459771
 C          1.9440145003       -1.5850826746       -0.9836894862
 C          1.8332565077       -2.5908174886        0.1668951169
 C          2.5607562647       -2.2542454488       -2.2127677885
 C          2.7065121631       -0.3049399638       -0.6056382597
 C          4.2077984012       -0.4840658930       -0.3547616412
 C          4.7565682009        0.5283262319        0.6725250280
 C          3.9902426163        1.8219733409        0.6675664541
 C          4.7684647649        3.0982767869        0.6876746239
 C          2.6657966463        1.7506572823        0.6690857727
 C          2.0384061084        0.3867914242        0.5954540451
 H         -5.1055125793       -2.1372201482       -1.6665684422
 H         -6.4731257144       -2.8436700496       -0.8034649820
 H         -6.6927884716       -2.1849263047       -2.4254815224
 H         -6.1584302401        0.1025208593       -1.5522494855
 H         -7.5987194757       -0.5900498204       -0.8186449755
 H         -6.3375686606       -1.2463669281        1.1779978416
 H         -6.2718584368        0.4920265467        0.8906231574
 H         -4.0457166420       -1.5003173564        0.2557615390
 H         -4.1120741855       -0.4235193935        1.6430499461
 H         -3.9342547058        0.4388527638       -1.2762800305
 H         -4.1072109110        1.5450245037        0.0952886562
 H         -2.2568185894        1.8372524617        1.6908342525
 H         -0.3796178534        2.3189279486        2.7741740134
 H         -1.8574704618       -0.8661255685       -1.5968754818
 H          1.3448813661       -3.4942409919       -0.1912638668
 H          2.8148895057       -2.8534359766        0.5498883462
 H          1.2345579247       -2.1797145806        0.9757976798
 H          1.8996135308       -3.0431914560       -2.5616673812
 H          3.5285063303       -2.6816902678       -1.9703734309
 H          2.6797718038       -1.5284642114       -3.0128888481
 H          2.5783572465        0.3743786485       -1.4584165555
 H          4.7411315132       -0.3609950591       -1.2982724621
 H          4.4170433098       -1.4911113103        0.0086376487
 H          4.6727056925        0.0902217431        1.6725102198
 H          5.8158526696        0.7057175279        0.4826325494
 H          5.4260595089        3.1278385100        1.5565402315
 H          4.1026126319        3.9564769433        0.7235893287
 H          5.3921055117        3.1749447374       -0.2033217712
 H          2.0351205369        2.6232312895        0.6643104533
 H          2.2883967918       -0.1583952751        1.5164255154
  53
        -68.44383089
 C         -6.2149067097        0.9516590622        0.6617040050
 C         -5.9672936715       -0.4524552569        1.1988663358
 C         -4.5966844737       -1.0272022693        0.8354271902
 C         -4.3898473435       -1.2739659385       -0.6641095237
 C         -3.6491716868       -0.1380937887       -1.3856849594
 C         -2.2487125365        0.0244671970       -0.8689483539
 C         -1.9201182816        1.0706753912       -0.0223126811
 C         -0.6273718395        1.2112435697        0.4645997213
 O         -0.4101327887        2.2401497510        1.3365408115
 C          0.3817230742        0.3224994907        0.0869865404
 C          0.0201510017       -0.7805953538       -0.6902384064
 C         -1.2753346071       -0.9103710875       -1.1781865709
 O          0.8796028452       -1.7881810131       -1.0089447180
 C          2.0801620668       -1.8978355960       -0.2378569315
 C          1.7462844266       -2.4506428498        1.1515373885
 C          2.9435655397       -2.9032467766       -1.0018980829
 C          2.7265369161       -0.5061426246       -0.1999595782
 C          4.1117317127       -0.4030166447        0.4293781097
 C          4.7069311056        0.9720702497        0.1097963834
 C          3.6873088825        2.0776136578        0.0579468797
 C          4.2468582681        3.4367380833       -0.2356625552
 C          2.3877054914        1.8707116341        0.2226717838
 C          1.8196674703        0.5021278024        0.5166692206
 H         -6.2734724810        0.9496714708       -0.4234807045
 H         -7.1547699915        1.3413103381        1.0480496926
 H         -5.4157517200        1.6225423082        0.9688011951
 H         -6.0482523109       -0.4294635216        2.2887973320
 H         -6.7472270798       -1.1224625740        0.8277195373
 H         -4.4881500426       -1.9765044119        1.3656072843
 H         -3.8137194831       -0.3617564374        1.2026474496
 H         -5.3583332955       -1.4298809031       -1.1444487663
 H         -3.8077677933       -2.1878362419       -0.7977060280
 H         -3.6126915289       -0.3756217461       -2.4518748670
 H         -4.1909975260        0.7984744597       -1.2634035056
 H         -2.6554171384        1.8001254100        0.2788724959
 H          0.4910329200        2.1970439136        1.6761692878
 H         -1.5000405210       -1.7633515202       -1.7987746695
 H          1.3563775145       -3.4609844706        1.0527845835
 H          2.6368344094       -2.4769353735        1.7730704945
 H          0.9861536786       -1.8432851092        1.6366872336
 H          3.2971757103       -2.4687426096       -1.9332109562
 H          2.3395881815       -3.7751060735       -1.2388476869
 H          3.7929082488       -3.2157668144       -0.4024597360
 H          2.8040737160       -0.1895938398       -1.2483029503
 H          4.7759766306       -1.1787373421        0.0480686809
 H          4.0329327594       -0.5310728060        1.5109330643
 H          5.4805985402        1.2234251309        0.8407241786
 H          5.1986112660        0.9354959521       -0.8683310199
 H          4.9523186549        3.7312973065        0.5412103790
 H          3.4580617776        4.1822588727       -0.2908305170
 H          4.7852562663        3.4278389849       -1.1829806166
 H          1.7015980356        2.6977355675        0.1091867955
 H          1.8922234042        0.3252831516        1.6037067717
  53
        -68.44383008
 C         -4.2675664726        2.0627362425       -0.5892648232
 C         -5.1485791844        0.9320902026       -1.1085917536
 C         -4.3433014107       -0.3141185975       -1.5074616270
 C         -4.4518238551       -1.4707021131       -0.5127071591
 C         -3.8319824245       -1.1817123565        0.8572798362
 C         -2.3767582907       -0.8027981730        0.8085689353
 C         -1.9031969439        0.2427160101        1.5901393460
 C         -0.5681856134        0.6184954214        1.5579067350
 O         -0.1230111821        1.6264397941        2.3680028959
 C          0.3409320658       -0.0305710901        0.7190895673
 C         -0.1228500190       -1.1381842304        0.0065551881
 C         -1.4668471766       -1.5035511549        0.0399705025
 O          0.6734901150       -1.9367399788       -0.7522373098
 C          2.0911296528       -1.8287969158       -0.5797929994
 C          2.4990700805       -2.5514912245        0.7078966741
 C          2.6837465919       -2.5539399706       -1.7900139813
 C          2.4445946080       -0.3352940808       -0.5778286683
 C          3.9281956566        0.0171299955       -0.5790290681
 C          4.0772114330        1.5025341539       -0.9093875012
 C          3.0454517779        2.3600589383       -0.2261353491
 C          3.2580721055        3.8374938973       -0.3722930361
 C          2.0121853259        1.8579946821        0.4344719634
 C          1.7898935161        0.3788560581        0.6088175679
 H         -4.8768002701        2.9058524059       -0.2685679198
 H         -3.6640965974        1.7289236905        0.2494080281
 H         -3.5939173901        2.4061362621       -1.3715296209
 H         -5.8836984366        0.6642404029       -0.3466018630
 H         -5.7050630213        1.2997924138       -1.9735767207
 H         -3.2919178289       -0.0464567449       -1.6249221716
 H         -4.6974705593       -0.6782695566       -2.4744757372
 H         -3.9674565319       -2.3465309527       -0.9476915236
 H         -5.5060740953       -1.7215570009       -0.3682963507
 H         -4.3924481856       -0.3843096615        1.3485722631
 H         -3.9371815002       -2.0797656793        1.4751940037
 H         -2.5786841858        0.7721643317        2.2518477764
 H         -0.8601475287        1.9510873050        2.8988452807
 H         -1.7639418684       -2.3582906447       -0.5450216866
 H          3.5607331395       -2.4194528092        0.8954642750
 H          1.9346920218       -2.1733723973        1.5565262858
 H          2.2880800569       -3.6138355296        0.6082731355
 H          2.5206295074       -1.9761403462       -2.6959945796
 H          2.1866914576       -3.5140444168       -1.9019006596
 H          3.7475160407       -2.7224727274       -1.6551719584
 H          1.9987337421        0.0759729850       -1.4932535335
 H          4.4755722076       -0.5744339056       -1.3136129053
 H          4.3545274830       -0.1849182562        0.4054389798
 H          5.0774247473        1.8483796256       -0.6337771722
 H          3.9786759911        1.6471713873       -1.9911880787
 H          3.3078496689        4.1114714160       -1.4261513339
 H          4.2003257857        4.1321787607        0.0899188979
 H          2.4521145384        4.3954433966        0.0964714646
 H          1.3026448719        2.5150798395        0.9089423873
 H          2.2959841707        0.0864144159        1.5416490584
  53
        -68.44377756
 C         -6.7055176662        1.4805040392        0.0483588161
 C         -6.6699247211       -0.0169557432       -0.2335591827
 C         -5.6840735725       -0.4001115159       -1.3387343985
 C         -4.2214221721       -0.0674823837       -1.0430520464
 C         -3.6632802157       -0.8117173619        0.1757589029
 C         -2.1946347770       -0.5372951188        0.3211383229
 C         -1.7512385137        0.5442279898        1.0704634301
 C         -0.3991169612        0.8375733858        1.1596479673
 O          0.0431728052        1.8838264101        1.9188978298
 C          0.5477788103        0.0621529612        0.4870406296
 C          0.1008862434       -1.0593870033       -0.2106903612
 C         -1.2605025112       -1.3399170156       -0.3058341219
 O          0.9360269720       -1.9377303114       -0.8267672519
 C          2.3180820147       -1.9017394962       -0.4529133043
 C          2.4704641698       -2.5428505211        0.9303018823
 C          3.0342468086       -2.7457679484       -1.5080761586
 C          2.7822900983       -0.4370713340       -0.5027836285
 C          4.2917026665       -0.2202410034       -0.3495962589
 C          4.6264772981        1.1328906542        0.3126151873
 C          3.5872657242        2.1821635085        0.0299655807
 C          4.0566406324        3.5456846761       -0.3643568334
 C          2.3139744228        1.8385939130        0.1712535798
 C          2.0099518685        0.4094961500        0.5239354655
 H         -6.9032314407        2.0353382603       -0.8664615901
 H         -7.4904277366        1.7111060530        0.7655069108
 H         -5.7604049392        1.8236928015        0.4608211833
 H         -6.4245676176       -0.5551246421        0.6835967653
 H         -7.6671563124       -0.3409717519       -0.5419343240
 H         -5.9745494286        0.1141925177       -2.2585086148
 H         -5.7690726971       -1.4743539916       -1.5218069261
 H         -4.1045688871        1.0067826819       -0.8929154765
 H         -3.6219066401       -0.3389781768       -1.9152108044
 H         -4.1868360738       -0.4882688013        1.0763969632
 H         -3.8291644886       -1.8827839798        0.0457893170
 H         -2.4647832267        1.1657386039        1.5968937767
 H         -0.7143476119        2.3189798472        2.3275276258
 H         -1.5637161715       -2.2064002137       -0.8719134873
 H          1.8191241465       -2.0542047080        1.6505365051
 H          2.1868374373       -3.5913119781        0.8734379919
 H          3.4970082240       -2.4775643698        1.2784674577
 H          4.0800663626       -2.8758535529       -1.2485565602
 H          2.9633455936       -2.2665611181       -2.4809428021
 H          2.5584011783       -3.7208681191       -1.5712249852
 H          2.4798026383       -0.0679402063       -1.4914170442
 H          4.7566524457       -0.2608365783       -1.3354633251
 H          4.7329239401       -1.0163765605        0.2516191255
 H          4.6733384980        0.9880080580        1.3969301714
 H          5.6120234397        1.4670603531       -0.0139821043
 H          4.7148867938        3.9562726000        0.4013828290
 H          3.2151205557        4.2198968750       -0.5003965197
 H          4.6211706882        3.4965147639       -1.2958083552
 H          1.5021464489        2.5221877917       -0.0099774750
 H          2.4037104708        0.2112899155        1.5307080666
  53
        -68.44376956
 C         -4.3610062222        1.2389641605        2.3921823250
 C         -4.0167818190        0.0097524484        1.5598981257
 C         -4.9758962868       -0.1553705095        0.3824533251
 C         -4.6385232134       -1.3493309618       -0.5156094935
 C         -3.6602193632       -1.0106598298       -1.6494112073
 C         -2.3133153859       -0.5792935844       -1.1472737805
 C         -1.9173363631        0.7443881741       -1.2239264067
 C         -0.6893700248        1.1656412515       -0.7174953720
 O         -0.3803228964        2.4815219979       -0.8784798713
 C          0.1474445623        0.2487226806       -0.0912778913
 C         -0.2152433208       -1.1030892167       -0.1042404226
 C         -1.4374627361       -1.5140857445       -0.6104627481
 O          0.6167131715       -2.0410895140        0.4328084708
 C          2.0354645186       -1.9276572371        0.2051177042
 C          2.6904251069       -2.4059307838        1.5027038630
 C          2.3842756787       -2.8894483133       -0.9378062593
 C          2.4344867386       -0.4869792341       -0.1766859129
 C          3.8923877477       -0.1209531093        0.0749906146
 C          4.1419483478        1.2834244009       -0.4732751539
 C          3.1947730558        2.2689129851        0.1536858073
 C          3.6771800894        3.6832805856        0.2474202694
 C          2.0093825086        1.8865871822        0.6154759804
 C          1.4929936020        0.4825218907        0.5595733463
 H         -3.6845924248        1.3297198888        3.2390198877
 H         -4.2766201191        2.1401755396        1.7888041118
 H         -5.3792569514        1.1744803781        2.7712761460
 H         -2.9943248702        0.0978566663        1.1926820687
 H         -4.0684056929       -0.8814261667        2.1902596774
 H         -4.9723638170        0.7587091623       -0.2147271495
 H         -5.9867058268       -0.2816870329        0.7796679526
 H         -5.5574061817       -1.7233764132       -0.9738376548
 H         -4.2216369976       -2.1530078770        0.0939785487
 H         -3.5412424552       -1.8993450042       -2.2748428312
 H         -4.0918482934       -0.2195823645       -2.2653828024
 H         -2.5509085101        1.4888383495       -1.6796032993
 H          0.5281074179        2.6354787588       -0.5790655807
 H         -1.6916517705       -2.5615463799       -0.5775424326
 H          3.7532329433       -2.5740167317        1.3599760893
 H          2.5442311693       -1.6829883459        2.3012657034
 H          2.2208657252       -3.3393355471        1.8020491197
 H          3.4458634658       -2.8432607284       -1.1650309849
 H          1.8185310388       -2.6266635582       -1.8294542062
 H          2.1258724188       -3.9063345847       -0.6545828912
 H          2.2494223690       -0.3678838241       -1.2522979576
 H          4.5565220081       -0.8356255988       -0.4138617036
 H          4.1050844084       -0.1258555121        1.1446680147
 H          5.1702723290        1.5887329932       -0.2676192464
 H          4.0136468106        1.2860392932       -1.5605592332
 H          2.9134975153        4.3359653760        0.6631702878
 H          3.9538235523        4.0509173028       -0.7405315934
 H          4.5633827450        3.7388814437        0.8794129923
 H          1.3924419303        2.5881435207        1.1660343299
 H          1.3921368829        0.1395767795        1.6023978989
  53
        -68.44376221
 C         -6.8296021377        0.7376239121        0.9628593027
 C         -6.7045031596       -0.0596801709       -0.3301833001
 C         -5.7941901504       -1.2821791184       -0.2001310981
 C         -4.3409303780       -0.9700627984        0.1578354790
 C         -3.6206027994       -0.1300759575       -0.9035274013
 C         -2.1706558514        0.0265394932       -0.5470454192
 C         -1.7539216304        1.0781480906        0.2580708335
 C         -0.4199078298        1.2153545860        0.6097143653
 O         -0.0090570084        2.2368896292        1.4186332388
 C          0.5375298849        0.3057945124        0.1554358589
 C          0.1012474692       -0.7863760288       -0.5937862898
 C         -1.2390492670       -0.9100465897       -0.9532723993
 O          0.9262342787       -1.7821453552       -1.0135691733
 C          2.2051792641       -1.8871147911       -0.3776780530
 C          2.0115097524       -2.4789616937        1.0222661173
 C          3.0033251544       -2.8534034008       -1.2540306047
 C          2.8432689891       -0.4886241442       -0.3675751472
 C          4.3102812716       -0.4384840134        0.0729072920
 C          4.6736910624        0.8973985210        0.7548249213
 C          3.8406291560        2.0436163334        0.2516961293
 C          4.5365971897        3.3257527995       -0.0752262161
 C          2.5318311371        1.8535411420        0.1507943338
 C          1.9965940486        0.4856881987        0.4697919069
 H         -7.5638897049        1.5320143233        0.8470554334
 H         -7.1487072828        0.0922841560        1.7786482412
 H         -5.8810058059        1.1925869922        1.2356435068
 H         -7.6973627946       -0.4068925363       -0.6273437510
 H         -6.3381633235        0.5910593493       -1.1259906468
 H         -5.8123204218       -1.8298185038       -1.1458652503
 H         -6.2040028140       -1.9414478787        0.5695272676
 H         -3.8027935999       -1.9140712713        0.2723215817
 H         -4.2945421350       -0.4538176695        1.1178633894
 H         -3.7114762772       -0.6253043533       -1.8720618656
 H         -4.0872250163        0.8533652340       -0.9737751095
 H         -2.4740569450        1.8041806679        0.6142473653
 H         -0.7717351256        2.7778105748        1.6551492856
 H         -1.5297360524       -1.7578843679       -1.5530676439
 H          1.6181554978       -3.4891084888        0.9337062168
 H          2.9530239945       -2.5174247358        1.5620493306
 H          1.2994435503       -1.8866139770        1.5913759986
 H          3.1778791338       -2.4132767235       -2.2322475911
 H          2.4347388768       -3.7699716456       -1.3875271109
 H          3.9568291547       -3.0897236770       -0.7925180144
 H          2.7822612374       -0.1319254584       -1.4039973055
 H          4.9469247368       -0.5784865317       -0.8016416602
 H          4.5283883079       -1.2505723842        0.7678235613
 H          4.4965223046        0.7986704591        1.8308154400
 H          5.7361240805        1.1022839164        0.6174552951
 H          3.8233037899        4.0841277916       -0.3871303600
 H          5.2574601246        3.1704589913       -0.8783261381
 H          5.0821804372        3.6935429349        0.7938515658
 H          1.8575929394        2.6158362811       -0.2006261347
 H          2.1640221767        0.2899424080        1.5382080479
  53
        -68.44371900
 C         -6.3516559469        1.2339957704       -2.1881003002
 C         -6.3847540293       -0.2429393299       -1.8125775830
 C         -5.7469906569       -0.5328205510       -0.4533308519
 C         -4.2384363569       -0.3000190034       -0.4322924655
 C         -3.6211590234       -0.7017787087        0.9123332381
 C         -2.1404508448       -0.4533761389        0.9084832245
 C         -1.6344461965        0.7740146617        1.2989084187
 C         -0.2663376932        1.0344457548        1.2794332853
 O          0.1244146881        2.2862101614        1.6454164393
 C          0.6188761197        0.0342639838        0.8917256906
 C          0.0953938021       -1.1710250941        0.4115991564
 C         -1.2674024160       -1.4224069250        0.4349967082
 O          0.9306192651       -2.1491919143       -0.0425139456
 C          2.0735683505       -1.7769162845       -0.8378921690
 C          3.1820046095       -2.7490026831       -0.4283110917
 C          1.6934040449       -2.0114726403       -2.3054033194
 C          2.4572928271       -0.2981478201       -0.6216953440
 C          3.8984929352        0.0625015641       -0.9618605176
 C          4.0690825613        1.5737483975       -0.8128577300
 C          3.6890361415        2.0115005451        0.5747676594
 C          4.3667687905        3.2435379590        1.0893502104
 C          2.8174249810        1.3199099947        1.3003978178
 C          2.1303885825        0.0737640262        0.8354031532
 H         -5.3299425701        1.5817637472       -2.3148792829
 H         -6.8834439228        1.3980140905       -3.1228350361
 H         -6.8266018574        1.8334538607       -1.4143172779
 H         -7.4252652988       -0.5762075722       -1.7870667864
 H         -5.8713061577       -0.8242818624       -2.5819521339
 H         -5.9441821743       -1.5753505792       -0.1902638205
 H         -6.2203941228        0.0932597824        0.3067495853
 H         -4.0187340189        0.7526946751       -0.6149756587
 H         -3.7681647481       -0.8823914251       -1.2279471097
 H         -4.0919605832       -0.1222186047        1.7086173650
 H         -3.8182124854       -1.7598205064        1.0961045886
 H         -2.2905080448        1.5639602291        1.6292065247
 H          1.0779852235        2.3780943873        1.5009382586
 H         -1.6291184123       -2.3765087777        0.0856845483
 H          2.7743075408       -3.7565512232       -0.4287465696
 H          4.0132741561       -2.7029762261       -1.1247844529
 H          3.5397613538       -2.5298285949        0.5745232566
 H          1.4488018215       -3.0591162182       -2.4592575108
 H          2.5159974933       -1.7391036364       -2.9610364032
 H          0.8214596145       -1.4134297197       -2.5626605567
 H          1.8083610043        0.3085853480       -1.2667216372
 H          4.1385260562       -0.2411640908       -1.9821489249
 H          4.5857414210       -0.4397528562       -0.2800647813
 H          5.1059091462        1.8550333866       -1.0099032891
 H          3.4462867790        2.0923125345       -1.5489454182
 H          4.1988848739        4.0762543155        0.4066283781
 H          5.4428336765        3.0831812380        1.1547867748
 H          3.9966107016        3.5176595747        2.0741937972
 H          2.6462811326        1.5867479522        2.3374121738
 H          2.4817049332       -0.7435997171        1.4863712344
  53
        -68.44366780
 C         -3.0062699691        0.2370944039       -2.9508393529
 C         -3.3893519985        0.5487946644       -1.5093671130
 C         -4.4322478940       -0.4353769019       -0.9810342930
 C         -4.7432734410       -0.2505359998        0.5079262613
 C         -3.8618428667       -1.1082863461        1.4290196508
 C         -2.4041376940       -0.7783253762        1.2985966976
 C         -1.8848789935        0.3581432682        1.8997587384
 C         -0.5491079822        0.7139484531        1.7533192979
 O         -0.0882037380        1.8328316218        2.3879581596
 C          0.3091001122       -0.0669633678        0.9785040247
 C         -0.2240066259       -1.2083887584        0.3709846188
 C         -1.5579978587       -1.5661086162        0.5409958343
 O          0.5187466657       -2.0624706710       -0.3752944205
 C          1.6942568638       -1.6162855249       -1.0718722261
 C          2.8323241691       -2.5485184023       -0.6454173823
 C          1.3897918583       -1.8284427506       -2.5613188989
 C          1.9859518435       -0.1343198840       -0.7891127947
 C          3.3753148994        0.3206767964       -1.2252906547
 C          3.4586828208        1.8385361947       -1.1025254537
 C          3.0561978988        2.2812517468        0.2772260231
 C          3.5666831455        3.6249885549        0.7019673916
 C          2.3132732169        1.5229265608        1.0701312188
 C          1.7779287260        0.1715051329        0.7036945285
 H         -2.2856026385        0.9626927636       -3.3215295528
 H         -2.5612103362       -0.7534948379       -3.0168191032
 H         -3.8819164923        0.2625703389       -3.5965222560
 H         -2.4965409627        0.5087943554       -0.8851600892
 H         -3.7926328487        1.5629395249       -1.4515380015
 H         -4.0811933687       -1.4546819689       -1.1513021919
 H         -5.3503177427       -0.3059117505       -1.5599757830
 H         -5.7836928327       -0.5257902520        0.6964199296
 H         -4.6278186737        0.8024388789        0.7723767938
 H         -4.1814396142       -0.9453744059        2.4615419416
 H         -4.0197729158       -2.1609883813        1.1883682634
 H         -2.5301305221        0.9873653479        2.5003964512
 H         -0.8235884583        2.2497204541        2.8535451529
 H         -1.9097831783       -2.4646029044        0.0597783329
 H          2.4820970155       -3.5757011630       -0.7104919141
 H          3.6933161747       -2.4279633862       -1.2952959037
 H          3.1301947774       -2.3573155698        0.3822605608
 H          1.1474974924       -2.8733889455       -2.7360739393
 H          2.2439555223       -1.5570793186       -3.1743786051
 H          0.5351028057       -1.2233070034       -2.8556854549
 H          1.2475882015        0.4576986450       -1.3452393819
 H          3.5761098594        0.0192476028       -2.2547645333
 H          4.1314300319       -0.1296413052       -0.5804616159
 H          4.4771405669        2.1757580524       -1.3119727662
 H          2.8033623484        2.3085638377       -1.8435114424
 H          3.1737845790        3.9004516567        1.6767784214
 H          3.2728967178        4.3845126727       -0.0223117526
 H          4.6559500808        3.6199652261        0.7521694565
 H          2.0829759090        1.8567089896        2.0685615719
 H          2.3367634384       -0.5684086258        1.2995073798
  53
        -68.44362738
 C         -2.9313497878       -0.1090261233       -2.3900359547
 C         -3.7141252105        0.7348039734       -1.3912298430
 C         -4.9076497167        0.0003652004       -0.7786793327
 C         -4.5755669457       -1.2590170277        0.0233588701
 C         -3.8500315999       -0.9984054180        1.3505628794
 C         -2.3983162416       -0.6424681068        1.1961800929
 C         -1.9193665883        0.5867208329        1.6153284721
 C         -0.5757910672        0.9301339551        1.4797330551
 O         -0.2215192269        2.1817742828        1.8813533789
 C          0.3189481266        0.0107587379        0.9442293998
 C         -0.1824432701       -1.2008550659        0.4568009260
 C         -1.5180131358       -1.5383520027        0.6041377080
 O          0.6555798609       -2.1012509340       -0.1333585345
 C          1.6750502668       -1.6163855965       -1.0298941552
 C          2.8783532386       -2.5336347144       -0.8021644802
 C          1.1432221334       -1.8010879190       -2.4568168925
 C          1.9931023617       -0.1283029008       -0.7739646762
 C          3.3634394142        0.3410214952       -1.2479819282
 C          3.4609689061        1.8507864020       -1.0327224097
 C          3.2142905424        2.1933252742        0.4106475631
 C          3.8731756367        3.4386168471        0.9176972108
 C          2.4709939064        1.4120675842        1.1862921432
 C          1.8098692677        0.1493147534        0.7287054559
 H         -3.5962773514       -0.5355792863       -3.1388151609
 H         -2.1918401052        0.5055975507       -2.8998829355
 H         -2.4083075042       -0.9170864073       -1.8852765222
 H         -3.0419978513        1.0706224208       -0.6021775174
 H         -4.0960233283        1.6225626602       -1.9028276122
 H         -5.5872825781       -0.2845906801       -1.5873548023
 H         -5.4466342246        0.6961000760       -0.1302896801
 H         -3.9856124907       -1.9403867573       -0.5887935652
 H         -5.5195327657       -1.7613231762        0.2522867015
 H         -4.3664561340       -0.2028039704        1.8906964829
 H         -3.9147990152       -1.9085420665        1.9541112348
 H         -2.5797759153        1.3204766189        2.0511427032
 H          0.7043790415        2.3425470841        1.6461910999
 H         -1.8508609417       -2.5030522375        0.2545929548
 H          2.5336806643       -3.5643675764       -0.8159031419
 H          3.6208668690       -2.3981553814       -1.5822090983
 H          3.3342022948       -2.3428198111        0.1660894258
 H          0.9396102128       -2.8527634863       -2.6404130087
 H          1.8704930056       -1.4488368411       -3.1832901323
 H          0.2170676284       -1.2440619408       -2.5837149725
 H          1.2413748155        0.4661902462       -1.3095177897
 H          3.5048396139        0.1049018692       -2.3039610512
 H          4.1511628325       -0.1492595015       -0.6747652763
 H          4.4508498288        2.2078295720       -1.3253253536
 H          2.7301475959        2.3643047644       -1.6657989656
 H          4.9572243476        3.3438532166        0.8564854904
 H          3.6006589968        3.6388967653        1.9509992844
 H          3.5821793729        4.2922192047        0.3057971868
 H          2.4023164058        1.6151436910        2.2493267598
 H          2.2780815815       -0.6754225385        1.2908064479
  53
        -68.44359754
 C         -3.5298594796        1.5395975441       -2.3674905339
 C         -3.4168351534        0.2017045058       -1.6465699642
 C         -4.6075150803       -0.0371268280       -0.7195615527
 C         -4.5245286430       -1.3571111930        0.0533965668
 C         -3.7891852921       -1.2423526815        1.3964474531
 C         -2.3535441515       -0.8298643420        1.2475125296
 C         -1.9413653750        0.4420372976        1.6037756696
 C         -0.6169575938        0.8472992453        1.4491109381
 O         -0.3270428204        2.1336779313        1.7866606738
 C          0.3237750636       -0.0514066818        0.9597182946
 C         -0.1141456048       -1.3093965090        0.5298607217
 C         -1.4303561679       -1.7073901887        0.6931697978
 O          0.7742891345       -2.1874663540       -0.0195252801
 C          1.7483858572       -1.6851906249       -0.9558663626
 C          2.9998913913       -2.5333697664       -0.7219799956
 C          1.1969980577       -1.9451373439       -2.3634814702
 C          1.9974975149       -0.1743493922       -0.7596816026
 C          3.3425788701        0.3411543390       -1.2576047825
 C          3.3682496424        1.8612113004       -1.1024707487
 C          3.1052999166        2.2496770138        0.3263539613
 C          3.7007846329        3.5464697415        0.7798812900
 C          2.4022524748        1.4649722366        1.1354179759
 C          1.8052533384        0.1529029419        0.7318292922
 H         -3.5385865948        2.3566890325       -1.6496864761
 H         -2.6886875940        1.6852696350       -3.0417113424
 H         -4.4477905168        1.5857273456       -2.9502289080
 H         -3.3704734972       -0.6049031917       -2.3829174477
 H         -2.4924214599        0.1803083730       -1.0692203288
 H         -5.5174802370       -0.0351733287       -1.3256236507
 H         -4.6839449936        0.7917159920       -0.0131480854
 H         -4.0317208156       -2.1077158390       -0.5671502098
 H         -5.5364292409       -1.7134241935        0.2613025104
 H         -4.3124423016       -0.5199391932        2.0255253510
 H         -3.8309063109       -2.2153426365        1.8929295011
 H         -2.6396855851        1.1613811320        2.0016559878
 H          0.5907071736        2.3283278873        1.5449270505
 H         -1.7210935102       -2.6963107585        0.3765830125
 H          2.7066688100       -3.5795935245       -0.6948332281
 H          3.7209314873       -2.3880759038       -1.5202011818
 H          3.4619544519       -2.2873781676        0.2307374187
 H          1.0511431064       -3.0119815048       -2.5106701972
 H          1.8855912218       -1.5736554767       -3.1176561740
 H          0.2367198601       -1.4469837869       -2.4831752556
 H          1.2174683748        0.3633140983       -1.3145284604
 H          3.4925376604        0.0705305133       -2.3041259182
 H          4.1542387645       -0.0879537636       -0.6690139449
 H          4.3400733056        2.2529110228       -1.4109376686
 H          2.6139249189        2.3138710423       -1.7541479544
 H          4.7882347041        3.5035783178        0.7211176382
 H          3.4179667807        3.7758137087        1.8043312862
 H          3.3678219482        4.3580870495        0.1332412907
 H          2.3222849917        1.7086237159        2.1890476021
 H          2.3160416776       -0.6248127741        1.3230945058
  53
        -68.44359157
 C         -3.5987676235        1.5919077310       -2.3307686679
 C         -3.4566057242        0.2437979360       -1.6344044158
 C         -4.6398768087       -0.0353352245       -0.7092797686
 C         -4.5272605036       -1.3646080589        0.0434058504
 C         -3.7849096915       -1.2564364523        1.3831419412
 C         -2.3515255738       -0.8372665573        1.2310440544
 C         -1.9442732587        0.4370176091        1.5845430840
 C         -0.6209001046        0.8460024986        1.4314237502
 O         -0.3363817341        2.1347529004        1.7649420511
 C          0.3246007646       -0.0516028846        0.9488475783
 C         -0.1081169756       -1.3121672435        0.5214093407
 C         -1.4243121891       -1.7126700372        0.6804286944
 O          0.7832197465       -2.1929484398       -0.0183187830
 C          1.7738474788       -1.6973751775       -0.9405763894
 C          3.0237262018       -2.5388377118       -0.6748283613
 C          1.2498120238       -1.9752055594       -2.3552432611
 C          2.0140714642       -0.1840996588       -0.7554026038
 C          3.3615342293        0.3321078217       -1.2460092182
 C          3.3795485378        1.8535411350       -1.1042186667
 C          3.1042707723        2.2529221156        0.3192773045
 C          3.6922563881        3.5551594343        0.7669644693
 C          2.3975827390        1.4724469248        1.1291024194
 C          1.8073953056        0.1553976251        0.7314168310
 H         -3.6217896094        2.3954655056       -1.5979709840
 H         -2.7624897965        1.7668754992       -3.0040976986
 H         -4.5192331123        1.6301717127       -2.9102021785
 H         -3.3959805754       -0.5481790521       -2.3853119667
 H         -2.5305166234        0.2303821792       -1.0596647993
 H         -5.5508658829       -0.0440008520       -1.3137646607
 H         -4.7333692594        0.7807334875        0.0098739542
 H         -4.0257163589       -2.0971880464       -0.5914256912
 H         -5.5313116108       -1.7415903094        0.2530547067
 H         -4.3080621336       -0.5414798199        2.0207649438
 H         -3.8192732687       -2.2334661162        1.8722013403
 H         -2.6456669085        1.1551578390        1.9791413448
 H          0.5810771523        2.3320181079        1.5243545220
 H         -1.7109839805       -2.7035862368        0.3662292376
 H          3.4692240257       -2.2798461295        0.2823643723
 H          2.7334724518       -3.5856944798       -0.6398873434
 H          3.7577356611       -2.4007966083       -1.4624483208
 H          0.2911955964       -1.4803458485       -2.4992133527
 H          1.1085756388       -3.0440029370       -2.4922755199
 H          1.9520087633       -1.6115291626       -3.1005548611
 H          1.2366767000        0.3450550840       -1.3220891230
 H          3.5219733047        0.0527002571       -2.2886363456
 H          4.1696290081       -0.0883614532       -0.6463178096
 H          4.3520269588        2.2466770705       -1.4087364147
 H          2.6282857113        2.2972646061       -1.7655683316
 H          4.7802886925        3.5153662000        0.7162716683
 H          3.4013791339        3.7915713839        1.7875505568
 H          3.3613610305        4.3606629623        0.1116975685
 H          2.3095529416        1.7238655572        2.1802937576
 H          2.3153001858       -0.6153969711        1.3341162146
  53
        -68.44358521
 C         -5.8660235897       -1.3873395866       -1.8864583630
 C         -6.2725072961        0.0664145484       -1.6802004659
 C         -5.8212405236        0.6507128766       -0.3402756858
 C         -4.2975577017        0.7299515072       -0.1738601721
 C         -3.7192692080       -0.4192897534        0.6624627292
 C         -2.2241443300       -0.3070718364        0.7290793335
 C         -1.6174015630        0.4458364806        1.7215612867
 C         -0.2389994749        0.6040424793        1.7483670646
 O          0.2772001628        1.3148532291        2.7942051814
 C          0.5674865279        0.0380966001        0.7571564607
 C         -0.0432455883       -0.7956504180       -0.1818368021
 C         -1.4265391345       -0.9428704473       -0.2060005767
 O          0.6480381596       -1.5175178354       -1.1072826803
 C          2.0498055828       -1.7015270326       -0.8847764477
 C          2.2591908116       -2.7117715929        0.2478831691
 C          2.5805189700       -2.2784896139       -2.1984004288
 C          2.6491146578       -0.3201672303       -0.5866797514
 C          4.1676002194       -0.2331381729       -0.4770603139
 C          4.5868088431        1.2404605280       -0.4788638275
 C          3.6089050861        2.1505666426        0.2140212780
 C          4.0058251972        3.5956362602        0.2433978163
 C          2.4648599692        1.7229163234        0.7309367083
 C          2.0604353771        0.2677237784        0.7018545147
 H         -4.7854472889       -1.4832896955       -1.9472375676
 H         -6.2268130999       -2.0048614393       -1.0664713119
 H         -6.2907733000       -1.7682945450       -2.8130971961
 H         -5.8605939484        0.6731156662       -2.4902651882
 H         -7.3617541335        0.1396667099       -1.7373139499
 H         -6.2454662190        0.0559730997        0.4715874782
 H         -6.2420538251        1.6556293274       -0.2594935947
 H         -4.0293628856        1.6674746534        0.3175474572
 H         -3.8191046649        0.7332750278       -1.1550329229
 H         -4.1392890183       -0.3708861136        1.6691693350
 H         -3.9978269153       -1.3754345198        0.2204693057
 H         -2.1982588152        0.9148092663        2.4997257675
 H          1.2404239935        1.2887641365        2.7644318822
 H         -1.8547186842       -1.5791420146       -0.9644397809
 H          3.3165971331       -2.8118105318        0.4758122019
 H          1.7250603393       -2.4043103068        1.1435495953
 H          1.8721037024       -3.6808836103       -0.0579698364
 H          3.5947117756       -2.6457099688       -2.0760832036
 H          2.5600206946       -1.5235894637       -2.9799781111
 H          1.9414306680       -3.1031805674       -2.5024951642
 H          2.3299428122        0.3239143676       -1.4164566827
 H          4.6522636084       -0.7449522414       -1.3086519495
 H          4.4959569810       -0.7113213656        0.4480778527
 H          5.5736662204        1.3486835206       -0.0201659481
 H          4.6809715984        1.5890622413       -1.5130079564
 H          4.9452120936        3.7190191328        0.7821721405
 H          3.2445538310        4.2017959261        0.7271903155
 H          4.1561510662        3.9675375560       -0.7697595451
 H          1.7768424474        2.4380388082        1.1585127281
 H          2.5312840211       -0.2378165347        1.5626428577
  53
        -68.44356658
 C         -5.8931485905       -1.1721283180       -2.0983549377
 C         -6.4229864964       -1.4807295500       -0.7036015723
 C         -5.9555479260       -0.4943117723        0.3683108049
 C         -4.4392864288       -0.5008270907        0.6059870072
 C         -3.7100932794        0.6455412718       -0.1071643563
 C         -2.2295423048        0.5425726970        0.1182833289
 C         -1.6454791244        1.1184882206        1.2350289743
 C         -0.2800213397        1.0086146126        1.4565755181
 O          0.2020773669        1.5644643861        2.6072944184
 C          0.5430392496        0.3411967794        0.5453801330
 C         -0.0686819862       -0.3217543037       -0.5205665951
 C         -1.4372609475       -0.2004738941       -0.7391149432
 O          0.6042262131       -1.1226856594       -1.3929233380
 C          1.9061005229       -1.5722879854       -1.0041020717
 C          1.7728710923       -2.6513957856        0.0753784247
 C          2.5036492588       -2.1806894521       -2.2740908642
 C          2.6939048830       -0.3399539642       -0.5385434383
 C          4.1735874220       -0.5401964225       -0.2288773260
 C          4.8438486416        0.8291593272       -0.0783266555
 C          3.9568137535        1.8736430812        0.5436295678
 C          4.5958797184        3.2177126662        0.7212117787
 C          2.6947104915        1.6432002226        0.8796458454
 C          2.0457716454        0.2908853346        0.7001992101
 H         -6.3304737090       -1.8534079774       -2.8255938050
 H         -6.1482645843       -0.1546876978       -2.3874564769
 H         -4.8133171562       -1.2860394529       -2.1375474007
 H         -7.5157798744       -1.4661229555       -0.7302920870
 H         -6.1160422242       -2.4896274764       -0.4175100573
 H         -6.4643504836       -0.7530801905        1.2997981237
 H         -6.2761619288        0.5129115086        0.0935542721
 H         -4.0185044857       -1.4523995063        0.2757113428
 H         -4.2343313057       -0.4127990216        1.6749234606
 H         -3.9214145210        0.6107045293       -1.1754730183
 H         -4.0770496250        1.5963232440        0.2845514449
 H         -2.2360319110        1.6605960091        1.9563203641
 H          1.1390637110        1.3587572563        2.7029414147
 H         -1.8608693246       -0.7069338453       -1.5920163546
 H          2.7534095211       -2.9538507253        0.4318818682
 H          1.1811067765       -2.2893490048        0.9125232661
 H          1.2678236085       -3.5188388988       -0.3429456172
 H          3.4095332076       -2.7340142067       -2.0469836871
 H          2.7263041721       -1.4021497173       -2.9989869513
 H          1.7770502099       -2.8591488290       -2.7131744445
 H          2.6124642851        0.3871889574       -1.3570001848
 H          4.6702572232       -1.0972441028       -1.0234760292
 H          4.2803154599       -1.1093522343        0.6968806249
 H          5.7615418328        0.7334821968        0.5087468576
 H          5.1396181338        1.1982950519       -1.0662796402
 H          5.4587324510        3.1418889502        1.3827634890
 H          3.8947793718        3.9326377541        1.1435237875
 H          4.9481384486        3.5988388860       -0.2369228275
 H          2.0923786412        2.4542888070        1.2629124335
 H          2.2942717351       -0.3298475741        1.5783207454
  53
        -68.44355878
 C         -3.8346297709        0.8170558522        2.0435209989
 C         -4.0440487469       -0.6452911829        1.6697475496
 C         -5.1298036528       -0.8525692631        0.6128150954
 C         -4.8731214517       -0.1908120085       -0.7417835023
 C         -3.7301919299       -0.8195227930       -1.5504191253
 C         -2.3614208098       -0.4531058397       -1.0508335375
 C         -1.9463557332        0.8682144192       -1.0659782628
 C         -0.6986999761        1.2443503444       -0.5764903648
 O         -0.3780803949        2.5645304062       -0.6680808284
 C          0.1478519049        0.2819136926       -0.0364062907
 C         -0.2305649345       -1.0614553808       -0.1239980432
 C         -1.4776421077       -1.4270222812       -0.6077697769
 O          0.6064535150       -2.0416974808        0.3214377785
 C          2.0192935721       -1.9261436436        0.0602877262
 C          2.7059294571       -2.4931059790        1.3047200950
 C          2.3245291636       -2.8155460411       -1.1516483334
 C          2.4233387318       -0.4676691570       -0.2400631918
 C          3.8920780932       -0.1326362497       -0.0086986349
 C          4.1421499544        1.3015581846       -0.4731921588
 C          3.2241864926        2.2542345749        0.2417910977
 C          3.7246295191        3.6554104094        0.4099389546
 C          2.0482660350        1.8546171099        0.7129488915
 C          1.5153202384        0.4615672718        0.5846574139
 H         -3.1625127956        0.8923968873        2.8954979025
 H         -3.3902628060        1.3678161030        1.2189668079
 H         -4.7805008345        1.2853260883        2.3098676317
 H         -3.1007982290       -1.0635402824        1.3196727864
 H         -4.3405555291       -1.1991712197        2.5647604132
 H         -6.0720696939       -0.4600901732        1.0065957277
 H         -5.2638618945       -1.9265376235        0.4578342533
 H         -4.6787020848        0.8718953413       -0.6012209943
 H         -5.7895181726       -0.2803631675       -1.3316717002
 H         -3.8433049186       -1.9052382712       -1.5473257958
 H         -3.8209308487       -0.4768792463       -2.5854279721
 H         -2.5788324724        1.6440970880       -1.4684641546
 H          0.5418015644        2.6897566465       -0.3911754722
 H         -1.7426970425       -2.4727080096       -0.6254160379
 H          2.5905012452       -1.8219940977        2.1520669312
 H          2.2350846511       -3.4396647901        1.5570840633
 H          3.7623186621       -2.6611833691        1.1205138359
 H          1.7367760893       -2.4903927848       -2.0077980792
 H          2.0625935098       -3.8460385912       -0.9269086095
 H          3.3797378048       -2.7650139172       -1.4060903090
 H          2.2083558859       -0.2777072024       -1.2998109953
 H          4.5336993336       -0.8208200135       -0.5614521089
 H          4.1353134579       -0.2082267766        1.0517541781
 H          5.1792204605        1.5831515964       -0.2778576412
 H          3.9838209701        1.3749897019       -1.5540302459
 H          3.9777739990        4.0819503988       -0.5604898544
 H          4.6286001212        3.6629671517        1.0187343252
 H          2.9800235775        4.2876645971        0.8873507884
 H          1.4547190438        2.5258067861        1.3236969846
 H          1.4426998034        0.0543334287        1.6064763824
  53
        -68.44349702
 C         -6.9308674222       -1.3228680614       -0.3842951542
 C         -6.3358959912       -0.4003400216       -1.4432090599
 C         -5.6959687080        0.8653820200       -0.8549816717
 C         -4.1753736852        0.7919456266       -0.7106214736
 C         -3.6955314065       -0.2708986026        0.2838911966
 C         -2.2063877718       -0.1835892846        0.4506899363
 C         -1.6526974584        0.6366284742        1.4205985382
 C         -0.2759741757        0.7666962195        1.5368443624
 O          0.1825208987        1.5509919319        2.5567713575
 C          0.5841573529        0.1028052974        0.6579017770
 C          0.0201732792       -0.7927366227       -0.2530299914
 C         -1.3612786155       -0.9123751469       -0.3673784294
 O          0.7563960908       -1.6031885357       -1.0632125688
 C          2.1329467294       -1.7981477805       -0.7236846669
 C          2.2325354246       -2.7164169678        0.4987062431
 C          2.7407306430       -2.4920605168       -1.9440027443
 C          2.7470335766       -0.4102462603       -0.4939124145
 C          4.2553904825       -0.3477826935       -0.2784260457
 C          4.7149567731        1.1110749615       -0.3667973121
 C          3.7147612558        2.0964931018        0.1746221532
 C          4.1485535003        3.5299973793        0.1165442874
 C          2.5244768898        1.7381623912        0.6369713804
 C          2.0829641340        0.2946604086        0.6954883716
 H         -7.7198657626       -0.8104033110        0.1625317619
 H         -7.3606671321       -2.2068591660       -0.8513435110
 H         -6.1770964953       -1.6450432077        0.3284186876
 H         -5.5912034357       -0.9454371258       -2.0265300959
 H         -7.1355620575       -0.1130463088       -2.1298255965
 H         -6.1407205785        1.0756747130        0.1199619036
 H         -5.9220853757        1.7144672173       -1.5042971876
 H         -3.8089069073        1.7658985884       -0.3766863247
 H         -3.7269377986        0.5911384862       -1.6863203216
 H         -4.1862642663       -0.1083340627        1.2454281273
 H         -3.9620173464       -1.2618928836       -0.0839237254
 H         -2.2750426537        1.1819544346        2.1121591403
 H          1.1442913957        1.5016981531        2.6010444020
 H         -1.7516238359       -1.5995522048       -1.1013274828
 H          3.2677410406       -2.8211034138        0.8108559823
 H          1.6448446121       -2.3245872636        1.3252175024
 H          1.8409466032       -3.6984198398        0.2440127644
 H          3.7330864151       -2.8696454192       -1.7181686768
 H          2.7969482085       -1.8034107842       -2.7829123958
 H          2.1027852816       -3.3249995034       -2.2273351650
 H          2.5070331696        0.1701063556       -1.3943607399
 H          4.7847044742       -0.9365627064       -1.0277776369
 H          4.5020478094       -0.7556998315        0.7039709420
 H          5.6679567602        1.2347813711        0.1551891004
 H          4.8948661275        1.3713668691       -1.4154544065
 H          5.0497880963        3.6768893594        0.7116096080
 H          3.3715965955        4.1904574714        0.4921470871
 H          4.3816605149        3.8136383675       -0.9094020298
 H          1.8272065799        2.5010419231        0.9522783640
 H          2.4760862108       -0.1481640456        1.6269279541
  53
        -68.44349417
 C         -6.8182986586        0.2035757218       -1.6989217523
 C         -6.4275299230       -1.0626223875       -0.9436621600
 C         -5.8842276596       -0.7853462251        0.4654396263
 C         -4.3582350929       -0.7965963152        0.5640278344
 C         -3.6747409027        0.3158733787       -0.2385689272
 C         -2.1953574313        0.3063988351        0.0169569553
 C         -1.6604730204        1.0169052574        1.0796029740
 C         -0.2959819127        0.9948520545        1.3310937783
 O          0.1374113628        1.6837321511        2.4280252278
 C          0.5744903408        0.2806266823        0.5032271441
 C          0.0148766303       -0.5118898514       -0.5010995089
 C         -1.3532482367       -0.4777451474       -0.7515165758
 O          0.7409670606       -1.3618077609       -1.2793172941
 C          2.0526165912       -1.7112757951       -0.8259204117
 C          1.9435353642       -2.6837163827        0.3530271556
 C          2.7029185900       -2.4140957799       -2.0189104060
 C          2.7758633947       -0.4044857500       -0.4719885397
 C          4.2557892192       -0.5059202860       -0.1184750584
 C          4.8626711836        0.9005554314       -0.0923049382
 C          3.9174444173        1.9602644119        0.4058869812
 C          4.4934556695        3.3429922110        0.4590673624
 C          2.6594157774        1.7071627737        0.7408551692
 C          2.0744562459        0.3154210088        0.6865768992
 H         -5.9725080257        0.8764976941       -1.8072111882
 H         -7.1860871386       -0.0468499239       -2.6920792840
 H         -7.6078657809        0.7313964393       -1.1677451903
 H         -7.3122967954       -1.6990638616       -0.8688795400
 H         -5.6811725361       -1.6151650017       -1.5178004838
 H         -6.2619175829       -1.5483088544        1.1502355241
 H         -6.2606385108        0.1783226033        0.8149396744
 H         -3.9792796177       -1.7627826400        0.2230054803
 H         -4.0756011971       -0.6868143754        1.6140193021
 H         -3.8585444215        0.1645534140       -1.3023683839
 H         -4.0939670200        1.2793123682        0.0577395859
 H         -2.2894109730        1.5978382547        1.7352955006
 H          1.0809441443        1.5339040495        2.5571476763
 H         -1.7372428430       -1.0852232105       -1.5557624810
 H          2.9286440424       -2.9062060623        0.7531531089
 H          1.3203151820       -2.2675917835        1.1407219094
 H          1.4840258792       -3.6094687048        0.0148162281
 H          2.9067324702       -1.7014752836       -2.8137687449
 H          2.0160363648       -3.1648856540       -2.4004378000
 H          3.6270526049       -2.9005295420       -1.7227175756
 H          2.6805476904        0.2338867587       -1.3600313633
 H          4.7932986696       -1.1149701646       -0.8454568651
 H          4.3670048943       -0.9763683530        0.8606434924
 H          5.7698589305        0.9047541161        0.5184275773
 H          5.1650891228        1.1834781022       -1.1063579260
 H          4.8495972339        3.6427913328       -0.5261530710
 H          5.3442137603        3.3724675656        1.1397219031
 H          3.7529617605        4.0637251549        0.7955293996
 H          2.0138601590        2.5240154944        1.0299782384
 H          2.3316783448       -0.2032278900        1.6262675463
  53
        -68.44346768
 C         -6.9181172999        0.7141755497        0.2301136672
 C         -5.4671916353        1.0672698083        0.5367599827
 C         -4.6387634145       -0.1292952680        1.0072040160
 C         -4.4499457242       -1.2318367629       -0.0349578070
 C         -3.5880584778       -0.8058178641       -1.2313150912
 C         -2.1931423218       -0.4555122165       -0.7999624634
 C         -1.7870985635        0.8629593466       -0.6976935687
 C         -0.5115208645        1.1978476708       -0.2477242876
 O         -0.1992025492        2.5229402885       -0.2267740892
 C          0.3659889855        0.1933705437        0.1443102653
 C         -0.0183235707       -1.1388363161       -0.0454006906
 C         -1.2882369960       -1.4631970309       -0.4938491996
 O          0.8439476543       -2.1510346324        0.2593387607
 C          2.2372147059       -2.0059588404       -0.0799400157
 C          3.0008966014       -2.6839823272        1.0596019796
 C          2.4629272220       -2.7765710387       -1.3869320030
 C          2.6236236536       -0.5239876172       -0.2675278880
 C          4.1043490247       -0.2053786896       -0.0976959210
 C          4.3267444071        1.2670100848       -0.4407665398
 C          3.4568628873        2.1441828045        0.4167169813
 C          3.9693723541        3.5252845108        0.6848803209
 C          2.3121639102        1.6968655350        0.9207458924
 C          1.7694821582        0.3200041107        0.6949973348
 H         -6.9876002108        0.0437189114       -0.6226715876
 H         -7.3814636642        0.2298317502        1.0873719157
 H         -7.4845149441        1.6134966141       -0.0023866839
 H         -5.0078529260        1.5120482180       -0.3467190284
 H         -5.4484146627        1.8229003944        1.3259596978
 H         -5.1253589195       -0.5636236618        1.8845391941
 H         -3.6534361026        0.2262286091        1.3167787205
 H         -5.4221060213       -1.5690896586       -0.3980461348
 H         -3.9663297070       -2.0819634278        0.4515474143
 H         -3.5500119231       -1.6363292819       -1.9404145141
 H         -4.0474708531        0.0452300549       -1.7341026795
 H         -2.4463297209        1.6715850197       -0.9709881166
 H          0.7358324416        2.6271572796        0.0042139275
 H         -1.5538836510       -2.5028431616       -0.6027550726
 H          4.0431227236       -2.8295380314        0.7935969745
 H          2.9407819346       -2.0955063441        1.9716361600
 H          2.5454271818       -3.6519914554        1.2516705167
 H          1.8217203894       -2.3754781348       -2.1693297924
 H          2.2147290452       -3.8248325932       -1.2434384647
 H          3.4996455300       -2.6973564295       -1.7026817503
 H          2.3433201983       -0.2370832669       -1.2895075004
 H          4.7092313875       -0.8361000891       -0.7512397661
 H          4.4132355565       -0.3785335113        0.9338454127
 H          5.3744406591        1.5338309178       -0.2854509108
 H          4.1006161246        1.4405116015       -1.4978301139
 H          4.1626863443        4.0421593852       -0.2549058430
 H          4.9093037482        3.4790421518        1.2346892812
 H          3.2569469707        4.1069341334        1.2647140128
 H          1.7600889895        2.3047736093        1.6289672383
 H          1.7592905100       -0.1819125258        1.6764731821
  53
        -68.44342869
 C         -3.1505479425        1.1570765037       -1.8512140815
 C         -3.5111756134       -0.3235031082       -1.8421391448
 C         -4.7898807417       -0.6333090005       -1.0622157840
 C         -4.7725966447       -0.2666191630        0.4227080442
 C         -3.8318187983       -1.1225541944        1.2828462862
 C         -2.3818725590       -0.7517186636        1.1486366829
 C         -1.9475498907        0.5046659757        1.5367563883
 C         -0.6137946277        0.8848777377        1.4133567187
 O         -0.3048397579        2.1601842946        1.7766548128
 C          0.3189683744       -0.0252813975        0.9284723575
 C         -0.1353109217       -1.2680211093        0.4759594689
 C         -1.4643164952       -1.6401729804        0.6057190971
 O          0.7440325380       -2.1585050160       -0.0676841767
 C          1.7471710320       -1.6660309306       -0.9784706119
 C          2.9774894600       -2.5397601251       -0.7269418517
 C          1.2203117227       -1.9030615240       -2.3994502115
 C          2.0194650115       -0.1621421301       -0.7620619871
 C          3.3817729128        0.3338281248       -1.2320583704
 C          3.4314911180        1.8515281989       -1.0604461615
 C          3.1526474393        2.2296758253        0.3681406061
 C          3.7644933678        3.5102375258        0.8454603733
 C          2.4223362944        1.4494940891        1.1571246459
 C          1.8077895745        0.1533008443        0.7294420992
 H         -4.0009040486        1.7576977892       -2.1684311825
 H         -2.8382082780        1.4852575837       -0.8634756089
 H         -2.3281019958        1.3387453091       -2.5402701100
 H         -3.6609654465       -0.6574773987       -2.8728443623
 H         -2.6792878594       -0.8917289064       -1.4270238065
 H         -5.0029458042       -1.7015276429       -1.1564852414
 H         -5.6174749543       -0.0936094419       -1.5320959863
 H         -5.7887214991       -0.3990276234        0.8043053042
 H         -4.5158658425        0.7858571440        0.5388844939
 H         -4.1216977677       -0.9944185582        2.3295913386
 H         -3.9671998851       -2.1745794748        1.0251900411
 H         -2.6357743737        1.2278320299        1.9460626999
 H          0.6210390424        2.3396644078        1.5552345223
 H         -1.7653844235       -2.6207587624        0.2708013369
 H          2.6646913231       -3.5806137969       -0.7155132483
 H          3.7172008178       -2.4006868229       -1.5089969340
 H          3.4246523841       -2.3108870645        0.2370882032
 H          1.0549837888       -2.9653367090       -2.5587544790
 H          1.9326134918       -1.5404394361       -3.1356459027
 H          0.2737039659       -1.3834877268       -2.5356436382
 H          1.2584126635        0.3950051904       -1.3239623147
 H          3.5444672020        0.0713093638       -2.2787291606
 H          4.1757784837       -0.1156472097       -0.6346013607
 H          4.4148116737        2.2291561296       -1.3493433957
 H          2.6956931704        2.3241791186       -1.7191083181
 H          3.4560926700        4.3350605310        0.2033572774
 H          4.8517750297        3.4481454400        0.8024026332
 H          3.4704149860        3.7332758866        1.8681430391
 H          2.3305334564        1.6830665524        2.2121280261
 H          2.2935648572       -0.6398910831        1.3212192466
  53
        -68.44327757
 C         -6.1978496127       -1.1668674525       -1.9218431165
 C         -4.6759219136       -1.1086552273       -1.8586356230
 C         -4.1414049911        0.2395147712       -1.3724041195
 C         -4.4902836237        0.5866407533        0.0751049778
 C         -3.8031850633       -0.3168865031        1.1084734189
 C         -2.3079419181       -0.1905440662        1.0440090422
 C         -1.6843712754        0.9261241806        1.5748385500
 C         -0.3027044362        1.0852080471        1.5142140195
 O          0.2047893821        2.2389364018        2.0292031203
 C          0.4801792068        0.0887641196        0.9401443615
 C         -0.1611798052       -0.9941463442        0.3307064530
 C         -1.5377898357       -1.1455957911        0.3966826011
 O          0.5696367226       -1.9568657335       -0.3018560348
 C          1.6964418015       -1.5586969446       -1.1074394170
 C          2.7416741003       -2.6580353998       -0.9069624255
 C          1.2235127251       -1.5512117725       -2.5667183518
 C          2.2097716618       -0.1583597176       -0.7115741881
 C          3.6574743353        0.1393196172       -1.0836325493
 C          3.9579219139        1.5971210084       -0.7376251082
 C          3.6816047667        1.8603326723        0.7170012927
 C          4.4808859143        2.9537616137        1.3554258407
 C          2.7927658316        1.1387652759        1.3906722277
 C          1.9853614604        0.0251725567        0.7998962853
 H         -6.5852651537       -0.3521927646       -2.5303804694
 H         -6.5217224188       -2.1073470781       -2.3625718866
 H         -6.6350555999       -1.0927150964       -0.9294845151
 H         -4.3098798905       -1.9076290172       -1.2127634933
 H         -4.2754688400       -1.2915081886       -2.8590532122
 H         -4.5396588635        1.0239304772       -2.0214944658
 H         -3.0538629608        0.2445767244       -1.4758704944
 H         -5.5706450984        0.5336578065        0.2182202164
 H         -4.1831513048        1.6180535636        0.2620469956
 H         -4.1470375088       -0.0234287424        2.1030117001
 H         -4.0946686429       -1.3543954787        0.9443781883
 H         -2.2578535747        1.7064151954        2.0501385960
 H          1.1546372875        2.2808337576        1.8435752912
 H         -1.9866841615       -2.0127600147       -0.0607646965
 H          2.2540674450       -3.6224539909       -1.0231544474
 H          3.5376973640       -2.5730146713       -1.6399564745
 H          3.1661693425       -2.6124709468        0.0927432217
 H          0.8868574285       -2.5450807510       -2.8494246607
 H          2.0306655022       -1.2482712779       -3.2281455379
 H          0.3907732365       -0.8604009843       -2.6833995054
 H          1.5822931483        0.5807344382       -1.2267249702
 H          3.8223635423       -0.0328807099       -2.1485342014
 H          4.3336004686       -0.5043535865       -0.5197523436
 H          5.0037151854        1.8258196607       -0.9544360339
 H          3.3452566586        2.2599507154       -1.3572412905
 H          4.3496503097        3.8846594137        0.8041091633
 H          5.5421484131        2.7063132976        1.3359744677
 H          4.1810450568        3.1127924042        2.3883267055
 H          2.6939485580        1.2677505302        2.4628193976
 H          2.3006483250       -0.9001698314        1.3094623895
  53
        -68.44321424
 C         -6.7555566382        1.3297613414        0.1874380333
 C         -6.6551262189        0.0171225065       -0.5805518129
 C         -5.8493469023       -1.0536641335        0.1571289159
 C         -4.3891587672       -0.6900611162        0.4270717367
 C         -3.5680790601       -0.4814035093       -0.8507587054
 C         -2.1289878674       -0.2370483830       -0.5009577754
 C         -1.6705728368        1.0499816656       -0.2807519602
 C         -0.3551864595        1.2962465174        0.1050640341
 O          0.0063661273        2.6007483315        0.2507359917
 C          0.5121595110        0.2290736462        0.3125202517
 C          0.0675311520       -1.0614655882        0.0058172093
 C         -1.2434376917       -1.2979772963       -0.3770788886
 O          0.9119891254       -2.1254974100        0.1291540292
 C          2.2822754088       -1.9819256724       -0.2943153166
 C          3.0999714185       -2.8040480138        0.7042162657
 C          2.3874107035       -2.6074993763       -1.6909644065
 C          2.7069569079       -0.4995789942       -0.3463301125
 C          4.2065726018       -0.2429730659       -0.2555728689
 C          4.4560138161        1.2521273578       -0.4494125610
 C          3.6832762289        2.0499155974        0.5644032480
 C          4.2637478868        3.3766270678        0.9451002745
 C          2.5627877748        1.5801146453        1.1013313549
 C          1.9555416070        0.2535677635        0.7656501814
 H         -7.4218419937        2.0182747682       -0.3279066318
 H         -7.1483661186        1.1565226675        1.1872087822
 H         -5.7828662514        1.8057259117        0.2776760418
 H         -7.6628642048       -0.3722822204       -0.7471172202
 H         -6.2136555150        0.2017659607       -1.5613049316
 H         -5.8793467710       -1.9758278264       -0.4292241379
 H         -6.3355745897       -1.2571867606        1.1148160854
 H         -3.9317095537       -1.4988859353        1.0020990043
 H         -4.3340555365        0.2118718795        1.0378246736
 H         -3.6537939265       -1.3699052138       -1.4795811829
 H         -3.9586777950        0.3734416404       -1.4033646581
 H         -2.3211357830        1.9004275753       -0.4118238836
 H          0.9590988867        2.6511273959        0.4190944900
 H         -1.5544735536       -2.3108989124       -0.5781920118
 H          2.6248403644       -3.7743754393        0.8226316818
 H          4.1147997911       -2.9479523773        0.3470773003
 H          3.1259681337       -2.3198418161        1.6771141577
 H          2.1123622897       -3.6578740478       -1.6451364415
 H          3.4014558121       -2.5225052598       -2.0720668205
 H          1.7074759585       -2.1036597425       -2.3750376541
 H          2.3636440010       -0.0918955046       -1.3061296965
 H          4.7394459311       -0.8120794863       -1.0191119474
 H          4.5831936153       -0.5399537580        0.7239351144
 H          5.5211709244        1.4708933441       -0.3464885226
 H          4.1592846243        1.5502693594       -1.4601846630
 H          5.2391537151        3.2418505083        1.4123357391
 H          3.6172686980        3.9076992884        1.6394761689
 H          4.4062971158        3.9918997114        0.0568991991
 H          2.0859979758        2.1185637180        1.9128935790
 H          1.9978379672       -0.3556350919        1.6834523264
  53
        -68.44309587
 C         -6.5389048984        1.4872695046       -0.8130357896
 C         -6.5890514638        0.0029004027       -0.4708208853
 C         -5.5867033311       -0.8344380392       -1.2670989182
 C         -4.1191291193       -0.4697565368       -1.0420360064
 C         -3.6553893945       -0.6796952715        0.4041499676
 C         -2.1824763222       -0.4135483539        0.5218414752
 C         -1.7211435875        0.8638324860        0.7874098165
 C         -0.3589272718        1.1398357200        0.8766794747
 O         -0.0098987936        2.4364902873        1.1014523227
 C          0.5627520629        0.1086729756        0.7304393281
 C          0.0938135072       -1.1598778689        0.3725079264
 C         -1.2635574175       -1.4259899907        0.2854581837
 O          0.9727223587       -2.1796644224        0.1531378999
 C          2.1955044925       -1.9062450955       -0.5592009129
 C          3.2526131799       -2.7937104718        0.1013732501
 C          1.9773022547       -2.3515894385       -2.0108119284
 C          2.5538900487       -0.4061563714       -0.5154059778
 C          4.0235451487       -0.0755465576       -0.7472024224
 C          4.1774191484        1.4439970465       -0.7968188824
 C          3.6497956118        2.0674870149        0.4658618796
 C          4.2683580130        3.3698608629        0.8698915351
 C          2.7046387643        1.4722486480        1.1848273808
 C          2.0715107837        0.1626997963        0.8307076264
 H         -6.6610522384        1.6353367764       -1.8840881226
 H         -7.3372690371        2.0195431495       -0.3003743524
 H         -5.5922550242        1.9268606439       -0.5105940034
 H         -6.4152292631       -0.1306530507        0.5981421523
 H         -7.5919773291       -0.3751522880       -0.6855291312
 H         -5.8091157472       -0.7245944161       -2.3318148299
 H         -5.7307071093       -1.8866755795       -1.0080940263
 H         -3.9429880214        0.5683341220       -1.3267147896
 H         -3.5042923908       -1.0936781977       -1.6955535047
 H         -4.1990866855       -0.0049309996        1.0656713038
 H         -3.8714659983       -1.7073858529        0.7028512866
 H         -2.4083879423        1.6826560132        0.9320031997
 H          0.9535984063        2.5218234829        1.0469341804
 H         -1.5856466711       -2.4248778009        0.0370405035
 H          2.8470857951       -3.7972566221        0.2003670892
 H          4.1546953677       -2.8340576810       -0.5009615005
 H          3.4993335434       -2.4295826644        1.0954675452
 H          1.7503478938       -3.4140004713       -2.0393758354
 H          2.8665308534       -2.1625221370       -2.6060122731
 H          1.1387628817       -1.8091656990       -2.4430010234
 H          1.9785466664        0.0934491672       -1.3057776699
 H          4.3724546124       -0.5165232441       -1.6824257224
 H          4.6329696983       -0.4660232697        0.0686200028
 H          5.2295442011        1.7102689812       -0.9196568880
 H          3.6379938139        1.8440509089       -1.6614536045
 H          5.3308711454        3.2363944157        1.0727300820
 H          3.7937698894        3.7748451707        1.7603014110
 H          4.1759989984        4.0951703396        0.0617165471
 H          2.4224086775        1.8803443210        2.1490341829
 H          2.3503818069       -0.5490581026        1.6250154972
  53
        -68.44307233
 C         -6.0307362084       -1.7869973137       -1.8894116205
 C         -6.4312405433       -0.8430629095       -0.7617468213
 C         -5.7314604369        0.5152950551       -0.8339490604
 C         -4.2073248480        0.4622533594       -0.7262341332
 C         -3.7116469401       -0.0983454129        0.6119108067
 C         -2.2147729481       -0.0118184167        0.6895056944
 C         -1.6019120854        1.1215239744        1.1942052307
 C         -0.2147340034        1.2314380537        1.2527347963
 O          0.2873352181        2.4035490557        1.7298057005
 C          0.5781190941        0.1709474480        0.8272066745
 C         -0.0450927905       -0.9323135785        0.2343333744
 C         -1.4262668262       -1.0340517516        0.1806941539
 O          0.7031414172       -1.9612959242       -0.2575676883
 C          1.9190258359       -1.6614911583       -0.9711408698
 C          2.8953053482       -2.7757045932       -0.5878864777
 C          1.5931042877       -1.7488354242       -2.4675737576
 C          2.4458841742       -0.2527719333       -0.6269211675
 C          3.9327687509       -0.0293384674       -0.8762093786
 C          4.2550349675        1.4397438568       -0.6059390921
 C          3.8529336533        1.8175931005        0.7930183422
 C          4.6301800097        2.9287266725        1.4280782667
 C          2.8769386933        1.1761501090        1.4258833944
 C          2.0862227525        0.0487139692        0.8387030847
 H         -6.1844635068       -1.3119168604       -2.8562368109
 H         -4.9852140496       -2.0719952518       -1.8082545276
 H         -6.6312354035       -2.6934721898       -1.8537665360
 H         -7.5095813706       -0.6713755719       -0.8115889730
 H         -6.2230425776       -1.3152522947        0.1997058130
 H         -6.1182195454        1.1477821629       -0.0306497384
 H         -5.9930174612        0.9920180606       -1.7823495839
 H         -3.8174587222        1.4767347541       -0.8403145329
 H         -3.7950680544       -0.1361263654       -1.5397671944
 H         -4.1594079453        0.4739935540        1.4265694331
 H         -4.0188822489       -1.1398642045        0.7103296164
 H         -2.1865453178        1.9529221995        1.5555181470
 H          1.2512146856        2.4013470570        1.6323319622
 H         -1.8680910064       -1.9161430784       -0.2552840369
 H          2.3836003947       -3.7299636295       -0.6824293940
 H          3.7618117868       -2.7722161540       -1.2416192114
 H          3.2218381602       -2.6683099096        0.4433942468
 H          0.8042940180       -1.0419431681       -2.7170824253
 H          1.2468157219       -2.7498351573       -2.7107695249
 H          2.4730193632       -1.5231439269       -3.0638383621
 H          1.8988803593        0.4655182604       -1.2515619239
 H          4.1912439685       -0.2847161118       -1.9051936188
 H          4.5269710608       -0.6507600318       -0.2052334953
 H          5.3246139225        1.6188026077       -0.7358719427
 H          3.7294842820        2.0741286779       -1.3270225254
 H          5.6783298179        2.6471294920        1.5279875794
 H          4.2410886492        3.1718054093        2.4137571670
 H          4.5869744193        3.8207867067        0.8035123720
 H          2.6823460515        1.3862786348        2.4717729670
 H          2.3154403814       -0.8461192271        1.4404123126
  53
        -68.44302599
 C         -5.4522139068       -1.2808824202       -1.9608155851
 C         -5.4277432021        0.2404369562       -1.8806833932
 C         -4.3630990436        0.7986781347       -0.9342225802
 C         -4.5888324881        0.4607810693        0.5446351012
 C         -3.7972948791       -0.7626074767        1.0301962245
 C         -2.3172067780       -0.5241003829        0.9487049135
 C         -1.6941976904        0.3120988996        1.8629809076
 C         -0.3364800430        0.5786111625        1.7682402250
 O          0.2073961052        1.3862183069        2.7237446624
 C          0.4325097271        0.0212840894        0.7423174673
 C         -0.1868791004       -0.8711178072       -0.1323375408
 C         -1.5524502520       -1.1235170060       -0.0364271863
 O          0.4790583187       -1.5435489415       -1.1129066515
 C          1.9029649000       -1.6171137365       -1.0035070767
 C          2.2642913936       -2.6059505934        0.1102383576
 C          2.3789093871       -2.1484107865       -2.3560993911
 C          2.4277063185       -0.1935628024       -0.7530183693
 C          3.9500694999       -0.0283134889       -0.8227769831
 C          4.4650933899        1.0925114587        0.1066620313
 C          3.4518511970        2.1874105056        0.2839483348
 C          3.9098104686        3.6033955803        0.1573339945
 C          2.2038305682        1.8236805952        0.5559340258
 C          1.8955879165        0.3488699138        0.5861684771
 H         -6.1481139126       -1.6053854680       -2.7321536829
 H         -4.4648360595       -1.6639102148       -2.2088192057
 H         -5.7705360395       -1.7163206235       -1.0173384453
 H         -5.2373000461        0.6401893303       -2.8801638062
 H         -6.4111642958        0.6003175260       -1.5671443343
 H         -4.3593892767        1.8852784408       -1.0492239717
 H         -3.3792782076        0.4386339447       -1.2399689491
 H         -5.6531858335        0.2908697825        0.7214585656
 H         -4.2878627340        1.3144685138        1.1549456949
 H         -4.0738716820       -0.9601827444        2.0689456787
 H         -4.0574903157       -1.6370213772        0.4357545163
 H         -2.2475702994        0.7665682614        2.6693003030
 H          1.1463128120        1.5185687637        2.5421644158
 H         -1.9903556002       -1.8111177151       -0.7429507551
 H          3.3369080487       -2.6296447207        0.2793114862
 H          1.7627839002       -2.3378405838        1.0370109668
 H          1.9341621460       -3.6021258760       -0.1745156473
 H          1.8475526830       -3.0680482464       -2.5861790333
 H          3.4454623694       -2.3488472653       -2.3352131954
 H          2.1649055589       -1.4249212902       -3.1383284103
 H          1.9745578727        0.4269823376       -1.5367231913
 H          4.2342152153        0.2023158323       -1.8499239651
 H          4.4482738293       -0.9585633840       -0.5471855865
 H          4.6804469983        0.6602203480        1.0896011341
 H          5.4012936666        1.4922520241       -0.2836872952
 H          4.7116382862        3.8074453912        0.8670069519
 H          3.0920347381        4.2951312574        0.3426452670
 H          4.3004814584        3.7830334074       -0.8441568983
 H          1.4013027507        2.5400478121        0.6470411911
 H          2.4711683016       -0.1210222750        1.4002187425
  53
        -68.44298919
 C         -7.0597647906        1.8660777589       -0.9419419928
 C         -6.4024439827        0.5110289178       -0.7100790739
 C         -5.3234312147        0.5830435970        0.3687920899
 C         -4.6223263313       -0.7609325809        0.5874424096
 C         -3.5790867886       -1.0925416955       -0.4881669363
 C         -2.1611967992       -0.7190993048       -0.1424666309
 C         -1.8453245144        0.3749246717        0.6501674290
 C         -0.5247879791        0.7084991763        0.9171271287
 O         -0.2470519800        1.7664218855        1.7392880590
 C          0.5326180704       -0.0263208772        0.3766428567
 C          0.2069996836       -1.1697960334       -0.3556960613
 C         -1.1208033686       -1.4933207707       -0.6236752849
 O          1.1264469696       -2.0429254314       -0.8451455875
 C          2.4637542163       -1.9616512291       -0.3391967323
 C          2.5166361469       -2.6013019666        1.0518450803
 C          3.2986469812       -2.7874766461       -1.3203663054
 C          2.8714575933       -0.4820807044       -0.3447436799
 C          4.3258834853       -0.1719284335       -0.0074664484
 C          4.6156802729        1.2808160363       -0.3856276656
 C          3.4896896183        2.2134431186       -0.0263616069
 C          3.7969644506        3.6703273512       -0.2071514076
 C          2.3069078809        1.7888955028        0.3941982779
 C          1.9821539060        0.3329709719        0.5996296269
 H         -6.3231481181        2.5971213143       -1.2691127961
 H         -7.8314908366        1.7928025510       -1.7047410034
 H         -7.5180684180        2.2302637577       -0.0246461534
 H         -7.1626399819       -0.2139403786       -0.4096120475
 H         -5.9645783611        0.1598503552       -1.6466348157
 H         -5.7892555588        0.9016495515        1.3051363150
 H         -4.5928106122        1.3427946282        0.0850210404
 H         -5.3850361015       -1.5426644718        0.5995991233
 H         -4.1378167460       -0.7720509420        1.5657190580
 H         -3.5999990262       -2.1638865458       -0.6966382530
 H         -3.8471385787       -0.5848305171       -1.4191174651
 H         -2.6256652321        0.9845395981        1.0829922983
 H         -1.0772015189        2.1484280819        2.0486658789
 H         -1.3128350185       -2.3768011165       -1.2120991572
 H          3.5059758312       -2.4841066924        1.4845970727
 H          1.7801915383       -2.1490015652        1.7111617862
 H          2.2906640426       -3.6620983055        0.9704499559
 H          2.8008471559       -3.7386106986       -1.4903967646
 H          4.2895996439       -2.9760004690       -0.9194831951
 H          3.3854581588       -2.2712326196       -2.2728495324
 H          2.6775088095       -0.1252754158       -1.3650387454
 H          5.0070973391       -0.8301644093       -0.5476879300
 H          4.4932627971       -0.3136634216        1.0619492603
 H          5.5356145643        1.6175354303        0.1005478597
 H          4.7845784844        1.3497133816       -1.4662137153
 H          4.1100096154        3.8678394495       -1.2324182465
 H          4.6132422242        3.9698376334        0.4503726481
 H          2.9278876238        4.2826149212        0.0173683067
 H          1.5348233605        2.4980156361        0.6417074257
 H          2.2338097335        0.0927721492        1.6440479488
  53
        -68.44296627
 C         -6.1743274387        0.9974457022        0.6849271269
 C         -5.9074667966       -0.3552811826        1.3332395771
 C         -4.5504021741       -0.9634256351        0.9734203428
 C         -4.3968385265       -1.3443703294       -0.5042558605
 C         -3.6883344202       -0.2775012917       -1.3523334620
 C         -2.2741108867       -0.0605538958       -0.8965257234
 C         -1.9284546820        1.0658601386       -0.1672162065
 C         -0.6239338986        1.2555884252        0.2687036100
 O         -0.3733792682        2.3753543404        1.0067713743
 C          0.3722954641        0.3232597420       -0.0293352733
 C          0.0035223699       -0.8378933275       -0.7110246426
 C         -1.3031042775       -1.0141428254       -1.1523984613
 O          0.8707827282       -1.8530683369       -0.9831837479
 C          2.0886270158       -1.8916331010       -0.2348962874
 C          1.7793199714       -2.3563009031        1.1924315919
 C          2.9615595950       -2.9243164476       -0.9489238964
 C          2.7227672402       -0.4923568492       -0.2997574078
 C          4.1459906495       -0.3846683381        0.2592781380
 C          4.4419352266        1.0093455747        0.8547853840
 C          3.6657427711        2.0936495832        0.1629569891
 C          4.3902356297        3.3354124723       -0.2418133773
 C          2.3699825380        1.8818795740       -0.0370704929
 C          1.8074165056        0.5458267187        0.3748365021
 H         -5.3637902098        1.6894455983        0.9023375064
 H         -6.2735332155        0.9009134643       -0.3929756763
 H         -7.0989147323        1.4229041943        1.0704500682
 H         -5.9496192301       -0.2369815462        2.4191924976
 H         -6.6999027606       -1.0528868830        1.0498946682
 H         -4.4220725041       -1.8618047943        1.5821287817
 H         -3.7553978471       -0.2695102353        1.2513366731
 H         -5.3812486354       -1.5449306631       -0.9329003809
 H         -3.8152117972       -2.2655149637       -0.5755846922
 H         -3.6832063587       -0.6141693322       -2.3921136568
 H         -4.2335540597        0.6636771860       -1.3014726079
 H         -2.6583150557        1.8225388281        0.0739423410
 H          0.5651895997        2.4152044117        1.2293376674
 H         -1.5382510495       -1.9155869544       -1.6957724466
 H          1.4138565419       -3.3800723473        1.1641348848
 H          2.6676349337       -2.3207394587        1.8163880830
 H          1.0055518842       -1.7352836167        1.6373266090
 H          2.4068087346       -3.8533928634       -1.0491197852
 H          3.8713327620       -3.1112086148       -0.3871766950
 H          3.2199987536       -2.5714628912       -1.9438073847
 H          2.7475524829       -0.2322058242       -1.3657451136
 H          4.8570841708       -0.5878389509       -0.5419642520
 H          4.3083056985       -1.1317285514        1.0371516783
 H          4.1589929810        1.0048357465        1.9127647021
 H          5.5124842790        1.2098507239        0.8064759811
 H          3.7109570416        4.0516945466       -0.6968974320
 H          5.1761730279        3.0945992245       -0.9574358941
 H          4.8621597786        3.7986852544        0.6247069006
 H          1.7477423007        2.5822426056       -0.5736069772
 H          1.9084809761        0.4353418045        1.4667426521
  53
        -68.44279917
 C         -7.2751301841        1.3440250787       -0.8552549595
 C         -6.2128738754        1.5061174329        0.2256438708
 C         -5.3970804717        0.2345984636        0.4626816064
 C         -4.5270611368       -0.1562419256       -0.7329319771
 C         -3.5502055049       -1.2983958603       -0.4107468134
 C         -2.1405098969       -0.8571540314       -0.1183114139
 C         -1.8597184167        0.2893152648        0.6116284303
 C         -0.5511394662        0.6768692379        0.8611225418
 O         -0.3063466259        1.7923134668        1.6148413349
 C          0.5290050777       -0.0633654105        0.3746452491
 C          0.2392056939       -1.2596232972       -0.2842347555
 C         -1.0777061566       -1.6312966085       -0.5457165119
 O          1.1850076256       -2.1375027453       -0.7109123396
 C          2.5153863094       -1.9882803957       -0.2021430284
 C          2.5726302016       -2.5335762655        1.2283810605
 C          3.3797407391       -2.8545076477       -1.1209591414
 C          2.8846083764       -0.5020291477       -0.3021925266
 C          4.3275808100       -0.1317285727        0.0233795181
 C          4.5822199853        1.3003229589       -0.4477748306
 C          3.4284820284        2.2239175661       -0.1602680176
 C          3.6981246219        3.6730684501       -0.4376134638
 C          2.2538651927        1.7966075977        0.2799382761
 C          1.9667178649        0.3493641982        0.5807506253
 H         -7.8805400691        2.2448753096       -0.9274896314
 H         -6.8197369936        1.1639071874       -1.8253620719
 H         -7.9312948810        0.5084591120       -0.6208093640
 H         -5.5390110458        2.3212820563       -0.0498343595
 H         -6.7030525380        1.7853254706        1.1619395668
 H         -6.0771461658       -0.5891988207        0.6936683510
 H         -4.7645261886        0.3852854760        1.3401965882
 H         -3.9647861639        0.7134188673       -1.0790686910
 H         -5.1783405862       -0.4693572709       -1.5498134019
 H         -3.9275474172       -1.8577049977        0.4510423508
 H         -3.5137375451       -1.9958782450       -1.2493200793
 H         -2.6609718767        0.9015324876        1.0006105106
 H         -1.1481545025        2.1722346568        1.8937533122
 H         -1.2420699021       -2.5519053951       -1.0834037278
 H          2.3744308201       -3.6029359329        1.2155608361
 H          3.5549655596       -2.3625451590        1.6591415578
 H          1.8193692415       -2.0581956265        1.8514684353
 H          2.9082693720       -3.8275983270       -1.2313039838
 H          4.3717228285       -2.9899836695       -0.7016097066
 H          3.4613965750       -2.3999153111       -2.1047958438
 H          2.6898405546       -0.2181643590       -1.3449672416
 H          5.0303027875       -0.8055862982       -0.4678390848
 H          4.4897841508       -0.1984665549        1.1008878697
 H          5.4881037934        1.6932752162        0.0223470838
 H          4.7597726512        1.3022747500       -1.5291646784
 H          2.8113169100        4.2753364613       -0.2602770039
 H          4.0136061190        3.8091519614       -1.4720984078
 H          4.5010614075        4.0384755831        0.2027990160
 H          1.4608869793        2.4994475414        0.4734678135
 H          2.2171436109        0.1862812387        1.6402317025
  53
        -68.44268527
 C         -5.9528615106       -1.3320768527       -1.9623841351
 C         -6.4253226827       -1.5906092576       -0.5371481234
 C         -5.9426226711       -0.5486771441        0.4737955237
 C         -4.4194889051       -0.5139614356        0.6594023196
 C         -3.7376114294        0.6095866786       -0.1325348828
 C         -2.2499119944        0.5523063626        0.0599426844
 C         -1.6523448977        1.2137135205        1.1211410256
 C         -0.2803718122        1.1425146754        1.3167249424
 O          0.2287447997        1.8009270147        2.3974604057
 C          0.5295728880        0.4111686780        0.4437889430
 C         -0.0880489336       -0.3077750763       -0.5803981953
 C         -1.4627136019       -0.2207795220       -0.7757240620
 O          0.5888519640       -1.1242040638       -1.4359592177
 C          1.9026409658       -1.5341487817       -1.0477331961
 C          1.7870443244       -2.5775997555        0.0688160588
 C          2.5084062590       -2.1668437392       -2.3011512455
 C          2.6823149260       -0.2758548669       -0.6317725428
 C          4.1824021166       -0.4774611204       -0.3891021714
 C          4.7432453891        0.4912375567        0.6750761599
 C          3.9988923981        1.7959529795        0.6969478660
 C          4.7900227840        3.0623249492        0.7288469393
 C          2.6719853268        1.7398395074        0.6979006429
 C          2.0288755539        0.3805253557        0.5982659161
 H         -6.4031031360       -2.0513072229       -2.6437238768
 H         -6.2381731884       -0.3324914371       -2.2838692403
 H         -4.8731865940       -1.4282012147       -2.0372143479
 H         -7.5184293769       -1.6002034386       -0.5243090873
 H         -6.0857541435       -2.5795037621       -0.2196139179
 H         -6.4138339872       -0.7763917367        1.4327975531
 H         -6.2940777113        0.4388176417        0.1670113977
 H         -3.9899784311       -1.4724614035        0.3620088945
 H         -4.1814702996       -0.3688971116        1.7152185487
 H         -3.9748905281        0.5132819967       -1.1915570850
 H         -4.1177020451        1.5710170252        0.2184772365
 H         -2.2368036858        1.7977277063        1.8141019091
 H          1.1892031464        1.7042644645        2.4147050906
 H         -1.8951678011       -0.7756582678       -1.5933045091
 H          2.7663863050       -2.8545267476        0.4480504911
 H          1.1821870603       -2.1956374846        0.8876729272
 H          1.3001719579       -3.4677904744       -0.3222617131
 H          3.4710811233       -2.6153771108       -2.0770202104
 H          2.6342129804       -1.4150920581       -3.0758232726
 H          1.8357547244       -2.9339998461       -2.6752629100
 H          2.5564285075        0.4327929848       -1.4603618932
 H          4.7163541377       -0.3235018879       -1.3272524304
 H          4.3827605985       -1.4988135791       -0.0631405674
 H          4.6459885566        0.0227828872        1.6601999460
 H          5.8063290437        0.6559952717        0.4981161299
 H          5.4083685150        3.1408140502       -0.1651837391
 H          5.4544658581        3.0726244614        1.5929109087
 H          4.1357587167        3.9289602776        0.7783201967
 H          2.0574631382        2.6266319904        0.6590394571
 H          2.3000244551       -0.2106138327        1.4880486198
  53
        -68.44261278
 C         -6.8703121802       -0.0006582003       -1.6312321758
 C         -6.4455925676       -1.1868325341       -0.7716164014
 C         -5.8765759222       -0.7741643068        0.5935435736
 C         -4.3488608291       -0.7592912032        0.6587889815
 C         -3.6976148528        0.2841976333       -0.2554162168
 C         -2.2125776446        0.3114145691       -0.0359576892
 C         -1.6653737194        1.1008493847        0.9633369957
 C         -0.2957535921        1.1118538334        1.1853657453
 O          0.1629594127        1.8953193081        2.2035821543
 C          0.5623294490        0.3366037892        0.4006206891
 C         -0.0031504517       -0.5067761347       -0.5564411330
 C         -1.3764924457       -0.5029237659       -0.7794440322
 O          0.7253272254       -1.3707272827       -1.3175856976
 C          2.0490362005       -1.6788982166       -0.8731358974
 C          1.9605736604       -2.6132004435        0.3385009723
 C          2.7055191289       -2.4013026812       -2.0502294689
 C          2.7632404126       -0.3509391764       -0.5718860894
 C          4.2662258851       -0.4575830453       -0.2901166715
 C          4.7634661266        0.6355715586        0.6810745258
 C          3.9603583368        1.8998137453        0.5648967875
 C          4.6924691666        3.1990675251        0.4833238165
 C          2.6375620074        1.7819088311        0.5533265835
 C          2.0583419289        0.3908244523        0.5786307951
 H         -7.2539661189       -0.3462970850       -2.5892130588
 H         -7.6570166749        0.5632950672       -1.1340032574
 H         -6.0369986307        0.6704826897       -1.8186765594
 H         -7.3193442875       -1.8246227764       -0.6191284616
 H         -5.7035502627       -1.7805506302       -1.3090656308
 H         -6.2298062134       -1.4746576217        1.3539622580
 H         -6.2581774711        0.2134696325        0.8608725880
 H         -3.9644844690       -1.7479169114        0.3972223976
 H         -4.0452989737       -0.5524513437        1.6880889306
 H         -3.9046724304        0.0378307507       -1.2968781520
 H         -4.1213282453        1.2659129317       -0.0349056664
 H         -2.2883087441        1.7226185876        1.5864688638
 H          1.1262057297        1.8446049056        2.2446354931
 H         -1.7690185807       -1.1550218318       -1.5436261308
 H          2.9444180937       -2.8061396542        0.7562040119
 H          1.3244954884       -2.1820944181        1.1078061986
 H          1.5212816756       -3.5588449427        0.0299044656
 H          3.6833499602       -2.7802758445       -1.7702525474
 H          2.8110658933       -1.7233303595       -2.8930246272
 H          2.0752258217       -3.2319000346       -2.3564948244
 H          2.6206028788        0.2670635650       -1.4676131540
 H          4.8096119737       -0.3713864914       -1.2315241771
 H          4.5064431719       -1.4317222645        0.1375440833
 H          4.6700931563        0.2613738988        1.7060865641
 H          5.8209325462        0.8320900712        0.5028821829
 H          5.3406909902        3.3241870303        1.3507176634
 H          3.9986616269        4.0347216146        0.4396126664
 H          5.3219832430        3.2195596366       -0.4061265309
 H          1.9843860699        2.6310238902        0.4194987544
 H          2.3393082101       -0.0976253552        1.5257923839
  53
        -68.44230135
 C         -6.6109721781       -2.2494499029       -1.5355479291
 C         -6.6965182902       -0.7275820020       -1.5380389630
 C         -5.9273596853       -0.0788388768       -0.3866822924
 C         -4.4135076154       -0.2511263705       -0.4995140244
 C         -3.6908816752        0.5037272290        0.6115459207
 C         -2.1877428841        0.3970287505        0.6020725233
 C         -1.4793701987        1.0288285297        1.6204665425
 C         -0.0959615093        0.9924642704        1.6596454733
 O          0.5941712364        1.5937971533        2.6737848822
 C          0.6300704431        0.3271028913        0.6682934777
 C         -0.0848606795       -0.3597478188       -0.3093773630
 C         -1.4787810918       -0.3076573162       -0.3498769640
 O          0.5051670274       -1.1167578334       -1.2730954050
 C          1.8713326789       -1.4936563490       -1.0668711937
 C          1.9222866379       -2.5978766083       -0.0058770559
 C          2.3388737830       -2.0372198712       -2.4177236717
 C          2.6556307792       -0.2312976827       -0.6735327574
 C          4.1791009676       -0.3914250830       -0.6275318890
 C          4.8369055517        0.5434965577        0.4091693224
 C          4.0553918330        1.8114574219        0.6152955657
 C          4.8096106787        3.1017552838        0.6530518655
 C          2.7430445182        1.7044877332        0.7751768785
 C          2.1331342587        0.3358743805        0.6579011444
 H         -6.9505325146       -2.6477501096       -0.5816978557
 H         -7.2378765676       -2.6637242513       -2.3220623003
 H         -5.5911727448       -2.5839377923       -1.7053933474
 H         -6.3139945585       -0.3444545574       -2.4868913341
 H         -7.7466614465       -0.4343117563       -1.4636078166
 H         -6.2717482041       -0.5040451803        0.5593670163
 H         -6.1595986862        0.9894559485       -0.3713944920
 H         -4.0836523432        0.1245117399       -1.4701413296
 H         -4.1598478680       -1.3096161200       -0.4357433302
 H         -3.9563968083        1.5643729815        0.5509833245
 H         -4.0543807646        0.1425541081        1.5790709926
 H         -2.0174625029        1.5590989593        2.3965729573
 H         -0.0327426251        2.0034287535        3.2815628147
 H         -1.9678288168       -0.8428168288       -1.1456162592
 H          1.4056965186       -3.4790638004       -0.3795023084
 H          2.9483004591       -2.8673104260        0.2264392568
 H          1.4249164854       -2.2740723385        0.9048863954
 H          2.3447472029       -1.2420314118       -3.1585025337
 H          1.6516180565       -2.8105100169       -2.7508420025
 H          3.3360750456       -2.4578801885       -2.3363260857
 H          2.4107364812        0.5156486110       -1.4398195125
 H          4.5875540951       -0.1740475364       -1.6153223449
 H          4.4479852284       -1.4199825332       -0.3831153141
 H          4.8875291970        0.0187578310        1.3688740355
 H          5.8606068933        0.7655072513        0.1052412899
 H          5.5708831820        3.0734204220        1.4327446165
 H          4.1400171730        3.9352886691        0.8481352335
 H          5.3147188799        3.2723872314       -0.2979931575
 H          2.1029347661        2.5566359071        0.9278680861
 H          2.5051177541       -0.2801650387        1.4885840601
  53
        -68.44229759
 C         -6.5694030730       -0.8465177283       -2.5845702657
 C         -6.7100412049       -1.2622407497       -1.1248130819
 C         -5.9320874530       -0.3624074488       -0.1639511384
 C         -4.4169569283       -0.4798932712       -0.3204852757
 C         -3.6895638288        0.3572822457        0.7268010481
 C         -2.1849512630        0.2833574392        0.6898406827
 C         -1.4715350793        0.9134651761        1.7056377508
 C         -0.0871035167        0.9089264871        1.7175228345
 O          0.6085640775        1.5077522078        2.7293677594
 C          0.6345806703        0.2785159516        0.7005232580
 C         -0.0833566498       -0.4072456691       -0.2757606806
 C         -1.4785520999       -0.3872400469       -0.2883828415
 O          0.5048495974       -1.1325238848       -1.2646551227
 C          1.8831901956       -1.4809285917       -1.0922174117
 C          1.9805722831       -2.6034096045       -0.0538993884
 C          2.3362495067       -1.9878821716       -2.4621262043
 C          2.6457391054       -0.2080735040       -0.6900003388
 C          4.1731113717       -0.3334617293       -0.6764779641
 C          4.8295812929        0.5960257009        0.3659058746
 C          4.0239715309        1.8416593971        0.6113435044
 C          4.7494521009        3.1479557421        0.6595547031
 C          2.7177025203        1.7017038163        0.7938689893
 C          2.1366018012        0.3219280960        0.6617955709
 H         -7.2047124765       -1.4642548107       -3.2155110890
 H         -6.8648895570        0.1925693913       -2.7141727417
 H         -5.5438517971       -0.9583478170       -2.9259745377
 H         -7.7675415223       -1.2313638915       -0.8507480952
 H         -6.3691886740       -2.2934587337       -1.0070333114
 H         -6.2022169032       -0.6319496673        0.8606865912
 H         -6.2335799184        0.6762331692       -0.3213227223
 H         -4.1266050177       -0.1410835221       -1.3150729448
 H         -4.1262779138       -1.5272136844       -0.2147604465
 H         -3.9819198323        1.4058666454        0.6066440465
 H         -4.0233303118        0.0490786016        1.7227682811
 H         -2.0061667261        1.4170489142        2.5016499393
 H         -0.0156792429        1.8911941138        3.3566645641
 H         -1.9706107935       -0.9208347635       -1.0832999321
 H          1.4769843132       -3.4892245026       -0.4342585448
 H          3.0169121538       -2.8531760541        0.1531376201
 H          1.4941632813       -2.3084595012        0.8724513901
 H          2.3089384823       -1.1789612754       -3.1873925478
 H          1.6605790806       -2.7707075925       -2.7966656216
 H          3.3443457228       -2.3864137892       -2.4082842596
 H          2.3686587010        0.5471079810       -1.4370105862
 H          4.5569419376       -0.0872908490       -1.6673914997
 H          4.4703532216       -1.3600413384       -0.4579790231
 H          4.9102686821        0.0542464546        1.3140210088
 H          5.8420663347        0.8469681610        0.0472717092
 H          5.2306467735        3.3486897120       -0.2979719851
 H          5.5272314049        3.1218530329        1.4228363605
 H          4.0653665395        3.9618985841        0.8848632501
 H          2.0616712364        2.5359387380        0.9751347953
 H          2.5383958290       -0.3009912583        1.4732294986
  53
        -68.44224655
 C         -5.4372100805       -1.2930183425       -1.9631350782
 C         -5.4078144890        0.2289741993       -1.8997386416
 C         -4.3473547914        0.7942115066       -0.9529112906
 C         -4.5838397056        0.4733038877        0.5280028720
 C         -3.7994864708       -0.7474999201        1.0323327051
 C         -2.3176255412       -0.5192892641        0.9514632046
 C         -1.6880102981        0.3176848805        1.8641645926
 C         -0.3303572440        0.5775046773        1.7684915450
 O          0.2972891253        1.3781258818        2.6803909723
 C          0.4365653957        0.0153157375        0.7448890093
 C         -0.1861611796       -0.8780168479       -0.1247502903
 C         -1.5548328965       -1.1247254746       -0.0288727071
 O          0.4751978972       -1.5569238832       -1.0998159818
 C          1.9028122452       -1.6186489776       -1.0029509691
 C          2.2783290213       -2.6078748394        0.1051240595
 C          2.3679928687       -2.1454251437       -2.3611883466
 C          2.4207507899       -0.1931705288       -0.7516620098
 C          3.9410379515       -0.0211305462       -0.8399996110
 C          4.4590184490        1.1052350834        0.0790241783
 C          3.4379580390        2.1886558874        0.2900245116
 C          3.8917358028        3.6094547993        0.1879659472
 C          2.1980266312        1.8158615836        0.5778682955
 C          1.8953593941        0.3436787441        0.5911746353
 H         -6.1289135604       -1.6233262649       -2.7357334472
 H         -4.4495845042       -1.6822529667       -2.2002152170
 H         -5.7638843438       -1.7172113749       -1.0173165242
 H         -5.2089199027        0.6168717251       -2.9021288243
 H         -6.3920035437        0.5960048949       -1.5969037411
 H         -4.3393192512        1.8795056164       -1.0798658010
 H         -3.3627926682        0.4276328469       -1.2482862413
 H         -5.6497706153        0.3083265964        0.7000563714
 H         -4.2859320203        1.3342701849        1.1302857117
 H         -4.0821071196       -0.9322208246        2.0723110055
 H         -4.0624282424       -1.6274105328        0.4477021412
 H         -2.2600823398        0.7703022330        2.6642900750
 H         -0.3489742449        1.6863576767        3.3265640493
 H         -1.9958213546       -1.8133238203       -0.7324616905
 H          3.3537208608       -2.6359264815        0.2534657420
 H          1.7976118620       -2.3328096002        1.0405619762
 H          1.9377330415       -3.6031528252       -0.1712585826
 H          2.1405385931       -1.4225259649       -3.1401762338
 H          1.8421354491       -3.0693652005       -2.5872245112
 H          3.4362707882       -2.3368846359       -2.3515280434
 H          1.9581555971        0.4275480572       -1.5300598843
 H          4.2118378575        0.2060407505       -1.8719295081
 H          4.4469267918       -0.9482621565       -0.5671180774
 H          4.7002607415        0.6743016022        1.0562889486
 H          5.3814329422        1.5180781818       -0.3312351988
 H          3.0740584959        4.2927054668        0.4019377974
 H          4.2677766233        3.8151200922       -0.8145516707
 H          4.7018446138        3.8003308649        0.8918904654
 H          1.4011156683        2.5205003208        0.7441897938
 H          2.4589305103       -0.1171383777        1.4145589975
  53
        -68.44221016
 C         -5.4509612127       -1.8378534471       -1.6687674249
 C         -5.4556056656       -2.1877324062       -0.1859600430
 C         -4.4192430335       -1.4226443252        0.6393264334
 C         -4.6659968909        0.0885810730        0.7247292646
 C         -3.8616983358        0.9096377354       -0.2946795453
 C         -2.3829164057        0.7730084502       -0.0718539460
 C         -1.7775719351        1.3971524507        1.0115997897
 C         -0.4170158315        1.2636921099        1.2376713326
 O          0.1766312208        1.8582763726        2.3149581722
 C          0.3821091132        0.5074947648        0.3765247677
 C         -0.2411184531       -0.1669958869       -0.6717395913
 C         -1.6079799540       -0.0161518116       -0.9001988749
 O          0.4160531954       -1.0010189953       -1.5210988980
 C          1.7089165187       -1.4648211709       -1.1154764996
 C          1.5305011866       -2.5264046485       -0.0251059668
 C          2.3143489239       -2.0936760228       -2.3711419231
 C          2.5244348092       -0.2458477824       -0.6549492529
 C          4.0108044538       -0.5111291356       -0.3921771378
 C          4.5893073568        0.4160893844        0.6973365794
 C          3.8853089521        1.7435458583        0.7530747628
 C          4.7227439900        2.9777185280        0.8555864552
 C          2.5591607087        1.7363485275        0.7312665907
 C          1.8693445606        0.4103858357        0.5730084906
 H         -6.1263475878       -2.4960768107       -2.2119670156
 H         -5.7790967643       -0.8143677213       -1.8296733311
 H         -4.4524919317       -1.9555661266       -2.0837104715
 H         -6.4511032041       -2.0008690997        0.2252429486
 H         -5.2533846615       -3.2565613806       -0.0781197331
 H         -3.4233771470       -1.6022634560        0.2306939182
 H         -4.4335369180       -1.8379534145        1.6500204396
 H         -4.3949374933        0.4366893706        1.7237671836
 H         -5.7299961732        0.2929214570        0.5864516705
 H         -4.1048056560        0.5895488969       -1.3064480206
 H         -4.1475647776        1.9599435793       -0.1917266929
 H         -2.3711432655        1.9993560223        1.6878251191
 H         -0.4921343118        2.3370168462        2.8186369600
 H         -2.0407229689       -0.5341949298       -1.7416476037
 H          2.4917579154       -2.8588740903        0.3552344185
 H          0.9400304334       -2.1317773454        0.7979799058
 H          1.0040979150       -3.3829032072       -0.4402540694
 H          2.4811594602       -1.3312275301       -3.1274219106
 H          1.6229560914       -2.8295016701       -2.7734349358
 H          3.2565809799       -2.5798122786       -2.1390986129
 H          2.4436868807        0.4848316360       -1.4702564617
 H          4.5657166990       -0.3631892182       -1.3195089477
 H          4.1652471181       -1.5454037347       -0.0817157064
 H          4.4679517709       -0.0713222419        1.6703125749
 H          5.6588670490        0.5523471004        0.5327498532
 H          5.3643837357        3.0731414338       -0.0207126631
 H          5.3661422778        2.9274749324        1.7341013903
 H          4.0978132064        3.8638081466        0.9299071884
 H          1.9707864459        2.6373224092        0.7657657511
 H          2.0777363843       -0.1958066092        1.4658260479
  53
        -68.44194060
 C         -5.8777956745       -1.5743441576       -1.7496467714
 C         -6.3246975942       -0.1238460684       -1.6168685098
 C         -5.8712701314        0.5466317385       -0.3186591113
 C         -4.3480318566        0.6763873702       -0.1823535937
 C         -3.7263647996       -0.4063476688        0.7099155436
 C         -2.2317554114       -0.2672884136        0.7294605968
 C         -1.6106441504        0.5525923095        1.6619053229
 C         -0.2358205736        0.7309093119        1.6441159238
 O          0.3819213370        1.5140374851        2.5777038203
 C          0.5555389755        0.1031085150        0.6796990451
 C         -0.0668803366       -0.7685223458       -0.2130869702
 C         -1.4502959510       -0.9327638448       -0.1961213323
 O          0.6102543630       -1.5036549761       -1.1348587574
 C          2.0229513347       -1.6486685148       -0.9493425997
 C          2.2700655778       -2.6369227478        0.1950868403
 C          2.5364649796       -2.2283712884       -2.2680469483
 C          2.6103812738       -0.2521174904       -0.6890183384
 C          4.1408953896       -0.1728122416       -0.6863796968
 C          4.6699982328        0.9370904275        0.2461897781
 C          3.7062327542        2.0838049668        0.3766377187
 C          4.2515253803        3.4725081739        0.2810721646
 C          2.4305931054        1.7917678730        0.5927831001
 C          2.0383217592        0.3409127820        0.6104135073
 H         -6.2093907561       -2.1564255149       -0.8921449895
 H         -6.3032474329       -2.0174030553       -2.6478307207
 H         -4.7957539102       -1.6422713065       -1.8213226063
 H         -5.9430381105        0.4489108679       -2.4655239896
 H         -7.4163641805       -0.0853675854       -1.6599178991
 H         -6.2664965728       -0.0136304996        0.5316284509
 H         -6.3195334525        1.5424745273       -0.2868069604
 H         -4.0987150702        1.6493953327        0.2467116193
 H         -3.8843201164        0.6334335620       -1.1694999507
 H         -4.1237538202       -0.3034672855        1.7222596513
 H         -3.9978364459       -1.3929231702        0.3359536798
 H         -2.2020165082        1.0566821193        2.4158709625
 H         -0.2828194153        1.8725470027        3.1775529640
 H         -1.8910956478       -1.6030612167       -0.9170128274
 H          3.3308088291       -2.7262050856        0.4098396365
 H          1.7510937886       -2.3156808748        1.0946633569
 H          1.8869930876       -3.6152221273       -0.0862110757
 H          1.9698214701       -3.1233010690       -2.5115249887
 H          3.5885655383       -2.4832105228       -2.1898184145
 H          2.4008485843       -1.5082681477       -3.0706601002
 H          2.2341409165        0.3799268298       -1.5039415038
 H          4.4868176641        0.0188389002       -1.7029579300
 H          4.5720810916       -1.1233759896       -0.3694512245
 H          4.8240343351        0.5107838025        1.2429263200
 H          5.6393815465        1.2857478021       -0.1120499274
 H          5.0263973654        3.6281030165        1.0318007733
 H          3.4654758085        4.2077070881        0.4320901288
 H          4.7011306108        3.6355163713       -0.6987216924
 H          1.6696709934        2.5461090406        0.6985735151
 H          2.5221801184       -0.1369060907        1.4738412773
  53
        -68.44191597
 C         -5.9200885682       -1.3468716018       -1.9751505888
 C         -6.4104850449       -1.5985517370       -0.5547788093
 C         -5.9441496039       -0.5491379604        0.4560303229
 C         -4.4233301874       -0.5087066728        0.6585615488
 C         -3.7374209201        0.6166057508       -0.1275803965
 C         -2.2494158187        0.5544976996        0.0629178653
 C         -1.6451778577        1.2175781450        1.1224310418
 C         -0.2743148171        1.1425481304        1.3156380610
 O          0.3212795711        1.7770574514        2.3688039345
 C          0.5324156203        0.4062122522        0.4453613715
 C         -0.0892805035       -0.3139966683       -0.5740119130
 C         -1.4656506311       -0.2224899414       -0.7692251449
 O          0.5810364763       -1.1355635368       -1.4250207327
 C          1.9027762931       -1.5361807336       -1.0460223440
 C          1.7990779601       -2.5828460281        0.0681300579
 C          2.5013291731       -2.1632690112       -2.3058745768
 C          2.6771666137       -0.2749797939       -0.6304538540
 C          4.1799722052       -0.4714944109       -0.4032846394
 C          4.7470542772        0.5029954128        0.6505186859
 C          3.9869218819        1.7993496984        0.7006792729
 C          4.7715677345        3.0706629822        0.7556501958
 C          2.6622887113        1.7340200164        0.7168139808
 C          2.0272036076        0.3764943390        0.6026582631
 H         -6.3573626389       -2.0730980251       -2.6574002219
 H         -6.2065160438       -0.3510920947       -2.3073658551
 H         -4.8390274988       -1.4378033478       -2.0349915621
 H         -7.5036159967       -1.6115184320       -0.5559459238
 H         -6.0717197250       -2.5842843824       -0.2267869843
 H         -6.4259878646       -0.7729576477        1.4107160020
 H         -6.2953879752        0.4353329408        0.1390889840
 H         -3.9867430117       -1.4653917206        0.3660807275
 H         -4.1978148101       -0.3637845690        1.7174811227
 H         -3.9744151052        0.5240548870       -1.1868397262
 H         -4.1172956419        1.5782899588        0.2245984701
 H         -2.2468159333        1.8037972918        1.8055846911
 H         -0.3536376707        2.2370573087        2.8817409453
 H         -1.9012600254       -0.7773419138       -1.5851236901
 H          1.2983884053       -3.4684684705       -0.3165597659
 H          2.7835260926       -2.8672925380        0.4275744030
 H          1.2147951343       -2.1973422209        0.8998682451
 H          3.4693177344       -2.6044429961       -2.0905510202
 H          2.6152958519       -1.4094148583       -3.0803594257
 H          1.8316692738       -2.9354071103       -2.6755100395
 H          2.5435822360        0.4356208571       -1.4565036990
 H          4.7031075889       -0.3206372871       -1.3484601515
 H          4.3866774908       -1.4913158907       -0.0758590038
 H          4.6747302526        0.0313342096        1.6360376505
 H          5.8044897486        0.6825057562        0.4524957056
 H          5.3839420372        3.1758942061       -0.1402508615
 H          5.4405571126        3.0664673928        1.6162882144
 H          4.1104421446        3.9300573677        0.8305538884
 H          2.0359103745        2.6090453716        0.7510212890
 H          2.2856934547       -0.2021837381        1.5005582534
  53
        -68.44191422
 C         -5.9075017595       -1.4020599028       -1.9476432140
 C         -6.4107416727       -1.6049244129       -0.5239136703
 C         -5.9487789334       -0.5239375712        0.4551626870
 C         -4.4290759717       -0.4803528520        0.6657711508
 C         -3.7369076149        0.6209759508       -0.1483806976
 C         -2.2495157061        0.5579030818        0.0463568185
 C         -1.6480342978        1.2249248569        1.1050390125
 C         -0.2779894263        1.1490911438        1.3032649369
 O          0.3145973049        1.7870833883        2.3560130901
 C          0.5309749130        0.4087018765        0.4384102446
 C         -0.0880485856       -0.3146619736       -0.5802934263
 C         -1.4638435761       -0.2231210365       -0.7800409960
 O          0.5841680782       -1.1393446049       -1.4267272137
 C          1.9050853042       -1.5387856025       -1.0437380542
 C          1.7988585204       -2.5830047246        0.0724555631
 C          2.5066306468       -2.1685540975       -2.3008495965
 C          2.6785204024       -0.2766914731       -0.6290626610
 C          4.1808016235       -0.4730285262       -0.3976606941
 C          4.7443945598        0.4999803186        0.6592263598
 C          3.9864859359        1.7978036435        0.7047825159
 C          4.7730898906        3.0678507820        0.7616162301
 C          2.6616682256        1.7345482420        0.7151365225
 C          2.0252076184        0.3777365817        0.6007622628
 H         -6.3401901843       -2.1502023623       -2.6088581599
 H         -6.1890383630       -0.4175722617       -2.3158431603
 H         -4.8260928964       -1.4967531121       -1.9946926860
 H         -7.5038605483       -1.6144754648       -0.5338497737
 H         -6.0780526061       -2.5802737705       -0.1604368401
 H         -6.4374428105       -0.7151759098        1.4134859061
 H         -6.2956526370        0.4503274426        0.1036487827
 H         -3.9925493811       -1.4455306444        0.4025702159
 H         -4.2092841686       -0.3065050308        1.7214991410
 H         -3.9725482820        0.5017436431       -1.2052699567
 H         -4.1135298860        1.5930276178        0.1780462193
 H         -2.2513518054        1.8148772738        1.7834945118
 H         -0.3616425413        2.2496741031        2.8648775711
 H         -1.8972493458       -0.7809785147       -1.5950942947
 H          1.2119231134       -2.1959693498        0.9015947134
 H          1.2998219697       -3.4697956692       -0.3116377706
 H          2.7824276458       -2.8660206729        0.4354275851
 H          1.8379661682       -2.9415981060       -2.6703782756
 H          3.4742222859       -2.6090844835       -2.0824676036
 H          2.6222077737       -1.4163258227       -3.0766805635
 H          2.5471509371        0.4320120201       -1.4570795588
 H          4.7068042363       -0.3204395634       -1.3409740072
 H          4.3870215145       -1.4932407856       -0.0711585355
 H          4.6656229057        0.0283299561        1.6442549221
 H          5.8032693795        0.6771057054        0.4668591326
 H          5.4374977724        3.0640297070        1.6257960507
 H          4.1130662992        3.9284645141        0.8316561788
 H          5.3903535839        3.1705886520       -0.1312078532
 H          2.0364904976        2.6105747750        0.7451927579
 H          2.2799222408       -0.1998854669        1.5004327039
  53
        -68.44182227
 C         -6.5222418282        1.0214043120        0.6885812275
 C         -6.5997505363        0.7524863442       -0.8091173042
 C         -5.7307499639       -0.4178060219       -1.2737615181
 C         -4.2243059592       -0.1955262030       -1.0818693640
 C         -3.6651086397       -0.8813223953        0.1718231572
 C         -2.2005465276       -0.5843175055        0.3156685573
 C         -1.7740131187        0.5249245635        1.0337268620
 C         -0.4261465794        0.8381484913        1.1193566709
 O         -0.0003124605        1.9122716544        1.8485122616
 C          0.5333650816        0.0551762822        0.4739062174
 C          0.1038421106       -1.0927595598       -0.1910094423
 C         -1.2535008373       -1.3934943158       -0.2828519504
 O          0.9527283272       -1.9786148338       -0.7766834968
 C          2.3327087606       -1.9128922995       -0.3992245964
 C          2.4880450807       -2.5089113180        1.0036765193
 C          3.0640475150       -2.7795837304       -1.4252230841
 C          2.7778296685       -0.4444492090       -0.4927197614
 C          4.2836414388       -0.2029765186       -0.3414298951
 C          4.5982979366        1.1750443287        0.2779834875
 C          3.5456632869        2.2006427569       -0.0397531551
 C          3.9976374777        3.5575246311       -0.4752087197
 C          2.2767241838        1.8444205978        0.1090016409
 C          1.9906755162        0.4229465304        0.5049393515
 H         -7.2273604434        1.8019090667        0.9675354092
 H         -6.7670795249        0.1228502055        1.2511900573
 H         -5.5263476820        1.3506242445        0.9724861549
 H         -7.6377045102        0.5357515586       -1.0745189813
 H         -6.3045328397        1.6535682850       -1.3522491309
 H         -5.9348378045       -0.5791424523       -2.3346773489
 H         -6.0350884018       -1.3232139834       -0.7442372330
 H         -4.0136408125        0.8745555115       -1.0305291967
 H         -3.6817467971       -0.5877366736       -1.9443454526
 H         -4.2022058943       -0.5351628443        1.0549758733
 H         -3.8151271362       -1.9588792218        0.0815902303
 H         -2.4972401931        1.1529755396        1.5387924975
 H         -0.7648537976        2.3495620367        2.2415205441
 H         -1.5431923799       -2.2808480595       -0.8230162364
 H          3.5122416087       -2.4191659696        1.3533306427
 H          1.8273894148       -2.0070491934        1.7061237509
 H          2.2185741235       -3.5623312629        0.9782074703
 H          2.6010833317       -3.7622899180       -1.4600172601
 H          4.1103531006       -2.8879831590       -1.1578239309
 H          2.9910064781       -2.3315194756       -2.4126536071
 H          2.4741431158       -0.1099912278       -1.4932503562
 H          4.7528626825       -0.2692876046       -1.3238951840
 H          4.7328454107       -0.9734888336        0.2866456587
 H          4.6445805834        1.0654607631        1.3664544200
 H          5.5799427766        1.5121806703       -0.0571546960
 H          4.5634985052        3.4873076150       -1.4045149022
 H          4.6498916554        3.9997955939        0.2778986582
 H          3.1475197635        4.2162192316       -0.6321199666
 H          1.4563882984        2.5111335787       -0.0952708342
 H          2.3833492582        0.2613394291        1.5186532836
  53
        -68.44181739
 C         -6.9348897546       -1.4267476515       -0.2404916179
 C         -6.3799780929       -0.5360548300       -1.3473436641
 C         -5.7551855374        0.7651487814       -0.8238636875
 C         -4.2305588335        0.7285578967       -0.7113964868
 C         -3.7061119830       -0.2789175499        0.3176909662
 C         -2.2140070227       -0.1637414880        0.4385158693
 C         -1.6464645362        0.7307097562        1.3361428220
 C         -0.2705745753        0.8845029238        1.4083553902
 O          0.2928852433        1.7428458019        2.3096729088
 C          0.5766098266        0.1554214823        0.5709112300
 C          0.0035131308       -0.7873513299       -0.2816573876
 C         -1.3807778247       -0.9271212563       -0.3569117705
 O          0.7312906274       -1.6177666653       -1.0748613945
 C          2.1226330194       -1.7652674360       -0.7690277854
 C          2.2618953209       -2.6432949580        0.4788445985
 C          2.7203141338       -2.4757955797       -1.9841983381
 C          2.7194984831       -0.3590645960       -0.5971343487
 C          4.2469783759       -0.3024103178       -0.4855404443
 C          4.7292765722        0.8827300554        0.3771703093
 C          3.7840700087        2.0509503147        0.3258396294
 C          4.3654554121        3.4159889763        0.1424808040
 C          2.4897235085        1.7998046626        0.4702617389
 C          2.0653308614        0.3631986725        0.5936014733
 H         -7.7234092297       -0.9085503518        0.3016792063
 H         -7.3554844033       -2.3369781252       -0.6632779649
 H         -6.1607831700       -1.7056964271        0.4688004907
 H         -5.6356470441       -1.0892315477       -1.9234007623
 H         -7.1986573102       -0.2927305913       -2.0283653287
 H         -6.1836234853        1.0050581582        0.1517393448
 H         -6.0133587796        1.5828383334       -1.5009214057
 H         -3.8773489551        1.7245170525       -0.4315959580
 H         -3.7996191966        0.4925422542       -1.6869037467
 H         -4.1751824622       -0.0807923109        1.2839992011
 H         -3.9662235331       -1.2896089537        0.0035874271
 H         -2.2813527023        1.3139371719        1.9912362578
 H         -0.4067330607        2.1674047746        2.8200747399
 H         -1.7819906881       -1.6551071323       -1.0441373721
 H          1.6832857575       -2.2306639954        1.3014670720
 H          1.8808788827       -3.6386881337        0.2621479145
 H          3.3012986658       -2.7260413660        0.7822712825
 H          2.6609084955       -1.8336554568       -2.8589841625
 H          2.1538345810       -3.3813632989       -2.1850055839
 H          3.7577656913       -2.7376118511       -1.8021708328
 H          2.4187027334        0.1979309939       -1.4940305396
 H          4.6715400086       -0.2125683201       -1.4862828302
 H          4.6327649142       -1.2250343267       -0.0497686422
 H          4.7986944865        0.5503946164        1.4181642045
 H          5.7302939980        1.1812356251        0.0633562094
 H          3.5867223919        4.1738529020        0.1634909422
 H          4.8903841223        3.4784073269       -0.8110830418
 H          5.0854131536        3.6307209816        0.9322928018
 H          1.7398290783        2.5719882308        0.4461444411
 H          2.4726363416       -0.0375584267        1.5324366670
  53
        -68.44178733
 C         -7.1175235343       -0.6221487683        0.4938878950
 C         -6.6314626937        0.5111129668       -0.4038176423
 C         -5.6407309784        0.0493019851       -1.4821149719
 C         -4.1718798332        0.2923456264       -1.1332067594
 C         -3.6779414646       -0.5082623577        0.0768935254
 C         -2.1995996123       -0.3152231191        0.2546160324
 C         -1.7131720220        0.7114047853        1.0526037484
 C         -0.3492587111        0.9308788890        1.1710880354
 O          0.1341111728        1.9222324844        1.9774077824
 C          0.5669412180        0.1351493627        0.4799693557
 C          0.0740646074       -0.9337591991       -0.2677217652
 C         -1.2982011357       -1.1400895859       -0.3913213327
 O          0.8722713731       -1.8286813313       -0.9082928849
 C          2.2494508529       -1.8769698222       -0.5183024816
 C          2.3520451081       -2.5798651131        0.8392290666
 C          2.9361513939       -2.7130438985       -1.5991082114
 C          2.7866486570       -0.4366902133       -0.5036882366
 C          4.3029461835       -0.3026002272       -0.3255102658
 C          4.6963673178        1.0034656835        0.3961618747
 C          3.7151018131        2.1147405798        0.1451822154
 C          4.2576353181        3.4675731019       -0.1872970601
 C          2.4243748936        1.8307717552        0.2576570866
 C          2.0441546630        0.4059038522        0.5480643629
 H         -6.2896825712       -1.1063515917        1.0040040114
 H         -7.8068140421       -0.2407061312        1.2447297630
 H         -7.6397708204       -1.3727853592       -0.0958916574
 H         -7.5035932582        0.9589761762       -0.8856286967
 H         -6.1672742147        1.2883633444        0.2067467722
 H         -5.8487981896        0.5856971880       -2.4108468779
 H         -5.7923231840       -1.0136274682       -1.6808964466
 H         -4.0156455382        1.3570048538       -0.9431584737
 H         -3.5586503854        0.0217364615       -1.9962332356
 H         -4.2007275699       -0.1755045985        0.9743129258
 H         -3.8949336350       -1.5660211256       -0.0829155870
 H         -2.4020791722        1.3481323025        1.5933770161
 H         -0.6064993509        2.3798705561        2.3924601189
 H         -1.6365680121       -1.9667052119       -0.9957893051
 H          3.3760484172       -2.5803296545        1.2007421140
 H          1.7167636994       -2.0882321216        1.5716558245
 H          2.0172060997       -3.6095917642        0.7368365257
 H          3.9708714834       -2.9055853562       -1.3340277880
 H          2.9013242215       -2.1923964572       -2.5524355960
 H          2.4133549404       -3.6598093663       -1.7067357126
 H          2.5156773358       -0.0135518193       -1.4797403174
 H          4.7778060216       -0.3259145466       -1.3072291612
 H          4.6963282835       -1.1439831136        0.2465763208
 H          4.7211081005        0.8121978385        1.4740065839
 H          5.7018129721        1.3001722920        0.0950563900
 H          4.8307527196        3.4277448300       -1.1139550806
 H          4.9260134922        3.8125033818        0.6017272970
 H          3.4529822041        4.1887416551       -0.3042248401
 H          1.6504554442        2.5615018112        0.0955231633
 H          2.4137969618        0.1475395741        1.5503343690
  53
        -68.44177502
 C         -7.0237146044        0.5878963336       -1.1122547246
 C         -6.7059589401       -0.0428755484        0.2395767625
 C         -5.7891357115       -1.2702054154        0.1361550326
 C         -4.3161852140       -0.9819141165        0.4288571915
 C         -3.6545922714       -0.0351643367       -0.5787515885
 C         -2.1853502916        0.0841252531       -0.2923493931
 C         -1.7189367633        1.0349323492        0.6054857524
 C         -0.3663630374        1.1338195586        0.8932840661
 O          0.0938546393        2.0535411537        1.7926822106
 C          0.5600393126        0.2876844763        0.2798663499
 C          0.0773399476       -0.7089772258       -0.5675107242
 C         -1.2821105872       -0.7941599751       -0.8604036228
 O          0.8731061253       -1.6444730314       -1.1505775118
 C          2.1865160405       -1.8204604263       -0.6074630752
 C          2.0725330385       -2.5775657784        0.7196913399
 C          2.9289515581       -2.6712391404       -1.6388207068
 C          2.8290848217       -0.4311332831       -0.4659356307
 C          4.3194111892       -0.4297868995       -0.1082092149
 C          4.7249544886        0.8113160970        0.7143207433
 C          3.8713184293        2.0090797619        0.4022507101
 C          4.5543504645        3.3229814553        0.1972086620
 C          2.5581120928        1.8298718503        0.3508354066
 C          2.0353505559        0.4321260377        0.5301851870
 H         -7.5441780058       -0.1254734911       -1.7480383412
 H         -7.6648390772        1.4576615156       -0.9824691774
 H         -6.1191831913        0.9030173703       -1.6246405780
 H         -6.2438679489        0.7016160964        0.8911652144
 H         -7.6489860012       -0.3370423932        0.7059234071
 H         -5.8792530697       -1.7054767154       -0.8611653220
 H         -6.1225575635       -2.0259962804        0.8511495775
 H         -3.7674597823       -1.9269299310        0.4229007083
 H         -4.2225757729       -0.5569567044        1.4312030823
 H         -3.8020425500       -0.4271339968       -1.5866485736
 H         -4.1192126924        0.9494446155       -0.5148250581
 H         -2.4149199127        1.7107653399        1.0864331526
 H         -0.6523068005        2.5592284361        2.1358076351
 H         -1.6099187266       -1.5665969649       -1.5379589754
 H          1.6732669877       -3.5718847539        0.5329146607
 H          3.0432811732       -2.6754025749        1.1964709597
 H          1.3950689690       -2.0616608824        1.3954440691
 H          3.0478287322       -2.1155593732       -2.5652053246
 H          2.3503444665       -3.5670249992       -1.8487020547
 H          3.9068789975       -2.9581192921       -1.2654977190
 H          2.7096187758        0.0475854831       -1.4465872908
 H          4.9040493362       -0.4554884601       -1.0287189904
 H          4.5755732796       -1.3216831994        0.4652652201
 H          4.6049697064        0.5790977023        1.7776270645
 H          5.7794738242        1.0337472518        0.5466479978
 H          3.8286485429        4.1123799299        0.0199995613
 H          5.2297683925        3.2688167750       -0.6569396032
 H          5.1480447798        3.5825151683        1.0738081570
 H          1.8689917263        2.6278382486        0.1328757733
 H          2.2619925483        0.1079542134        1.5556088967
  53
        -68.44180751
 C         -6.5666811517        1.1762169706        0.2665009437
 C         -6.7543101550       -0.2972360623        0.6058371594
 C         -5.8388118368       -1.2359267083       -0.1824469191
 C         -4.3438873480       -1.0471254349        0.1094387955
 C         -3.6217435416       -0.2006696686       -0.9473211325
 C         -2.1763044301       -0.0267440602       -0.5797394958
 C         -1.7771643351        1.0326854279        0.2241821461
 C         -0.4474073675        1.1864220939        0.5849598180
 O         -0.0540049507        2.2160598262        1.3922919242
 C          0.5235471666        0.2859031293        0.1414639211
 C          0.1049444002       -0.8144841696       -0.6057221466
 C         -1.2312976248       -0.9546903561       -0.9744264489
 O          0.9439187969       -1.8026080665       -1.0155035606
 C          2.2207190928       -1.8890983448       -0.3726223505
 C          2.0271080761       -2.4775378951        1.0287501545
 C          3.0350916697       -2.8492042017       -1.2408141477
 C          2.8414754785       -0.4827975624       -0.3649858585
 C          4.3057194584       -0.4131021670        0.0821794626
 C          4.6481360507        0.9278118973        0.7649329879
 C          3.8052550402        2.0629756241        0.2532889450
 C          4.4883298677        3.3521623140       -0.0729219238
 C          2.4994763219        1.8571876849        0.1443643150
 C          1.9783934660        0.4841050252        0.4642651217
 H         -6.6864238412        1.3403188574       -0.8024269411
 H         -7.3058966714        1.7795541587        0.7897186199
 H         -5.5799506441        1.5205995142        0.5641037904
 H         -6.5817593291       -0.4452192018        1.6747271789
 H         -7.7909285203       -0.5763481218        0.3999352967
 H         -6.0202812533       -1.1005463298       -1.2508332225
 H         -6.1238485044       -2.2605148383        0.0671279035
 H         -3.8512919663       -2.0208232788        0.1476754907
 H         -4.2158520576       -0.5845835349        1.0901837191
 H         -3.6962852661       -0.7031727417       -1.9135674781
 H         -4.1012254985        0.7745321290       -1.0324643870
 H         -2.5075460819        1.7524695246        0.5720797832
 H         -0.8243292664        2.7495105988        1.6208314528
 H         -1.5079328488       -1.8082090125       -1.5728544424
 H          1.3030107140       -1.8929896900        1.5906684161
 H          1.6490895343       -3.4937329003        0.9426354810
 H          2.9657238114       -2.4996340276        1.5744607851
 H          2.4783971315       -3.7731768043       -1.3735994828
 H          3.9889733505       -3.0720221405       -0.7734184957
 H          3.2094031701       -2.4108206219       -2.2198584768
 H          2.7811712817       -0.1310081512       -1.4031287309
 H          4.9482005022       -0.5451594119       -0.7893452325
 H          4.5314677048       -1.2217466280        0.7786692123
 H          4.4640520406        0.8286140603        1.8397307866
 H          5.7090761273        1.1449363311        0.6350883600
 H          3.7682778429        4.1013137260       -0.3914884859
 H          5.2160481735        3.2030279437       -0.8709805028
 H          5.0240147605        3.7286550502        0.7985947933
 H          1.8186310993        2.6104756953       -0.2136540256
 H          2.1415943662        0.2934816084        1.5342574186
  53
        -68.44151723
 C         -7.2410996138        1.4236294217        0.4410823622
 C         -6.9900840389        0.6220188177       -0.8308771307
 C         -5.9323477177       -0.4684714475       -0.6570105377
 C         -4.5286403552        0.0850547194       -0.4174637924
 C         -3.4974490773       -1.0378358674       -0.3630561132
 C         -2.0774036267       -0.6092441776       -0.0973573241
 C         -1.6964374654        0.7127553533        0.0350523890
 C         -0.3723595813        1.0647754910        0.2972747111
 O         -0.1029544061        2.3981229222        0.3657531464
 C          0.5885739680        0.0766935832        0.4667000067
 C          0.2160135194       -1.2541615132        0.2442739006
 C         -1.0996382631       -1.5956802127       -0.0157733217
 O          1.1445201151       -2.2497314652        0.3326847255
 C          2.4592327764       -2.0264554053       -0.2142702301
 C          3.4174154454       -2.7479767188        0.7358700193
 C          2.4912437317       -2.6983023616       -1.5929399552
 C          2.7675722190       -0.5209502259       -0.3535876432
 C          4.2464972855       -0.1556680187       -0.4018292366
 C          4.3675892384        1.3439046143       -0.6697414525
 C          3.6243906041        2.1272879460        0.3769338437
 C          4.1333583097        3.5074772938        0.6565560550
 C          2.5909390257        1.6021785922        1.0254845953
 C          2.0586956892        0.2225793149        0.7922243576
 H         -7.5114173654        0.7610602132        1.2606351319
 H         -6.3570029661        1.9856444457        0.7296967153
 H         -8.0550658931        2.1289642916        0.2882942001
 H         -7.9267507654        0.1520662200       -1.1411185102
 H         -6.6805561380        1.2988734065       -1.6306147911
 H         -5.9175460263       -1.0862593251       -1.5589611299
 H         -6.2156352172       -1.1131112837        0.1786644204
 H         -4.5076331808        0.6348738843        0.5238548041
 H         -4.2766135284        0.7750504810       -1.2253544697
 H         -3.7878565854       -1.7474155518        0.4179357449
 H         -3.5175531529       -1.5867769507       -1.3100055097
 H         -2.4007755319        1.5209748837       -0.0640828403
 H          0.8534739556        2.5262959149        0.4505473415
 H         -1.3506228554       -2.6358420413       -0.1531682164
 H          3.4897090443       -2.2246092994        1.6858913482
 H          3.0272589407       -3.7440952404        0.9278948519
 H          4.4061531874       -2.8335073921        0.2962644493
 H          3.4598949892       -2.5564744339       -2.0644944219
 H          1.7197114458       -2.2719286013       -2.2309497367
 H          2.3000317541       -3.7629237103       -1.4877829707
 H          2.3159744791       -0.1777716025       -1.2935739405
 H          4.7543813329       -0.7171136500       -1.1877514435
 H          4.7244750705       -0.3842037189        0.5514680931
 H          5.4185068165        1.6414856241       -0.6661295547
 H          3.9672185190        1.5776398911       -1.6615498517
 H          3.5095113881        4.0201099773        1.3846380647
 H          4.1536647806        4.0925763418       -0.2626868956
 H          5.1520528420        3.4635255662        1.0415233576
 H          2.1440681987        2.1398642843        1.8543692549
 H          2.2232944133       -0.3431337500        1.7239408366
  53
        -68.44150609
 C         -6.9538485228        1.6138304604       -1.3917930766
 C         -7.0403708407        0.5853015847       -0.2700896740
 C         -5.9548163291       -0.4885205032       -0.3520468344
 C         -4.5481530065        0.0552804532       -0.1073900595
 C         -3.5205510572       -1.0719523810       -0.0807286356
 C         -2.0890323242       -0.6471159550        0.1216004787
 C         -1.7118578487        0.6631368013        0.3483084203
 C         -0.3764365894        1.0098674428        0.5538544291
 O         -0.1149210011        2.3357754417        0.7231402576
 C          0.6022800528        0.0248372802        0.5717319163
 C          0.2274067359       -1.2865109526        0.2566853149
 C         -1.0993733552       -1.6224111457        0.0512011239
 O          1.1673958423       -2.2732622734        0.1968289994
 C          2.4437995885       -1.9850095173       -0.4074603608
 C          3.4660219280       -2.7704178220        0.4170340867
 C          2.3968369169       -2.5368862611       -1.8379628126
 C          2.7285282196       -0.4688614439       -0.4354928832
 C          4.1976883411       -0.0789540726       -0.5471393308
 C          4.2872814047        1.4396908371       -0.6913988315
 C          3.6077033805        2.1188757531        0.4654934723
 C          4.1219685098        3.4769179489        0.8308704522
 C          2.6238050067        1.5247537599        1.1313794279
 C          2.0892329327        0.1630067221        0.8136394545
 H         -6.9781811480        1.1215766064       -2.3617927081
 H         -7.7931995489        2.3036275168       -1.3368740069
 H         -6.0365564100        2.1921664662       -1.3216890366
 H         -6.9707879886        1.0941470997        0.6941066603
 H         -8.0170628933        0.0969788148       -0.3151151787
 H         -5.9940634040       -0.9644081397       -1.3350810203
 H         -6.1693796415       -1.2576420865        0.3947343336
 H         -4.5335888550        0.5861640159        0.8465600680
 H         -4.2856679788        0.7595778416       -0.8974305921
 H         -3.7811065763       -1.7723275966        0.7193736308
 H         -3.5823189871       -1.6303316507       -1.0198996889
 H         -2.4284775582        1.4663139516        0.3704315011
 H          0.8438279846        2.4700235999        0.7567501231
 H         -1.3494404157       -2.6498278548       -0.1625263896
 H          4.4261339937       -2.8043195899       -0.0881759053
 H          3.5928849933       -2.3283367621        1.4019901161
 H          3.0976483349       -3.7846829301        0.5470613612
 H          1.5838365415       -2.0687775847       -2.3893009376
 H          2.2217224507       -3.6091337620       -1.8126831787
 H          3.3333637679       -2.3422363176       -2.3534933084
 H          2.2132563649       -0.0531457109       -1.3112504824
 H          4.6581920571       -0.5633176293       -1.4097731256
 H          4.7390600459       -0.3814143239        0.3500151426
 H          5.3333718751        1.7514354992       -0.7302684218
 H          3.8201526395        1.7518201430       -1.6310624691
 H          5.1641771995        3.4146382637        1.1435134386
 H          3.5431313214        3.9156451112        1.6398956995
 H          4.0765175607        4.1396282207       -0.0331267658
 H          2.2278756168        1.9822781354        2.0312694273
 H          2.3189086518       -0.4783052250        1.6803350432
  53
        -68.44141170
 C         -5.9455617383        1.3976225297       -0.2946904191
 C         -5.5192012331        0.7565564656       -1.6093756588
 C         -4.2046674793       -0.0218601316       -1.5264738178
 C         -4.2594611927       -1.2661498992       -0.6314276575
 C         -3.7356111915       -1.0312391662        0.7932039545
 C         -2.2798099854       -0.6618434272        0.7943638720
 C         -1.8799059265        0.6418444603        1.0283517939
 C         -0.5340114810        1.0032424584        1.0182272923
 O         -0.2533279162        2.3207844291        1.2165395831
 C          0.4371040518        0.0320963409        0.8045603820
 C          0.0232476116       -1.2661372658        0.4851299201
 C         -1.3166585320       -1.6168890509        0.4976410141
 O          0.9472530583       -2.2301430120        0.2058939029
 C          2.0918840494       -1.8854665388       -0.5993031142
 C          3.2496652072       -2.7022169480       -0.0216076042
 C          1.7905167088       -2.3509191269       -2.0295658694
 C          2.3588511257       -0.3657155340       -0.5842630145
 C          3.7840142695        0.0538496887       -0.9245635706
 C          3.8391841267        1.5797147100       -0.9873587157
 C          3.3679917499        2.1770461127        0.3098390913
 C          3.9324073863        3.5176567833        0.6651944519
 C          2.5171421060        1.5288006768        1.0974578383
 C          1.9426799791        0.1803323473        0.7930199313
 H         -6.2009571873        0.6419193048        0.4432910655
 H         -5.1458930457        2.0192485234        0.1017790671
 H         -6.8211093779        2.0252147718       -0.4496077656
 H         -6.3108188716        0.0878974608       -1.9574841406
 H         -5.4020996423        1.5425252726       -2.3601281166
 H         -3.4113919770        0.6401413156       -1.1750784962
 H         -3.9421254112       -0.3307631337       -2.5413278878
 H         -3.6555736009       -2.0559936209       -1.0824282299
 H         -5.2874083409       -1.6313527640       -0.5778185082
 H         -4.3094255839       -0.2424935995        1.2771534787
 H         -3.8719660673       -1.9527983213        1.3648651719
 H         -2.6022951510        1.4177276957        1.2289021376
 H          0.6962260062        2.4671943380        1.0925838515
 H         -1.5909443086       -2.6367662489        0.2791367675
 H          4.1037540510       -2.6895308319       -0.6913519158
 H          3.5485365099       -2.3184093786        0.9505365435
 H          2.9161905152       -3.7284906808        0.1085166156
 H          0.8883019441       -1.8646396665       -2.3953266142
 H          1.6298107587       -3.4256839521       -2.0405100075
 H          2.6172412153       -2.1089665635       -2.6919586253
 H          1.6969711760        0.0926997098       -1.3306481969
 H          4.0896599973       -0.3701610951       -1.8825038055
 H          4.4750608578       -0.2934359655       -0.1556084907
 H          4.8608754096        1.9097947215       -1.1877554296
 H          3.2139213266        1.9405682981       -1.8104313818
 H          5.0131793662        3.4513199506        0.7894085403
 H          3.5003586046        3.8978873439        1.5876173710
 H          3.7361037394        4.2310055804       -0.1350409236
 H          2.2816834039        1.9245314350        2.0792327114
 H          2.3230773744       -0.5080182261        1.5655537002
  53
        -68.44126339
 C         -5.9358782256       -2.0370878251       -1.2863312947
 C         -6.5029789875       -1.4262916256       -0.0109228025
 C         -5.9799041253       -0.0197939135        0.2871835195
 C         -4.4710265535        0.0424774357        0.5610754958
 C         -3.6529146641        0.4975669926       -0.6547354414
 C         -2.1880799365        0.4753409723       -0.3269969139
 C         -1.5717422487        1.5898619825        0.2141025892
 C         -0.2284120183        1.5700823215        0.5816141340
 O          0.2927737879        2.7330747439        1.0604080144
 C          0.5062560065        0.3974813219        0.4412805529
 C         -0.0986283899       -0.6979692882       -0.1841367666
 C         -1.4359942850       -0.6698403733       -0.5469800639
 O          0.6115160954       -1.8417243275       -0.4034179156
 C          1.9807056761       -1.7400798575       -0.8424026740
 C          2.7113451665       -2.8937401992       -0.1518819618
 C          1.9815633937       -1.9595785424       -2.3605774621
 C          2.5817479179       -0.3589786878       -0.5083813318
 C          4.1029980998       -0.3069491955       -0.4309935699
 C          4.5289055337        1.1453740959       -0.2201552203
 C          3.8804038300        1.7096096731        1.0137608831
 C          4.6263437999        2.8038613923        1.7125996187
 C          2.7221380211        1.2368307934        1.4602182690
 C          1.9506816721        0.1331483407        0.8061358144
 H         -6.1131699938       -1.3806103771       -2.1358458721
 H         -4.8668381546       -2.2072428513       -1.1929518529
 H         -6.4128650029       -2.9940215755       -1.4888129640
 H         -7.5916491417       -1.3767566479       -0.0972467655
 H         -6.2710905373       -2.0790122859        0.8341263936
 H         -6.5169145953        0.3535947899        1.1621905307
 H         -6.2255894504        0.6390753417       -0.5484949836
 H         -4.1144152733       -0.9369586000        0.8852485860
 H         -4.2733238014        0.7420179905        1.3758938357
 H         -3.8513486952       -0.1593363190       -1.5012089776
 H         -3.9569087658        1.5102098019       -0.9274012957
 H         -2.1169716369        2.5094757077        0.3573335256
 H          1.2477343010        2.6277500499        1.1850514104
 H         -1.8705383192       -1.5449709849       -1.0038512725
 H          2.1237978584       -3.7992478105       -0.2791653134
 H          3.6938107292       -3.0449784869       -0.5878364178
 H          2.8153709609       -2.7055653554        0.9137086791
 H          1.5811850272       -2.9435026814       -2.5900347032
 H          2.9908708717       -1.8861389503       -2.7563454056
 H          1.3553060076       -1.2123256779       -2.8438709806
 H          2.2712199064        0.3357891022       -1.2996886026
 H          4.5467439385       -0.6963322316       -1.3487536141
 H          4.4604753756       -0.9053701583        0.4077954562
 H          5.6146842411        1.2065284217       -0.1184188644
 H          4.2500589935        1.7447655148       -1.0928758264
 H          4.8254977652        3.6223275234        1.0210503252
 H          5.5870455237        2.4357741352        2.0725301446
 H          4.0636298951        3.1893729515        2.5592827556
 H          2.3315135791        1.5769519457        2.4129139962
 H          1.9368928028       -0.7085679374        1.5178765879
  53
        -68.44120587
 C         -6.9030237022       -0.9158933606        0.3173451745
 C         -6.7271320342        0.5876703928        0.1442195409
 C         -5.2647008331        1.0373480384        0.1633388797
 C         -4.4423958222        0.4987950616       -1.0174637804
 C         -3.6081216934       -0.7497365098       -0.6911583304
 C         -2.1793162262       -0.4531517929       -0.3197420861
 C         -1.8376895652        0.6257427506        0.4838386830
 C         -0.5139458424        0.8865202896        0.8064366535
 O         -0.2114695223        1.9357161941        1.6310807808
 C          0.5216514668        0.0841158477        0.3211917103
 C          0.1633104793       -1.0470955828       -0.4143445849
 C         -1.1672973651       -1.2922944257       -0.7468675629
 O          1.0512386837       -1.9777116165       -0.8536946340
 C          2.3681743893       -1.9658835171       -0.2912839933
 C          2.3252525992       -2.5901073135        1.1071190088
 C          3.1957821312       -2.8497171355       -1.2270696339
 C          2.8592799205       -0.5118902523       -0.2938250680
 C          4.3134274962       -0.2800064293        0.1023821595
 C          4.7009563299        1.1492132741       -0.2779383848
 C          3.6155428633        2.1481893747        0.0230713309
 C          4.0119654285        3.5830655210       -0.1602218825
 C          2.3939690213        1.7962530368        0.3971563432
 C          1.9785138414        0.3636412097        0.6032317818
 H         -6.4500711555       -1.2489011754        1.2491519512
 H         -7.9606497230       -1.1698037141        0.3438993514
 H         -6.4443891847       -1.4583847514       -0.5049885564
 H         -7.1843452875        0.8984767748       -0.7983180073
 H         -7.2581823132        1.1006968515        0.9503669506
 H         -4.8149788464        0.7213980641        1.1065127127
 H         -5.2529738671        2.1301279132        0.1418867178
 H         -3.7666985857        1.2752898465       -1.3811408969
 H         -5.1267134656        0.2678870064       -1.8358825875
 H         -4.0747567850       -1.2964763181        0.1319393476
 H         -3.5981087290       -1.4176607716       -1.5545649629
 H         -2.6035662291        1.2827928712        0.8709453536
 H         -1.0308780366        2.3705778321        1.8960963312
 H         -1.3835144776       -2.1663394072       -1.3409839388
 H          3.3003378885       -2.5235507225        1.5810109924
 H          1.5883693351       -2.0887414188        1.7294138500
 H          2.0429348518       -3.6373889179        1.0266535724
 H          2.6523883798       -3.7733031831       -1.4089860196
 H          4.1563847027       -3.0888598105       -0.7817692400
 H          3.3524416700       -2.3510892855       -2.1800051725
 H          2.7293116355       -0.1573347618       -1.3250010558
 H          4.9784070997       -0.9823588958       -0.4012881041
 H          4.4271360196       -0.4173434341        1.1794096661
 H          5.6170484562        1.4398392657        0.2439072414
 H          4.9191705330        1.1947450525       -1.3509030405
 H          4.8163918873        3.8447703489        0.5273366403
 H          3.1704955230        4.2460155536        0.0215378885
 H          4.3771856740        3.7494286138       -1.1736969731
 H          1.6535458077        2.5508722964        0.6034430384
 H          2.1714608009        0.1226744942        1.6598770462
  53
        -68.44116354
 C         -6.7686512774       -0.5728485875       -1.7953045650
 C         -6.4682020851       -1.2183200995       -0.4464444508
 C         -5.9225214429       -0.2278172528        0.5922134910
 C         -4.4017479371       -0.2569087975        0.7497519668
 C         -3.6376321109        0.1849055264       -0.5031954783
 C         -2.1652209211        0.2369210588       -0.2143192609
 C         -1.5878959887        1.3925267759        0.2820902148
 C         -0.2363807030        1.4438053843        0.6142971480
 O          0.2423994001        2.6414158693        1.0501405891
 C          0.5481878624        0.3028419233        0.4832803326
 C         -0.0206197023       -0.8349096419       -0.0988831262
 C         -1.3668141400       -0.8778016117       -0.4264224882
 O          0.7368866022       -1.9496188650       -0.3090978477
 C          2.0872817289       -1.7951443293       -0.7890326321
 C          2.8897073242       -2.8968930906       -0.0935413477
 C          2.0572387389       -2.0506081806       -2.3012663163
 C          2.6319153922       -0.3801213494       -0.5033942779
 C          4.1505391120       -0.2559970163       -0.4678611351
 C          4.5133216171        1.2191562316       -0.3020855800
 C          3.8707376315        1.7830172143        0.9350969353
 C          4.5821316800        2.9273075325        1.5881770332
 C          2.7474520165        1.2684839203        1.4229853605
 C          2.0122193851        0.1145148573        0.8155882905
 H         -5.8805414017       -0.1147610182       -2.2212165628
 H         -7.1399432331       -1.3175940191       -2.4966215090
 H         -7.5291768590        0.1974322076       -1.6840459257
 H         -7.3929004562       -1.6614831378       -0.0697233911
 H         -5.7531452536       -2.0321890809       -0.5816354265
 H         -6.3567078301       -0.4583492292        1.5678790671
 H         -6.2381625382        0.7836789134        0.3280629901
 H         -4.0836059032       -1.2663700466        1.0203664617
 H         -4.1230560920        0.4053038627        1.5732189952
 H         -3.8241964189       -0.5211474564       -1.3126129257
 H         -3.9914814488        1.1716325056       -0.8082459029
 H         -2.1715892858        2.2895564026        0.4170119590
 H          1.2040135034        2.5827865752        1.1524118673
 H         -1.7728445740       -1.7838137545       -0.8477988543
 H          2.3421272114       -3.8314117924       -0.1839027747
 H          3.8661432086       -3.0127385466       -0.5532385515
 H          3.0132670508       -2.6787674125        0.9642120229
 H          1.6977756572       -3.0573198212       -2.4971332897
 H          3.0507654008       -1.9394499559       -2.7270545743
 H          1.3833127647       -1.3451022546       -2.7831744822
 H          2.2692512866        0.2800368283       -1.3021182643
 H          4.5883957887       -0.6467273062       -1.3878821485
 H          4.5568931232       -0.8167191468        0.3747005252
 H          5.5972885069        1.3326915235       -0.2307128281
 H          4.1846884384        1.7835782226       -1.1807451267
 H          5.5686106048        2.6135350751        1.9291335493
 H          4.0246780413        3.3056114463        2.4415214854
 H          4.7231907039        3.7377667270        0.8733220487
 H          2.3653003283        1.6138134927        2.3772324453
 H          2.0558563660       -0.7093782028        1.5467477441
  53
        -68.44112159
 C         -5.9094491234       -2.1053969161       -1.0983580704
 C         -6.2344499092       -0.7373113013       -1.6849331301
 C         -5.7608191945        0.4340158222       -0.8222687135
 C         -4.2362978330        0.5237015372       -0.6692115008
 C         -3.7254151842       -0.0560253953        0.6564591268
 C         -2.2271344562        0.0224522227        0.7185161525
 C         -1.6036212428        1.1530783574        1.2162488146
 C         -0.2154270573        1.2559164860        1.2619375750
 O          0.2969309075        2.4259655526        1.7329987827
 C          0.5680636468        0.1906524758        0.8309284537
 C         -0.0662246980       -0.9098436690        0.2446621610
 C         -1.4484550251       -1.0040345036        0.2031677006
 O          0.6712050087       -1.9440295525       -0.2524323532
 C          1.8863300560       -1.6547206732       -0.9716794209
 C          2.8575343854       -2.7731912829       -0.5876977813
 C          1.5541253010       -1.7466981143       -2.4664777790
 C          2.4229697009       -0.2478648716       -0.6355620551
 C          3.9091873360       -0.0331561796       -0.8961281167
 C          4.2412272206        1.4350051587       -0.6325690380
 C          3.8517542920        1.8187016405        0.7683444011
 C          4.6396279152        2.9272679524        1.3947223551
 C          2.8769802458        1.1843204068        1.4100822609
 C          2.0755123755        0.0598925993        0.8316679422
 H         -6.3489538051       -2.8904236313       -1.7104768958
 H         -4.8357394968       -2.2679669395       -1.0626572488
 H         -6.3101061848       -2.1936374116       -0.0905894753
 H         -5.7834908346       -0.6547206975       -2.6768597725
 H         -7.3174100681       -0.6554143377       -1.8099284225
 H         -6.2216211333        0.3616402225        0.1651982364
 H         -6.1277109181        1.3535910959       -1.2840126815
 H         -3.9230603021        1.5686554739       -0.7185215120
 H         -3.7518026626        0.0035563752       -1.4977354299
 H         -4.1582831622        0.5131560434        1.4814348874
 H         -4.0424107852       -1.0940388173        0.7533163873
 H         -2.1805450753        1.9877294917        1.5823557953
 H          1.2598629298        2.4187887543        1.6267516040
 H         -1.8981873618       -1.8842701834       -0.2284521203
 H          3.7211415081       -2.7777744165       -1.2452490965
 H          3.1893674464       -2.6632590504        0.4416184867
 H          2.3397167396       -3.7247739826       -0.6757409854
 H          0.7694885113       -1.0353829702       -2.7164791018
 H          1.1997292649       -2.7463313689       -2.7035485682
 H          2.4333555698       -1.5302583930       -3.0671649334
 H          1.8753657274        0.4714077571       -1.2585195561
 H          4.1589858172       -0.2930705725       -1.9261015568
 H          4.5046752598       -0.6558328830       -0.2274582312
 H          5.3107299483        1.6080397424       -0.7711109168
 H          3.7136121900        2.0702072617       -1.3514242494
 H          5.6874052718        2.6412279166        1.4857620227
 H          4.2604165745        3.1736146687        2.3834699888
 H          4.5947777555        3.8186103651        0.7691340313
 H          2.6914195657        1.3981305103        2.4568453013
 H          2.3038452332       -0.8343662340        1.4345065876
  53
        -68.44106665
 C         -6.9741058332       -1.1775747659        0.1495125938
 C         -6.3168468610       -0.9903299347       -1.2140332590
 C         -5.6111279655        0.3647791601       -1.3664405487
 C         -4.0987243223        0.3139442535       -1.1460587163
 C         -3.6902758276       -0.0718707523        0.2799086221
 C         -2.2002338324        0.0269278713        0.4390036289
 C         -1.6139113149        1.2175804558        0.8307920603
 C         -0.2325710142        1.3376778097        0.9619892932
 O          0.2451960357        2.5628374446        1.3145288820
 C          0.5793019018        0.2330175077        0.7277584131
 C         -0.0116642220       -0.9390902898        0.2440620751
 C         -1.3873263960       -1.0506372085        0.1173448169
 O          0.7607627366       -2.0206227202       -0.0630764375
 C          2.0193749585       -1.8111567587       -0.7334943657
 C          2.9643066323       -2.8650903638       -0.1524011932
 C          1.7849260209       -2.0890845352       -2.2237516421
 C          2.5318878962       -0.3687304015       -0.5399002230
 C          4.0327512059       -0.1755440057       -0.7217050348
 C          4.3458966209        1.3168174107       -0.6219387642
 C          3.8588231039        1.8699923929        0.6888938684
 C          4.6006015829        3.0555952266        1.2238524644
 C          2.8414609508        1.3125556101        1.3360176866
 C          2.0829515962        0.1170846297        0.8495951899
 H         -7.4492462035       -2.1548149027        0.2091945941
 H         -6.2470860731       -1.1013813733        0.9529588174
 H         -7.7377436094       -0.4186766139        0.3078507694
 H         -5.5991191003       -1.7945580525       -1.3874407364
 H         -7.0918483978       -1.0800200580       -1.9787696696
 H         -6.0522458618        1.0823122688       -0.6714786380
 H         -5.7820864176        0.7447828044       -2.3764541890
 H         -3.6803170036        1.2986911966       -1.3690865137
 H         -3.6537070548       -0.3965209693       -1.8466087473
 H         -4.1821273196        0.5994507282        0.9862600612
 H         -4.0083353921       -1.0938775770        0.4868475892
 H         -2.2153243647        2.0873168076        1.0440274726
 H          1.2132823394        2.5503925786        1.2792440918
 H         -1.8060862112       -1.9822396671       -0.2291113199
 H          3.2273863637       -2.6265917870        0.8750186979
 H          2.4542364467       -3.8248655368       -0.1562705371
 H          3.8693095554       -2.9425731038       -0.7466596535
 H          1.0161198272       -1.4220876860       -2.6087665649
 H          1.4493758488       -3.1139297296       -2.3585042201
 H          2.7006747516       -1.9382824178       -2.7889182279
 H          2.0292140355        0.2624605967       -1.2843675071
 H          4.3537549027       -0.5600110621       -1.6912340553
 H          4.5801658536       -0.7044814099        0.0593249208
 H          5.4225741830        1.4802047797       -0.7059465191
 H          3.8704669591        1.8523826614       -1.4500329584
 H          5.6391423301        2.7924175551        1.4239893031
 H          4.1522290251        3.4215036542        2.1442615551
 H          4.6005800727        3.8603307054        0.4888909874
 H          2.5823862355        1.6549538036        2.3317731107
 H          2.2690088880       -0.6927179723        1.5741061680
  53
        -68.44098513
 C         -7.3521660506        1.7744405194        0.6229444301
 C         -6.4620768741        0.5643803662        0.8797020408
 C         -5.4483286051        0.3567479779       -0.2429908012
 C         -4.5627889082       -0.8645109572        0.0002812022
 C         -3.4952771111       -1.0614417321       -1.0918800095
 C         -2.1047390407       -0.6810857825       -0.6608820793
 C         -1.8496985714        0.5356320977       -0.0404414677
 C         -0.5610993880        0.8893605151        0.3274811330
 O         -0.3164443843        2.0734993153        0.9643137308
 C          0.5192729268        0.0440615836        0.0656777174
 C          0.2500313494       -1.2018171324       -0.4978789447
 C         -1.0485215027       -1.5486959931       -0.8668522031
 O          1.2040937949       -2.1444075431       -0.7199711778
 C          2.4590847611       -1.9815622023       -0.0494615315
 C          2.2812313995       -2.3580573925        1.4250144391
 C          3.4037056939       -2.9686879879       -0.7366603252
 C          2.9229558910       -0.5308387438       -0.2586607416
 C          4.3539614566       -0.2266152516        0.1984664104
 C          4.5236472393        1.2339803774        0.6665299379
 C          3.5838974672        2.1733674871       -0.0370306157
 C          4.1358310626        3.4643370027       -0.5506204399
 C          2.3130694757        1.8076271566       -0.1388785293
 C          1.9301243518        0.4522567870        0.3858596450
 H         -8.0665430137        1.9046406297        1.4325277634
 H         -6.7538631105        2.6800351833        0.5449431120
 H         -7.9050698757        1.6505851385       -0.3058086674
 H         -5.9314506889        0.6973934610        1.8256463864
 H         -7.0830565884       -0.3294013860        0.9737382013
 H         -4.8314242075        1.2529641229       -0.3368522651
 H         -5.9821628630        0.2290272575       -1.1881342433
 H         -5.2033931748       -1.7476361770        0.0443828209
 H         -4.0733637643       -0.7726425828        0.9721263284
 H         -3.4805611217       -2.1048812239       -1.4090659841
 H         -3.7660884458       -0.4632838317       -1.9666593561
 H         -2.6586346900        1.2230706641        0.1636405794
 H         -1.1493921698        2.5448879220        1.0839537063
 H         -1.2037232919       -2.5171213684       -1.3156261111
 H          1.4782863226       -1.7774450955        1.8721004265
 H          2.0192179568       -3.4111428559        1.4976216445
 H          3.1967013383       -2.1870084347        1.9835479889
 H          2.9561880820       -3.9590790389       -0.7278933512
 H          4.3591831736       -3.0048845311       -0.2230911102
 H          3.5635047145       -2.6743869462       -1.7705855701
 H          2.8629795617       -0.3578897018       -1.3410933419
 H          5.0377836748       -0.4184872992       -0.6294188906
 H          4.6418448319       -0.8863661398        1.0180947614
 H          4.3099371935        1.2832401459        1.7393036324
 H          5.5593042025        1.5459622270        0.5261844080
 H          3.3516596548        4.0686204508       -0.9991036961
 H          4.9051246016        3.2753586974       -1.2997265934
 H          4.5942469808        4.0302248945        0.2604713073
 H          1.5695432184        2.4145383350       -0.6266573039
 H          2.0704011876        0.4514510389        1.4759095262
  53
        -68.44081466
 C         -4.7891972313        0.4001406917        2.1889733142
 C         -5.6040044598        0.5292274552        0.9072764650
 C         -5.7467836870       -0.7888371632        0.1443913089
 C         -4.4275838657       -1.3998560660       -0.3303117449
 C         -3.6906058737       -0.5466625316       -1.3859342054
 C         -2.2849164846       -0.2447814454       -0.9506287998
 C         -1.9751894600        0.9513982272       -0.3183478022
 C         -0.6837802377        1.2109735234        0.1154686076
 O         -0.3841829309        2.3764885244        0.7624995644
 C          0.3398945889        0.2831875055       -0.0860078770
 C          0.0086837197       -0.9425304728       -0.6634403305
 C         -1.2889379141       -1.1919293801       -1.1038002566
 O          0.9005760470       -1.9550724848       -0.8307873121
 C          2.1206510246       -1.8866930711       -0.0841906259
 C          1.8233595094       -2.2388485940        1.3771014335
 C          3.0255315985       -2.9490197853       -0.7098503433
 C          2.7080204623       -0.4777957178       -0.2664970221
 C          4.1274620506       -0.2826763334        0.2777985097
 C          4.3808913862        1.1638963967        0.7516069654
 C          3.5620612245        2.1680882698       -0.0111367774
 C          4.2435597003        3.4082336671       -0.4931920828
 C          2.2752095702        1.9012912973       -0.1899007860
 C          1.7574307036        0.5834860676        0.3145468623
 H         -4.8191859430        1.3323042647        2.7496678894
 H         -5.1922927454       -0.3900370444        2.8188065932
 H         -3.7495615585        0.1708744725        1.9686519013
 H         -6.6062164226        0.8868535706        1.1573418119
 H         -5.1449471815        1.2814075334        0.2633317706
 H         -6.3938339519       -0.6247329227       -0.7213672848
 H         -6.2455035954       -1.5124824166        0.7943629105
 H         -4.6413318674       -2.3860287111       -0.7462306705
 H         -3.7731784651       -1.5534139342        0.5284011728
 H         -3.6638372047       -1.0816495198       -2.3361977574
 H         -4.2306374133        0.3862164227       -1.5494018722
 H         -2.7438345241        1.6968098743       -0.1603875523
 H         -1.1845676191        2.9095212761        0.8375493250
 H         -1.4978589180       -2.1454376517       -1.5620650779
 H          1.4733068332       -3.2669837581        1.4345658918
 H          2.7139005726       -2.1387843701        1.9904745528
 H          1.0443002156       -1.5928676096        1.7740260509
 H          2.5022699552       -3.9014855730       -0.7269090008
 H          3.9417477302       -3.0560673789       -0.1379339336
 H          3.2713069051       -2.6750263568       -1.7324231833
 H          2.7282796546       -0.3076331063       -1.3508193271
 H          4.8440807423       -0.5332710488       -0.5054449856
 H          4.3116925951       -0.9566485172        1.1155326268
 H          4.1061550655        1.2374736137        1.8090249063
 H          5.4443220549        1.3937018163        0.6748104089
 H          5.0408396779        3.1540675496       -1.1920935115
 H          4.6935171512        3.9431746997        0.3432887234
 H          3.5383054332        4.0680196876       -0.9917191129
 H          1.6121446658        2.5599728531       -0.7243501500
 H          1.8327300684        0.5800180046        1.4110730518
