53
DTHC
C  -5.07165146 -1.66471909  2.28885553
C  -4.16426243 -0.79516176  3.15024878
C  -2.81829890 -1.47056557  3.40246959
C  -1.87852402 -0.64452075  4.27991155
C  -1.32674342  0.60651834  3.58065943
C  -0.50971511  0.24667723  2.37327336
C   0.78587415 -0.23060181  2.52623264
C   1.54509780 -0.58743285  1.42316024
O   2.81193403 -1.07701923  1.57178902
C   1.03029020 -0.46747707  0.12999570
C  -0.29214544 -0.05074162 -0.01242041
C  -1.04399451  0.32018547  1.10097375
O  -0.92979682  0.01799121 -1.21151489
C  -0.33728606 -0.68272558 -2.31103263
C  -0.59003667 -2.18319402 -2.13105455
C  -1.07266419 -0.16806062 -3.54916679
C   1.15446171 -0.31444396 -2.35652991
C   1.91193423 -0.79323633 -3.59961705
C   3.40242164 -1.06891989 -3.30932442
C   3.93878200 -0.21109201 -2.19691612
C   5.26827614  0.44324872 -2.39501888
C   3.20784497 -0.10619398 -1.09512308
C   1.86742852 -0.78618364 -1.07726432
H  -6.02743911 -1.17383819  2.11924534
H  -4.60717202 -1.85564415  1.32377506
H  -5.25840230 -2.62111921  2.77310867
H  -4.01012378  0.16084478  2.64820488
H  -4.65293644 -0.59358691  4.10689811
H  -2.32938422 -1.67181884  2.44699084
H  -2.99792664 -2.43128486  3.89218016
H  -1.03662485 -1.27353353  4.57848580
H  -2.40532137 -0.33969146  5.18747879
H  -2.15061887  1.25735720  3.28845612
H  -0.70294504  1.15234107  4.29282110
H   1.21261029 -0.32314712  3.51702682
H   3.02919672 -1.10908472  2.51091242
H  -2.05461819  0.65966782  0.93909132
H  -0.10601189 -2.75630240 -2.91623599
H  -0.21913933 -2.51940335 -1.16604610
H  -1.66018818 -2.37419353 -2.16872055
H  -0.85717452  0.88643465 -3.69995117
H  -2.14381281 -0.28120563 -3.40376112
H  -0.77221203 -0.72444594 -4.43131667
H   1.18547204  0.78278224 -2.33574945
H   1.83352794 -0.03181669 -4.37670682
H   1.46299332 -1.70661260 -3.99228675
H   3.51116345 -2.11647598 -3.00964217
H   3.98533671 -0.92907326 -4.22050919
H   5.22856494  1.13190966 -3.23935235
H   6.03057221 -0.30488601 -2.61262894
H   5.56355608  0.99560830 -1.50681396
H   3.51114814  0.48597244 -0.24865084
H   2.03045941 -1.87189499 -1.12887290