  43

 C          0.9956933100       -3.2425883600       -1.2439933600
 C          1.3826883300       -1.8112506000       -1.6204788600
 C          2.7003195500       -1.3993093700       -0.9283710900
 S          2.5901463000       -0.9630271900        0.8374929100
 O          1.6964387800       -1.9018301900        1.4894565300
 O          3.9274915000       -0.8858715000        1.3445500200
 C          1.8268189900        0.6674720300        0.9981391600
 C          1.1998624200        0.9194953400        2.2068421000
 C          0.5918206000        2.1411718700        2.4304936000
 C          0.6218473600        3.0865231600        1.4177600800
 C          1.2566492500        2.8506546800        0.2090050600
 C          1.8756676300        1.6286720000        0.0055838600
 F          0.0207472500        4.2659319400        1.6150217600
 C          0.2876173700       -0.7807437200       -1.2669361600
 O          0.0402515900        0.1054801300       -2.0607948500
 N         -0.3233387700       -0.9709887500       -0.0762182500
 C         -1.2464019800       -0.1413145800        0.5504073600
 C         -1.7592288700        1.0111741100       -0.0432474000
 C         -2.6482363800        1.8043784200        0.6585478500
 C         -3.0575977500        1.4553957600        1.9503872000
 C         -2.5467745600        0.2927104200        2.5314287500
 C         -1.6499291200       -0.4911889100        1.8411985800
 C         -3.9806207000        2.2444305600        2.6780724300
 N         -4.7286034100        2.8518015800        3.2965216300
 C         -3.2006405100        3.0575931000        0.0297582800
 F         -3.0477346700        4.1328539000        0.8138997800
 F         -4.5155523200        2.9506277600       -0.2269922400
 F         -2.6090680300        3.3513389700       -1.1354118900
 O          1.5845212600       -1.7411443500       -3.0087870000
 H          1.1139968200       -3.4168955900       -0.1791086400
 H          1.6510665400       -3.9191344200       -1.7871597000
 H         -0.0285450900       -3.4483968000       -1.5453325900
 H          3.4102567300       -2.2246056700       -0.9626568900
 H          3.1477309600       -0.5467071500       -1.4335338700
 H          1.1982073600        0.1482476000        2.9604061500
 H          0.1006724700        2.3675003200        3.3631904100
 H          1.2606281300        3.6145323800       -0.5516314200
 H          2.3816425100        1.4434776800       -0.9274893700
 H          0.0819089900       -1.6835505000        0.5318200000
 H         -1.4583166600        1.2853279800       -1.0410931800
 H         -2.8630515900        0.0197273900        3.5264140300
 H         -1.2461212700       -1.3831307000        2.2959298200
 H          1.1527356900       -0.9287986900       -3.3282375500
