  43
        -89.95177116
 C         -3.1436717843       -2.6217799399       -2.2213464224
 C         -2.8373698537       -1.8044874990       -0.9559417899
 C         -4.0406314752       -0.9423666227       -0.5813764986
 S         -3.7689727514       -0.0533029881        0.9943862626
 O         -4.9722288008        0.6552911590        1.3115241648
 O         -3.2896273788       -1.0330403036        1.9494666582
 C         -2.4420561349        1.1232071792        0.7213566691
 C         -2.6640181674        2.2165833424       -0.0947520274
 C         -1.6258516920        3.0947448702       -0.3460770641
 C         -0.3938823719        2.8504005017        0.2401270628
 C         -0.1724284578        1.7755585068        1.0854402788
 C         -1.2175859129        0.9000876686        1.3219138028
 F          0.6259916685        3.6826279699       -0.0231757291
 C         -1.6667401474       -0.8580204527       -1.3117995385
 O         -1.8290441443        0.1289982242       -1.9975193168
 N         -0.4929884870       -1.2893301332       -0.7924147416
 C          0.7519031177       -0.6829731342       -0.8316252346
 C          1.7689238870       -1.2294831927       -0.0462376919
 C          3.0197222995       -0.6445335045       -0.0274021339
 C          3.2805220476        0.4998990775       -0.7923277256
 C          2.2607275254        1.0327329509       -1.5818749475
 C          1.0117654050        0.4491676618       -1.6054232183
 C          4.5530299210        1.1196998817       -0.7789794191
 N          5.5732383713        1.6394011006       -0.7856471472
 C          4.1177508158       -1.2209987127        0.8274299514
 F          5.1950534734       -1.5695222733        0.1097783233
 F          3.7288999668       -2.3233468449        1.4857148298
 F          4.5358315748       -0.3528512121        1.7626070078
 O         -2.4663300314       -2.7014788572        0.0628339461
 H         -3.3346232593       -1.9574691927       -3.0585632277
 H         -4.0103683105       -3.2529007599       -2.0466917640
 H         -2.2935500014       -3.2587538258       -2.4510459073
 H         -4.2292828751       -0.1930934982       -1.3445121751
 H         -4.9300736371       -1.5471650699       -0.4158384136
 H         -3.6406134587        2.3716776391       -0.5232823120
 H         -1.7537595464        3.9513829026       -0.9877791987
 H          0.7966683910        1.6370012195        1.5378839521
 H         -1.1012917177        0.0487991862        1.9743149104
 H         -0.5905184868       -2.1361966788       -0.2314135783
 H          1.5769796112       -2.1092992240        0.5494083974
 H          2.4603595801        1.9133515923       -2.1723300420
 H          0.2264804545        0.8645239775       -2.2147230232
 H         -2.7220516587       -2.3222637636        0.9295924204
  43
        -89.95176567
 C         -3.2201090612       -1.8700841492       -2.8296970425
 C         -2.8620372473       -1.6967141464       -1.3500860860
 C         -3.7954963499       -0.6984634842       -0.6645386817
 S         -3.1465458911       -0.3515253727        1.0196830019
 O         -4.2750101957       -0.1630895277        1.8857737194
 O         -2.2407596009       -1.4374653944        1.3473927728
 C         -2.2072851219        1.1739362875        0.9698243705
 C         -0.8701438179        1.1575205392        1.3165605394
 C         -0.1432938526        2.3340730655        1.2848305847
 C         -0.7905173102        3.4984096372        0.9042376534
 C         -2.1354693026        3.5246782904        0.5691735521
 C         -2.8506599175        2.3413563463        0.6062316111
 F         -0.0974219225        4.6455847211        0.8701676410
 C         -1.4470706748       -1.0911846133       -1.2520067313
 O         -1.2659972019        0.1025315525       -1.3714161403
 N         -0.4930288838       -2.0295352662       -1.0423994899
 C          0.8425814044       -1.8470729295       -0.7281436121
 C          1.4394511205       -0.5853641997       -0.7392334798
 C          2.7685539061       -0.4533109429       -0.3863735483
 C          3.5325774337       -1.5706934531       -0.0271829195
 C          2.9304722081       -2.8304621911       -0.0345368926
 C          1.6033922834       -2.9651321678       -0.3779299911
 C          4.8916858580       -1.4515629258        0.3481696375
 N          5.9914887244       -1.3891731134        0.6612161190
 C          3.4082008252        0.9094872016       -0.3587767357
 F          4.5148348640        0.9762902053       -1.1120068791
 F          3.7662613992        1.2653745563        0.8890762318
 F          2.5904535877        1.8752075828       -0.7982536932
 O         -2.9127665456       -2.9615920104       -0.7395644854
 H         -4.2515426800       -2.1995123264       -2.9172153608
 H         -2.5768643069       -2.6271434889       -3.2703373325
 H         -3.0881648758       -0.9312323385       -3.3588420587
 H         -3.8288757537        0.2431595018       -1.2026357234
 H         -4.7935642832       -1.1082407887       -0.5317422828
 H         -0.4175773306        0.2226118622        1.6071928421
 H          0.9027829385        2.3626948522        1.5445914854
 H         -2.5988738291        4.4566015685        0.2872127184
 H         -3.9026685739        2.3215605503        0.3691557633
 H         -0.8620155605       -2.9731041400       -0.9429041206
 H          0.8574881713        0.2792940520       -1.0140264412
 H          3.5165981062       -3.6943575742        0.2389000874
 H          1.1426286680       -3.9416751384       -0.3699268185
 H         -2.7760468331       -2.8232799258        0.2160052636
  43
        -89.95176500
 C         -3.2257991351       -1.9901038415       -2.7606808972
 C         -2.8555066067       -1.7718249202       -1.2900457219
 C         -3.7943712082       -0.7658029095       -0.6231657349
 S         -3.1357381638       -0.3648343248        1.0451566297
 O         -4.2592296060       -0.1509802714        1.9117283571
 O         -2.2260155577       -1.4386383224        1.4010616514
 C         -2.1977577240        1.1591856069        0.9445724664
 C         -0.8616165937        1.1544516793        1.2956017608
 C         -0.1349073320        2.3296585754        1.2290047325
 C         -0.7810763238        3.4809474823        0.8089789235
 C         -2.1249020288        3.4957653084        0.4686903115
 C         -2.8402247855        2.3142227580        0.5419889973
 F         -0.0883246237        4.6266653631        0.7407397280
 C         -1.4476756450       -1.1459136887       -1.2224511817
 O         -1.2830473885        0.0453767792       -1.3831553320
 N         -0.4800258924       -2.0635898970       -0.9856913284
 C          0.8530220795       -1.8507069611       -0.6794925716
 C          1.4320238832       -0.5821529463       -0.7403162233
 C          2.7581540997       -0.4168046841       -0.3903661422
 C          3.5368886590       -1.5076405692        0.0156730478
 C          2.9531882293       -2.7754736539        0.0560113147
 C          1.6291435485       -2.9430470552       -0.2847000862
 C          4.8919796108       -1.3538206445        0.3929782133
 N          5.9885101552       -1.2630972048        0.7104355189
 C          3.3758515804        0.9561734037       -0.4137676997
 F          3.7012194153        1.3745653657        0.8239605738
 F          2.5523698035        1.8866595014       -0.9140035896
 F          4.4970054907        1.0073975891       -1.1459906120
 O         -2.8849595395       -3.0197592954       -0.6445084757
 H         -4.2543755259       -2.3327582820       -2.8289030289
 H         -2.5785321143       -2.7523491898       -3.1862213122
 H         -3.1090111924       -1.0650282050       -3.3169471502
 H         -3.8438156270        0.1600809529       -1.1867126926
 H         -4.7863952201       -1.1831007214       -0.4698329007
 H         -0.4095902591        0.2294086421        1.6171095496
 H          0.9100468683        2.3669808561        1.4923911067
 H         -2.5875178680        4.4179609684        0.1552450840
 H         -3.8915161176        2.2870383599        0.3026748997
 H         -0.8355598829       -3.0081937187       -0.8524396873
 H          0.8385076336        0.2625051849       -1.0502038697
 H          3.5509600883       -3.6192367284        0.3647904838
 H          1.1825634670       -3.9250778568       -0.2390726319
 H         -2.7454559503       -2.8530705392        0.3062740988
  43
        -89.95176384
 C         -3.1817374294       -2.0406270775       -2.7308909698
 C         -2.8408186598       -1.7771054174       -1.2605746431
 C         -3.7846766147       -0.7430076729       -0.6465695169
 S         -3.1525980148       -0.2929181921        1.0196340964
 O         -4.2896899035       -0.0738957858        1.8671564323
 O         -2.2331506951       -1.3448770852        1.4131799164
 C         -2.2377783546        1.2422005493        0.8874350028
 C         -0.9012843833        1.2678673424        1.2358974800
 C         -0.1940964620        2.4526408353        1.1371125097
 C         -0.8599482226        3.5823156185        0.6900771366
 C         -2.2045396686        3.5671391819        0.3530505769
 C         -2.8997813445        2.3759092365        0.4567521218
 F         -0.1857615536        4.7370968408        0.5906000399
 C         -1.4279808048       -1.1635141187       -1.1834355046
 O         -1.2479425004        0.0228445352       -1.3623125944
 N         -0.4739526972       -2.0891174173       -0.9229339151
 C          0.8618750985       -1.8922426340       -0.6188330164
 C          1.4566144971       -0.6308201120       -0.6779565536
 C          2.7873301555       -0.4846767300       -0.3368202277
 C          3.5552489531       -1.5877583389        0.0567931601
 C          2.9545618642       -2.8474259161        0.0997815785
 C          1.6256923315       -2.9956793772       -0.2306991993
 C          4.9175375473       -1.4537025401        0.4151100386
 N          6.0205156062       -1.3786176465        0.7137521596
 C          3.4279001809        0.8776891030       -0.3639306871
 F          2.5969001456        1.8331604475       -0.8014362136
 F          4.5094349210        0.9227837613       -1.1549058031
 F          3.8272100704        1.2656422167        0.8611405719
 O         -2.8949338250       -3.0033001657       -0.5756397404
 H         -4.2107808256       -2.3796794677       -2.8094232339
 H         -2.5306529482       -2.8196018148       -3.1186806669
 H         -3.0480744187       -1.1345680938       -3.3140283443
 H         -3.8154747034        0.1642831751       -1.2408600450
 H         -4.7825920948       -1.1480822606       -0.4992570104
 H         -0.4339775369        0.3588270019        1.5801108347
 H          0.8512468303        2.5134133609        1.3938995619
 H         -2.6829762812        4.4736099251        0.0181779287
 H         -3.9508264329        2.3246834741        0.2201371952
 H         -0.8424196858       -3.0270842383       -0.7789403747
 H          0.8719594777        0.2224400449       -0.9813552759
 H          3.5432671648       -3.7001766649        0.4011540171
 H          1.1660058387       -3.9716167878       -0.1838926193
 H         -2.7630367049       -2.8079643597        0.3704257246
  43
        -89.95175853
 C         -3.1737146439       -1.9149473248       -2.8044693274
 C         -2.8241687345       -1.7316130993       -1.3240452181
 C         -3.7756139376       -0.7469367610       -0.6445957907
 S         -3.1322796407       -0.3847450170        1.0387316836
 O         -4.2626026821       -0.2520547133        1.9129280322
 O         -2.1786426469       -1.4325585685        1.3537436250
 C         -2.2651289486        1.1822032375        0.9876677646
 C         -0.9223449141        1.2280676133        1.3086201241
 C         -0.2530725105        2.4379753407        1.2662914193
 C         -0.9624893513        3.5713436745        0.9035758849
 C         -2.3136795594        3.5352170864        0.5958063708
 C         -2.9703695226        2.3187108783        0.6409875130
 F         -0.3250205351        4.7503812856        0.8593267122
 C         -1.4174324374       -1.1075035362       -1.2224209647
 O         -1.2519072739        0.0900113825       -1.3236218014
 N         -0.4507389672       -2.0386818800       -1.0395833184
 C          0.8889004304       -1.8511906706       -0.7470041272
 C          1.4700965349       -0.5824601103       -0.7149075627
 C          2.8065835776       -0.4500281027       -0.3909786123
 C          3.5938354720       -1.5731957281       -0.1072561140
 C          3.0059750634       -2.8386825620       -0.1538947295
 C          1.6714109078       -2.9739781715       -0.4662568868
 C          4.9640049339       -1.4535978410        0.2246682253
 N          6.0741512133       -1.3889907885        0.4982373702
 C          3.4357474958        0.9161355461       -0.3221262195
 F          3.8918797658        1.1956831623        0.9120963881
 F          2.5781418755        1.8985285278       -0.6301000106
 F          4.4772186963        1.0447453641       -1.1569958722
 O         -2.8579163633       -2.9957074093       -0.7100119578
 H         -4.1986109747       -2.2635680017       -2.8945584442
 H         -2.5153167545       -2.6608359197       -3.2418036294
 H         -3.0576613014       -0.9749882145       -3.3354029435
 H         -3.8232195524        0.1923603698       -1.1856840797
 H         -4.7667463265       -1.1732200436       -0.5123732196
 H         -0.4206522277        0.3149386522        1.5871968489
 H          0.7961822241        2.5153978262        1.5013771795
 H         -2.8266126462        4.4450288341        0.3276830627
 H         -4.0246866837        2.2488222954        0.4244313161
 H         -0.8080619283       -2.9881249481       -0.9556089678
 H          0.8708519688        0.2859726297       -0.9357551733
 H          3.6093106433       -3.7066771766        0.0633535292
 H          1.2220638280       -3.9555665634       -0.4900799570
 H         -2.7136721969       -2.8538190087        0.2434920789
  43
        -89.95130760
 C         -2.9498284995       -2.9948370325       -1.8812817468
 C         -2.8273255168       -1.9703200558       -0.7412496886
 C         -3.8742801006       -0.8720923047       -0.9067603680
 S         -3.8815669645        0.2712340494        0.5209028244
 O         -4.9027482271        1.2497951659        0.2984149710
 O         -3.9857174590       -0.5548434850        1.7087498182
 C         -2.2799682351        1.0782546491        0.5714666505
 C         -1.3953794306        0.7304511366        1.5747953754
 C         -0.1419457497        1.3147034189        1.6108641100
 C          0.1861428620        2.2305320593        0.6240782112
 C         -0.7011926619        2.5973829700       -0.3756546000
 C         -1.9545116194        2.0127074283       -0.3942335808
 F          1.4111971950        2.7748848624        0.6406498166
 C         -1.4304337885       -1.3205348227       -0.8811851653
 O         -1.1984926039       -0.4820817461       -1.7247611151
 N         -0.5457951125       -1.8270221243        0.0115344683
 C          0.7741952926       -1.4700627056        0.2316170672
 C          1.4297030282       -0.5296530325       -0.5645599904
 C          2.7405595772       -0.1901422968       -0.2889934422
 C          3.4295085385       -0.7932415903        0.7701330544
 C          2.7666167361       -1.7361104742        1.5585016161
 C          1.4555880964       -2.0666319473        1.2945687838
 C          4.7823729416       -0.4879951865        1.0533602383
 N          5.8791575320       -0.2812177466        1.3090911502
 C          3.4535845281        0.8175627190       -1.1535805179
 F          2.6229646590        1.4610257951       -1.9838071584
 F          4.3839276080        0.2302066322       -1.9297695988
 F          4.0871806036        1.7564961851       -0.4421303155
 O         -2.9370942536       -2.6601377609        0.4817964959
 H         -3.9426898262       -3.4355690455       -1.8699075426
 H         -2.2192164908       -3.7859424549       -1.7339702838
 H         -2.7723926632       -2.5128481049       -2.8377821046
 H         -3.6704811384       -0.2791850543       -1.7936026703
 H         -4.8822347386       -1.2803305206       -0.9466490865
 H         -1.7043623045        0.0154000480        2.3211683919
 H          0.5748069265        1.0723026545        2.3793943112
 H         -0.3997860687        3.3158689848       -1.1203282871
 H         -2.6790473408        2.2737239059       -1.1480034401
 H         -0.9595676586       -2.5172932043        0.6380148655
 H          0.9075347739       -0.0706534889       -1.3882700593
 H          3.2954877522       -2.2018942028        2.3758794000
 H          0.9490728695       -2.7950969852        1.9100686900
 H         -3.3736803176       -2.0780435400        1.1384297223
  43
        -89.95124633
 C         -3.1083361845       -2.5618327983       -2.3852115209
 C         -2.8706969007       -1.9207897539       -1.0105050717
 C         -3.9006021644       -0.8229995676       -0.7472379062
 S         -3.6257277816       -0.0406764543        0.8855471461
 O         -4.7724001579        0.7665063954        1.1789519346
 O         -3.3026859958       -1.1082472397        1.8143696145
 C         -2.1822717162        1.0171003330        0.7626162050
 C         -2.2149671018        2.1180843315       -0.0728491388
 C         -1.0982380688        2.9272408979       -0.1705368686
 C          0.0198697935        2.6119086548        0.5865358631
 C          0.0534661214        1.5197878704        1.4389719894
 C         -1.0679713084        0.7133031571        1.5207663152
 F          1.1021227017        3.3949675068        0.5006733369
 C         -1.4820843359       -1.2432156856       -1.0532472600
 O         -1.2910070780       -0.2259541086       -1.6848417539
 N         -0.5609551069       -1.9241540815       -0.3306876115
 C          0.7610063041       -1.6029625002       -0.0745454695
 C          1.3776423455       -0.4917963719       -0.6518939694
 C          2.6932856928       -0.2027600697       -0.3449499832
 C          3.4221361909       -1.0166683433        0.5310989952
 C          2.7983229338       -2.1297430066        1.0980209441
 C          1.4843317295       -2.4165063003        0.8004639377
 C          4.7733380678       -0.7415938960        0.8505311659
 N          5.8673071249       -0.5516943834        1.1303121268
 C          3.3671778336        1.0007804680       -0.9521255262
 F          3.8471870170        1.8328946182       -0.0163517437
 F          2.5422916832        1.7215330604       -1.7201631453
 F          4.4066090105        0.6549020024       -1.7308302432
 O         -2.9118068079       -2.9397726919       -0.0426487711
 H         -4.1176024931       -2.9605505475       -2.4325719051
 H         -2.4064626003       -3.3798409271       -2.5244078135
 H         -2.9655013193       -1.8252940688       -3.1698860625
 H         -3.8309272231       -0.0390374611       -1.4950056840
 H         -4.9113375272       -1.2242794801       -0.7096153414
 H         -3.1097252657        2.3387972033       -0.6318399737
 H         -1.0785673732        3.7887529819       -0.8180002887
 H          0.9388013312        1.3199946783        2.0217371065
 H         -1.0973365613       -0.1448574441        2.1738394362
 H         -0.9391024086       -2.7585571806        0.1184907521
 H          0.8238206392        0.1335564401       -1.3329507018
 H          3.3583945829       -2.7597542699        1.7718368694
 H          1.0067906820       -3.2767925437        1.2453052418
 H         -3.1104564564       -2.5289799219        0.8247564332
  43
        -89.95124290
 C         -3.0772157999       -2.6446015794       -2.3167322107
 C         -2.8711758009       -1.9229973394       -0.9769974424
 C         -3.8963075765       -0.8021835437       -0.8116082331
 S         -3.6742598599        0.0660136130        0.7850615927
 O         -4.8080920068        0.9203201891        0.9768396486
 O         -3.4265719691       -0.9543701497        1.7870669809
 C         -2.1944816255        1.0733116970        0.6702483102
 C         -1.1197405624        0.7718374154        1.4844199482
 C          0.0300554324        1.5378243530        1.4078829349
 C          0.0641152472        2.5878908828        0.5041469060
 C         -1.0140333060        2.9012626211       -0.3095033647
 C         -2.1597658468        2.1330101329       -0.2169577248
 F          1.1750377544        3.3304435249        0.4227263428
 C         -1.4735676657       -1.2639862334       -1.0228444065
 O         -1.2539760794       -0.2861701638       -1.7052610594
 N         -0.5788504111       -1.9151187949       -0.2418416102
 C          0.7424879200       -1.5994765024        0.0243423497
 C          1.3877549400       -0.5299508409       -0.5985853421
 C          2.7016876183       -0.2443996987       -0.2811187505
 C          3.4005214338       -1.0213244264        0.6511351392
 C          2.7480194401       -2.0926934616        1.2642461428
 C          1.4355668937       -2.3753409245        0.9561569529
 C          4.7502178480       -0.7514253653        0.9812727259
 N          5.8421622014       -0.5654164381        1.2713713632
 C          3.4072531971        0.9125210042       -0.9407445049
 F          2.6048377429        1.6120976930       -1.7511143914
 F          4.4439864958        0.5039364820       -1.6927801115
 F          3.9001182186        1.7793224593       -0.0446023655
 O         -2.9490932642       -2.8810657711        0.0493670183
 H         -4.0881592044       -3.0386663922       -2.3674475915
 H         -2.3788035783       -3.4743082894       -2.3872033684
 H         -2.9073522419       -1.9579629549       -3.1403104911
 H         -3.7895054455       -0.0610007650       -1.5977105174
 H         -4.9126662698       -1.1902721238       -0.7902957993
 H         -1.2019180097       -0.0519221003        2.1761315395
 H          0.8860639870        1.3387802619        2.0331505455
 H         -0.9415259064        3.7289723063       -0.9960862161
 H         -3.0252770426        2.3535482224       -0.8202430029
 H         -0.9795008285       -2.7179742494        0.2439808393
 H          0.8572010668        0.0661183408       -1.3230628312
 H          3.2848585701       -2.6939424553        1.9818257034
 H          0.9359931005       -3.2035857088        1.4362139681
 H         -3.1837621550       -2.4201613423        0.8820386319
  43
        -89.95114340
 C         -2.9609560628       -2.4770743539       -2.2135472539
 C         -2.6515057931       -1.8189426816       -0.8642202360
 C         -3.8144426440       -0.9439084883       -0.3961666603
 S         -3.2882499859       -0.0076089551        1.0929587145
 O         -4.4352233936        0.1384901950        1.9420340860
 O         -2.1415091642       -0.7047715491        1.6431428013
 C         -2.7563092805        1.6230324785        0.5714882348
 C         -3.6745784562        2.4683458777       -0.0211725175
 C         -3.2703788483        3.7252784644       -0.4340209417
 C         -1.9496950102        4.0947015471       -0.2343637070
 C         -1.0284817897        3.2584018500        0.3745663136
 C         -1.4459845146        2.0047523584        0.7831179752
 F         -1.5502059113        5.3103984625       -0.6411955384
 C         -1.4434006815       -0.8777476442       -1.0486688798
 O         -1.5796825699        0.2421075286       -1.4975572921
 N         -0.2773400151       -1.4571446278       -0.6804672148
 C          0.9881447778       -0.8993929753       -0.6113183864
 C          2.0187511982       -1.6839601262       -0.0876602611
 C          3.2995654330       -1.1768294761        0.0035538611
 C          3.5789291407        0.1277890556       -0.4239574759
 C          2.5427274782        0.9041318411       -0.9446989285
 C          1.2632191216        0.3997094398       -1.0415843297
 C          4.8834222121        0.6695631162       -0.3388116999
 N          5.9272470271        1.1371298877       -0.2827246453
 C          4.4162196763       -2.0187872191        0.5625601935
 F          4.9723734529       -1.4678513311        1.6521196568
 F          5.4049836628       -2.2038031998       -0.3262288372
 F          4.0040184617       -3.2421749729        0.9262892376
 O         -2.3616677605       -2.8385606985        0.0576072831
 H         -2.1422418037       -3.1363072948       -2.4895313288
 H         -3.0885303526       -1.7185435668       -2.9798818604
 H         -3.8673775394       -3.0696310334       -2.1283804232
 H         -4.0932574474       -0.2198577093       -1.1548218031
 H         -4.6702643100       -1.5434070189       -0.0961615588
 H         -4.6964413065        2.1460070385       -0.1437696323
 H         -3.9543427135        4.4135573529       -0.9042289087
 H         -0.0126882530        3.5904153793        0.5185054088
 H         -0.7708259177        1.3141963636        1.2629051651
 H         -0.3883881133       -2.3948814293       -0.2991142471
 H          1.8138015153       -2.6891716424        0.2488632152
 H          2.7567602526        1.9085334886       -1.2764740379
 H          0.4674690351        1.0024443634       -1.4468929573
 H         -2.2654843749       -2.4181496761        0.9324019086
  43
        -89.95113185
 C         -2.9514710331       -2.3964276991       -2.3947016615
 C         -2.6494397545       -1.8065786841       -1.0122670773
 C         -3.8223151866       -0.9678886874       -0.5033733681
 S         -3.3245767798       -0.1150564008        1.0438560931
 O         -4.4961386608        0.0236536898        1.8595564576
 O         -2.2143659424       -0.8657610586        1.5987809323
 C         -2.7306391843        1.5218176251        0.6165381438
 C         -3.6036084864        2.4223568921        0.0369415068
 C         -3.1480324324        3.6828905531       -0.3051390331
 C         -1.8234697160        4.0003184626       -0.0494725083
 C         -0.9480380401        3.1085019178        0.5480252527
 C         -1.4166232446        1.8516548510        0.8849379953
 F         -1.3737718341        5.2191092204       -0.3886941050
 C         -1.4505110354       -0.8453929548       -1.1491837207
 O         -1.5937850954        0.2847296608       -1.5693893398
 N         -0.2840436184       -1.4169061979       -0.7706307378
 C          0.9715483075       -0.8429266397       -0.6623187528
 C          2.0004880798       -1.6211083600       -0.1261170993
 C          3.2706526298       -1.0964132456        0.0061576965
 C          3.5406906368        0.2193465447       -0.3922163478
 C          2.5063677168        0.9888209225       -0.9266664594
 C          1.2375995449        0.4671047663       -1.0642666390
 C          4.8338835655        0.7794797970       -0.2636342346
 N          5.8683139734        1.2620907644       -0.1718635338
 C          4.3855717099       -1.9305097430        0.5803159174
 F          3.9837323099       -3.1663491054        0.9117794101
 F          4.9030305088       -1.3898149292        1.6939010076
 F          5.4006815621       -2.0839690298       -0.2843021379
 O         -2.3515279392       -2.8699126348       -0.1443438574
 H         -2.1278070937       -3.0358275860       -2.7009411721
 H         -3.0810330817       -1.6001699545       -3.1213824082
 H         -3.8545405457       -2.9978606357       -2.3430577800
 H         -4.0999902382       -0.2029587381       -1.2213115930
 H         -4.6768197459       -1.5898274549       -0.2481072321
 H         -4.6303279739        2.1387376440       -0.1316843624
 H         -3.7952317781        4.4132153890       -0.7637694514
 H          0.0724959133        3.4004978377        0.7378982365
 H         -0.7780339046        1.1189055588        1.3522015978
 H         -0.3887674999       -2.3677641333       -0.4206192270
 H          1.8024380979       -2.6348062510        0.1883917090
 H          2.7131370017        2.0017267401       -1.2365026627
 H          0.4432216158        1.0650269597       -1.4791142176
 H         -2.2830675156       -2.4986909099        0.7556931548
  43
        -89.95111816
 C         -2.9919134622       -2.4440153438       -2.3482493485
 C         -2.6610331576       -1.8453927915       -0.9760931247
 C         -3.8294157058       -1.0156566392       -0.4423653930
 S         -3.3105893490       -0.1571237679        1.0944814062
 O         -4.4734669550       -0.0028642444        1.9195278419
 O         -2.2009536977       -0.9125833814        1.6441725528
 C         -2.7057123616        1.4713217726        0.6501075242
 C         -1.3857279716        1.7896429007        0.9027183555
 C         -0.9075681721        3.0390020206        0.5516941472
 C         -1.7798042697        3.9352832456       -0.0437347536
 C         -3.1101489984        3.6297169350       -0.2834285030
 C         -3.5752772114        2.3766970446        0.0728861737
 F         -1.3209068775        5.1465561454       -0.3970004306
 C         -1.4755851949       -0.8728630770       -1.1479247214
 O         -1.6383728741        0.2477166269       -1.5862183903
 N         -0.2972314001       -1.4225956353       -0.7740846194
 C          0.9514396134       -0.8297412059       -0.6891444109
 C          1.9939890253       -1.5803346555       -0.1401172053
 C          3.2571618637       -1.0346550738       -0.0271698512
 C          3.5064507331        0.2748482422       -0.4584013087
 C          2.4589997000        1.0160802774       -1.0069977163
 C          1.1971356916        0.4733046116       -1.1252682109
 C          4.7918697349        0.8565153000       -0.3488529051
 N          5.8193180439        1.3563043371       -0.2724293724
 C          4.3864107647       -1.8384258556        0.5620861284
 F          4.0045856340       -3.0724957824        0.9223786362
 F          4.8980971332       -1.2647687408        1.6618335365
 F          5.4015784217       -1.9954833167       -0.3016983052
 O         -2.3317782153       -2.9020479387       -0.1114740457
 H         -2.1705849663       -3.0780598705       -2.6714008059
 H         -3.1453917964       -1.6520829344       -3.0749786169
 H         -3.8884810673       -3.0525306324       -2.2721498710
 H         -4.1282661566       -0.2535363648       -1.1548157222
 H         -4.6736576333       -1.6443457243       -0.1697851695
 H         -0.7499187445        1.0540520570        1.3693591335
 H          0.1178945999        3.3215357860        0.7288663811
 H         -3.7543644419        4.3631958111       -0.7412026173
 H         -4.6065586847        2.1026432652       -0.0830935868
 H         -0.3854299705       -2.3690920234       -0.4077104552
 H          1.8119075547       -2.5888585660        0.1995958682
 H          2.6498864521        2.0237282073       -1.3430765496
 H          0.3925350704        1.0494867040       -1.5509416996
 H         -2.2568890371       -2.5289488614        0.7876031554
  43
        -89.95109966
 C         -3.0430050687       -2.4601576456       -2.3045100315
 C         -2.7036955982       -1.8281841453       -0.9491247378
 C         -3.8616655469       -0.9682096228       -0.4411891395
 S         -3.3494143619       -0.0860664159        1.0837130780
 O         -4.5276038467        0.1469760166        1.8671068443
 O         -2.2909410357       -0.8712217429        1.6898820574
 C         -2.6564127859        1.4972892016        0.6060250101
 C         -3.4664141949        2.4240184481       -0.0218177350
 C         -2.9317000145        3.6401731969       -0.4066674533
 C         -1.5939451298        3.8887502585       -0.1433892341
 C         -0.7814932620        2.9721526747        0.5034057226
 C         -1.3288675483        1.7597958807        0.8820156077
 F         -1.0672923102        5.0633133928       -0.5246232387
 C         -1.5043465793       -0.8782578179       -1.1513319898
 O         -1.6473277654        0.2219678731       -1.6446059424
 N         -0.3382112794       -1.4226909414       -0.7340865273
 C          0.9189733771       -0.8453760293       -0.6695078873
 C          1.9451250090       -1.5821170102       -0.0729528107
 C          3.2158560855       -1.0507121229        0.0220044423
 C          3.4890378315        0.2304090321       -0.4749889398
 C          2.4577441306        0.9579690242       -1.0704951759
 C          1.1884467518        0.4291547700       -1.1709487707
 C          4.7828128166        0.7969209955       -0.3853113942
 N          5.8175725541        1.2839398155       -0.3263437240
 C          4.3278181721       -1.8397901628        0.6619843017
 F          5.3470633629       -2.0571419986       -0.1835797880
 F          3.9238275371       -3.0472627402        1.0829907579
 F          4.8396399498       -1.2170786988        1.7347337789
 O         -2.3892503239       -2.8648636377       -0.0554387048
 H         -3.1811361140       -1.6865609721       -3.0537002156
 H         -3.9501294547       -3.0506842025       -2.2134426373
 H         -2.2320339715       -3.1172082866       -2.6072014683
 H         -4.1415819800       -0.2158587492       -1.1715660040
 H         -4.7191543537       -1.5773380958       -0.1650682307
 H         -4.5058594826        2.1951096618       -0.1951341199
 H         -3.5277886776        4.3880438201       -0.9045745198
 H          0.2520118195        3.2105702384        0.6978983875
 H         -0.7414284775        1.0107724341        1.3890264244
 H         -0.4431920330       -2.3515230445       -0.3283461126
 H          1.7444849164       -2.5686406377        0.3171935508
 H          2.6669414869        1.9436280520       -1.4571155115
 H          0.3963776782        0.9944553524       -1.6330986161
 H         -2.3306213542       -2.4725918342        0.8372873951
  43
        -89.95109262
 C         -3.0641383933       -2.4614556086       -2.3107164251
 C         -2.7183512341       -1.8279562187       -0.9574505955
 C         -3.8760363459       -0.9702487982       -0.4450042348
 S         -3.3711141782       -0.0963349150        1.0865696430
 O         -4.5574542390        0.1671870272        1.8473806559
 O         -2.3416934066       -0.9030814143        1.7140609857
 C         -2.6316005554        1.4679059927        0.6154791357
 C         -3.4076719389        2.4121523183       -0.0290017577
 C         -2.8359758600        3.6122727138       -0.4107355831
 C         -1.4966014347        3.8279058482       -0.1273028389
 C         -0.7182642300        2.8942848291        0.5368554729
 C         -1.3024009883        1.6979728828        0.9117665110
 F         -0.9337491251        4.9862885905       -0.5060664162
 C         -1.5214220704       -0.8766533759       -1.1696358528
 O         -1.6654854239        0.2152420664       -1.6806024849
 N         -0.3557232248       -1.4106077391       -0.7378685252
 C          0.9007205478       -0.8308772785       -0.6805853064
 C          1.9255127487       -1.5549457944       -0.0664410176
 C          3.1951957388       -1.0200983302        0.0232545749
 C          3.4685069829        0.2518661238       -0.4967098660
 C          2.4386497656        0.9665571420       -1.1100658114
 C          1.1704493301        0.4340876191       -1.2054509400
 C          4.7611031991        0.8218555816       -0.4121297334
 N          5.7948358189        1.3112999316       -0.3568537799
 C          4.3056734465       -1.7954799394        0.6822680050
 F          5.3288958244       -2.0265765813       -0.1546797737
 F          3.9016970461       -2.9956140349        1.1236607878
 F          4.8117078578       -1.1522570644        1.7456742913
 O         -2.3971308891       -2.8636319988       -0.0650160734
 H         -3.9692440993       -3.0541455959       -2.2140158597
 H         -2.2533006817       -3.1167195645       -2.6176150006
 H         -3.2082295102       -1.6886023720       -3.0595279064
 H         -4.1547530477       -0.2136717246       -1.1715346249
 H         -4.7346126649       -1.5806124492       -0.1746672638
 H         -4.4496299444        2.2088429507       -0.2181668529
 H         -3.4046753030        4.3724934626       -0.9217547166
 H          0.3177218084        3.1073160798        0.7469458599
 H         -0.7424708353        0.9369856053        1.4319794935
 H         -0.4600771437       -2.3350181600       -0.3214983206
 H          1.7246688124       -2.5343527254        0.3411489898
 H          2.6479861635        1.9449698459       -1.5145833368
 H          0.3795398971        0.9890793576       -1.6818078534
 H         -2.3520189321       -2.4750934637        0.8305897452
  43
        -89.94908036
 C         -2.6671003982       -2.5347106476       -2.0413167780
 C         -2.3495285441       -1.6823435512       -0.8076358651
 C         -3.4618429190       -0.6715343211       -0.5341230191
 S         -2.9887477021        0.2644336849        0.9723615163
 O         -3.8780803297       -0.1168655451        2.0341334083
 O         -1.5804003163        0.0128802127        1.1946957200
 C         -3.2330761541        2.0024629207        0.6060921044
 C         -4.2147854086        2.6922166963        1.2926491366
 C         -4.4107225604        4.0364217744        1.0287376629
 C         -3.6078073149        4.6460481387        0.0778117479
 C         -2.6217207823        3.9593257496       -0.6134788503
 C         -2.4337629195        2.6155241365       -0.3414325684
 F         -3.7936039600        5.9495144999       -0.1853951891
 C         -1.0594625247       -0.8846468775       -1.1042838520
 O         -1.0853161611        0.1509389913       -1.7355262899
 N          0.0476960499       -1.5311590198       -0.6684043183
 C          1.3649629444       -1.1082360095       -0.6844204253
 C          2.3125040290       -1.9027426721       -0.0337736235
 C          3.6430037509       -1.5349280636       -0.0292309830
 C          4.0576725023       -0.3619803084       -0.6735351705
 C          3.1041361969        0.4261145379       -1.3195834337
 C          1.7755127681        0.0590133534       -1.3296927730
 C          5.4153875687        0.0350414195       -0.6836685108
 N          6.5063082923        0.3827683527       -0.7121493164
 C          4.6689144272       -2.3900391479        0.6656459681
 F          5.3084119700       -1.7293548150        1.6426038033
 F          5.6117359191       -2.8386467687       -0.1791787840
 F          4.1301601980       -3.4782198101        1.2365452094
 O         -2.1675552374       -2.5575423411        0.2792326187
 H         -3.5996331048       -3.0686551362       -1.8823138107
 H         -1.8741955765       -3.2622526834       -2.1929584872
 H         -2.7507147381       -1.9032588287       -2.9206310082
 H         -3.5548252122        0.0333655280       -1.3544698672
 H         -4.4080761955       -1.1589172884       -0.3188334792
 H         -4.8037091584        2.1660333838        2.0268780869
 H         -5.1641463872        4.6101819454        1.5440808750
 H         -2.0205132352        4.4758401877       -1.3443437251
 H         -1.6806112985        2.0414551166       -0.8578922096
 H         -0.1527591232       -2.3711690248       -0.1305526238
 H          2.0039810351       -2.8066199444        0.4698711740
 H          3.4220643975        1.3302452466       -1.8157772884
 H          1.0442664323        0.6696572743       -1.8319344385
 H         -2.0547863755       -2.0291719555        1.0834577100
  43
        -89.94907206
 C         -2.7709410966       -2.1105933502       -2.7430407505
 C         -2.5270811401       -1.6599067403       -1.2987832310
 C         -3.4108838958       -0.4676768973       -0.9353002319
 S         -3.0492614385       -0.0301700582        0.8112888985
 O         -4.2068824928       -0.3538092601        1.5987398864
 O         -1.8237371659       -0.7159120564        1.1665170759
 C         -2.7826537599        1.7413383523        0.8718805959
 C         -3.7115850012        2.5247651413        1.5312626216
 C         -3.5189402984        3.8932252284        1.5994942477
 C         -2.3911805588        4.4320790295        1.0002744263
 C         -1.4561450137        3.6514840598        0.3384780160
 C         -1.6588035655        2.2838967415        0.2759546375
 F         -2.2002270270        5.7594804638        1.0618874802
 C         -1.0588949991       -1.1916472134       -1.1876934362
 O         -0.7237022808       -0.0770559977       -1.5266992497
 N         -0.2355829494       -2.1846462140       -0.7721437828
 C          1.1091378337       -2.1195686051       -0.4540890276
 C          1.8702230584       -0.9701245830       -0.6719590022
 C          3.2098212678       -0.9599952786       -0.3352271990
 C          3.8225073543       -2.0939174693        0.2129359599
 C          3.0541942814       -3.2403339984        0.4242315701
 C          1.7165288117       -3.2506593328        0.0970617081
 C          5.1956919230       -2.1047764766        0.5526019364
 N          6.3049333502       -2.1486556392        0.8345372507
 C          4.0374461790        0.2781094358       -0.5570473703
 F          5.0426573838        0.0675057178       -1.4238001974
 F          4.5975643610        0.7261258613        0.5783692222
 F          3.3239224121        1.2990615508       -1.0506895721
 O         -2.7733072888       -2.7627094680       -0.4592889822
 H         -2.5255056930       -1.3074459864       -3.4311865406
 H         -3.8130661603       -2.3923824085       -2.8638793574
 H         -2.1512261577       -2.9760300475       -2.9622346401
 H         -3.1732506242        0.3922775065       -1.5538133311
 H         -4.4670041666       -0.7152802804       -0.9862316742
 H         -4.5650712648        2.0482936891        1.9865915445
 H         -4.2188499240        4.5382955297        2.1059413766
 H         -0.5919744122        4.1126095293       -0.1119671462
 H         -0.9591444327        1.6414751805       -0.2344403164
 H         -0.7219447490       -3.0391656573       -0.5118018662
 H          1.4066053042       -0.0954635097       -1.0974234541
 H          3.5219683045       -4.1153172098        0.8488755392
 H          1.1284821221       -4.1397708134        0.2700400234
 H         -2.7068899678       -2.4648554163        0.4605315484
  43
        -89.94780702
 C         -2.7264116619       -2.4252632878       -2.1121915237
 C         -2.2576337952       -1.5735664480       -0.9254838468
 C         -3.2481269430       -0.4572054433       -0.6141956908
 S         -2.6059499211        0.3634347495        0.8882853290
 O         -3.0888039875       -0.4026956805        2.0122468948
 O         -1.1785571956        0.4833352008        0.7622072773
 C         -3.3400355114        1.9955229623        0.8910394823
 C         -2.8226243006        2.9386848571        0.0213184433
 C         -3.3868027343        4.2010067697       -0.0189152802
 C         -4.4573385852        4.4743281206        0.8195060989
 C         -4.9775244178        3.5336584469        1.6946788692
 C         -4.4057035001        2.2735793191        1.7254750484
 F         -5.0102857190        5.6960377458        0.7824709773
 C         -0.9337226581       -0.8824788857       -1.3482514604
 O         -0.9389342145        0.0443502049       -2.1277856591
 N          0.1507867775       -1.5039249081       -0.8290767377
 C          1.4789675770       -1.1283761987       -0.9002724850
 C          2.4040891511       -1.8492457612       -0.1405397555
 C          3.7448124718       -1.5237769354       -0.1859641273
 C          4.1924333476       -0.4677255996       -0.9907549304
 C          3.2605686034        0.2484136372       -1.7440107113
 C          1.9219442570       -0.0770432610       -1.7044202937
 C          5.5607641786       -0.1163661386       -1.0550495689
 N          6.6614172106        0.1924884560       -1.1303817885
 C          4.7466085947       -2.2992542494        0.6266662379
 F          4.1789483813       -3.2784645341        1.3475361969
 F          5.4078031637       -1.5243472000        1.5004799549
 F          5.6754174750       -2.8921659698       -0.1419816001
 O         -2.0647443469       -2.4307766208        0.1791161103
 H         -3.7003179212       -2.8550770766       -1.8943893053
 H         -2.0186540677       -3.2341864780       -2.2718982238
 H         -2.7851650115       -1.8146535983       -3.0080596357
 H         -3.2708115682        0.2661425505       -1.4237119814
 H         -4.2407227212       -0.8316121393       -0.3805498385
 H         -1.9804218499        2.6761767943       -0.5995567708
 H         -3.0132648353        4.9673614522       -0.6789007067
 H         -5.8070943879        3.7944458407        2.3320555234
 H         -4.7621739966        1.5057186696        2.3934873893
 H         -0.0845161786       -2.2407775469       -0.1672294633
 H          2.0691272291       -2.6614495299        0.4870251072
 H          3.6040914004        1.0634119704       -2.3625901846
 H          1.2049275050        0.4788817030       -2.2848920214
 H         -2.2892571884       -1.9766109108        1.0046849981
  43
        -89.94627319
 C         -2.3077136731       -1.9348717032       -0.9421818057
 C         -1.5516927221       -0.7528858173       -0.3188682999
 C         -2.3817154178        0.5299411242       -0.4250491831
 S         -3.9879347170        0.3243891437        0.4271771196
 O         -4.9712374923       -0.1624944258       -0.4955587155
 O         -3.7527590476       -0.4559376543        1.6230736067
 C         -4.4232519693        1.9953900362        0.9171879906
 C         -5.2201786801        2.7541138601        0.0801703236
 C         -5.5395314892        4.0518796849        0.4383848596
 C         -5.0435465636        4.5489449728        1.6336295944
 C         -4.2480173205        3.7928293896        2.4805256752
 C         -3.9358616230        2.4967423547        2.1101198286
 F         -5.3472456947        5.8074514058        1.9861622153
 C         -0.2570057389       -0.5596207098       -1.1420039638
 O         -0.2703907744       -0.0488571476       -2.2378964073
 N          0.8307167177       -1.0558980793       -0.5016420708
 C          2.1475356284       -1.1014993457       -0.9272339317
 C          3.0982761783       -1.6204773120       -0.0440092804
 C          4.4254614588       -1.6950946304       -0.4162828298
 C          4.8337149248       -1.2531077815       -1.6816376879
 C          3.8772927295       -0.7376694096       -2.5576653781
 C          2.5509454793       -0.6613498612       -2.1892064868
 C          6.1883501614       -1.3183516046       -2.0844344268
 N          7.2767647510       -1.3573348929       -2.4387018608
 C          5.4539465760       -2.2511775503        0.5323056014
 F          6.4072332341       -1.3547235096        0.8316028722
 F          6.0784911363       -3.3286916592        0.0324461522
 F          4.9196608298       -2.6353362007        1.7018252027
 O         -1.1978700001       -1.0113209900        1.0191790484
 H         -1.7282383194       -2.8470136070       -0.8142418863
 H         -2.4654753411       -1.7578014660       -2.0024348137
 H         -3.2725100163       -2.0565606874       -0.4565335167
 H         -1.8748168979        1.3526180090        0.0757174669
 H         -2.5820149842        0.7786913089       -1.4624182370
 H         -5.5924967031        2.3115229742       -0.8297838561
 H         -6.1617596458        4.6743418975       -0.1843345250
 H         -3.8923030315        4.2188275466        3.4049244865
 H         -3.3354571524        1.8623708623        2.7427892983
 H          0.6379824777       -1.3963715625        0.4361981692
 H          2.7937689291       -1.9635873467        0.9334335899
 H          4.1898415365       -0.3975979587       -3.5329571173
 H          1.8171335720       -0.2613575510       -2.8691324037
 H         -2.0282895676       -1.0489005781        1.5314490353
  43
        -89.94542664
 C         -2.1909791991       -1.9652195655       -1.0023142013
 C         -1.5331116647       -0.9604942307       -0.0457641000
 C         -2.1631079856        0.4257699092       -0.2083012486
 S         -3.9582738261        0.3570270093        0.1366058905
 O         -4.6795698992        0.0757055612       -1.0699207153
 O         -4.1537531772       -0.5431280597        1.2534571005
 C         -4.3495117942        2.0236681019        0.6757317732
 C         -4.7726348225        2.9487099564       -0.2606289928
 C         -5.0519845094        4.2429526283        0.1410530662
 C         -4.8952598254        4.5682340107        1.4794683979
 C         -4.4759828414        3.6452143148        2.4249742620
 C         -4.1993105193        2.3546624367        2.0097644409
 F         -5.1626142583        5.8218605781        1.8759905212
 C         -0.0428173299       -0.8631201321       -0.4475577649
 O          0.3153806583       -0.2385469988       -1.4177575099
 N          0.7541527921       -1.5785827147        0.3859874550
 C          2.1248751025       -1.7658406397        0.3381216561
 C          2.9163473667       -1.2393954913       -0.6847911301
 C          4.2795588242       -1.4649374587       -0.6796931474
 C          4.8819145415       -2.2161923418        0.3374811569
 C          4.0820402263       -2.7400428169        1.3548005442
 C          2.7232536257       -2.5170917120        1.3534606864
 C          6.2763478737       -2.4544756151        0.3593315506
 N          7.4004129367       -2.6681903950        0.4084957167
 C          5.1479398869       -0.9019623118       -1.7741224630
 F          5.8021686645       -1.8641994280       -2.4458895439
 F          6.0838202990       -0.0646589328       -1.2949901071
 F          4.4550958115       -0.2100408645       -2.6858789438
 O         -1.6093511974       -1.3934354755        1.2925749648
 H         -2.0172855948       -1.6663275926       -2.0322786383
 H         -3.2620992070       -2.0042362648       -0.8214173840
 H         -1.7672259882       -2.9544759260       -0.8410523789
 H         -1.7417619837        1.1216236741        0.5147531375
 H         -2.0283748194        0.7970973610       -1.2192897423
 H         -4.8936695505        2.6372852862       -1.2857467026
 H         -5.3881923867        4.9924164548       -0.5572794014
 H         -4.3767424518        3.9416685597        3.4568650597
 H         -3.8873853067        1.5953864082        2.7092942336
 H          0.2627303492       -1.9881612309        1.1752195305
 H          2.4593807748       -0.6593969905       -1.4704067541
 H          4.5425600884       -3.3199590254        2.1398274687
 H          2.1103786976       -2.9246383569        2.1437672391
 H         -2.5507172446       -1.3572331276        1.5499051772
  43
        -89.94528591
 C         -1.9777528948        0.2924086789       -1.2875242462
 C         -1.2905875637       -0.0222558831        0.0488668521
 C         -1.9555094087        0.7316070529        1.2019856240
 S         -3.7159816804        0.2684254016        1.3907534044
 O         -3.8927588823       -1.0639180040        0.8542199253
 O         -4.0736349254        0.4834624076        2.7620346671
 C         -4.6617767630        1.4178665915        0.3821148648
 C         -4.6092549339        2.7653301964        0.6890321034
 C         -5.3439732351        3.6639236815       -0.0636892647
 C         -6.1209265407        3.1774009711       -1.1038960550
 C         -6.1936924228        1.8273445219       -1.4065507658
 C         -5.4514982167        0.9401869699       -0.6466263305
 F         -6.8326669719        4.0449333224       -1.8390605727
 C          0.1643077852        0.4948627383       -0.0551067251
 O          0.4026048514        1.6777568088       -0.1438968746
 N          1.0709342719       -0.5108606106       -0.0518748009
 C          2.4512361623       -0.4414989649       -0.1462058098
 C          3.1662389262       -1.6412982646       -0.1008820887
 C          4.5435308171       -1.6332078127       -0.1942404170
 C          5.2383899913       -0.4246594709       -0.3346642484
 C          4.5159893795        0.7685515697       -0.3787432981
 C          3.1403052088        0.7643037669       -0.2864983939
 C          6.6495056272       -0.3916850875       -0.4324394774
 N          7.7902649148       -0.3321939864       -0.5145307693
 C          5.3194302687       -2.9228356041       -0.1474759803
 F          4.5250166818       -3.9956068522       -0.0128547308
 F          6.1813899803       -2.9613122432        0.8803636875
 F          6.0375547054       -3.1246636880       -1.2634129186
 O         -1.2710111341       -1.4054670726        0.2984524287
 H         -1.9661496842        1.3625185545       -1.4747178242
 H         -3.0014295750       -0.0692934053       -1.2696823133
 H         -1.4462019887       -0.2112353306       -2.0925613527
 H         -1.4941777238        0.4671574707        2.1525205747
 H         -1.8991160265        1.8053715439        1.0515949780
 H         -4.0126833959        3.1003081822        1.5225573557
 H         -5.3284443855        4.7217432097        0.1442367362
 H         -6.8221779862        1.4908426441       -2.2153325844
 H         -5.4857489402       -0.1220225188       -0.8322263693
 H          0.6617070616       -1.4351640024        0.0559992640
 H          2.6397975686       -2.5777081367        0.0077793876
 H          5.0496951152        1.7002128571       -0.4868157468
 H          2.5875671378        1.6884531489       -0.3211395839
 H         -2.1951380111       -1.6806232520        0.4496440687
  43
        -89.94505303
 C         -2.6955629446       -1.2809806464       -2.5129134749
 C         -2.6858534037       -1.7311184747       -1.0503889628
 C         -3.0358683449       -0.5604404509       -0.1024358761
 S         -1.7214348125        0.6780006320        0.1421853559
 O         -0.8063569618        0.1924977109        1.1368763613
 O         -1.1545617088        1.0173072433       -1.1469724767
 C         -2.5947170411        2.1078629413        0.7793599984
 C         -3.1798691952        2.9878952512       -0.1125378723
 C         -3.8758887018        4.0810397203        0.3714841180
 C         -3.9632241377        4.2546276065        1.7444281916
 C         -3.3736184397        3.3796622261        2.6438050145
 C         -2.6798208453        2.2904660523        2.1471765082
 F         -4.6402556162        5.3101005183        2.2190497149
 C         -1.3273766902       -2.3420280906       -0.6278949968
 O         -1.3323949434       -3.3991812919       -0.0295459607
 N         -0.2344640731       -1.6451250156       -1.0044507428
 C          1.0789549589       -1.8570012421       -0.5987168990
 C          1.9899870869       -0.8267928536       -0.8421206930
 C          3.3109513691       -0.9674031765       -0.4691196844
 C          3.7509186918       -2.1435360781        0.1538668202
 C          2.8327474795       -3.1661672101        0.3918042846
 C          1.5114335899       -3.0292664978        0.0190657535
 C          5.0999465192       -2.3119529475        0.5453155560
 N          6.1845528852       -2.4801770503        0.8729321285
 C          4.2993118215        0.1392244275       -0.7224399336
 F          4.8511225057        0.6018636340        0.4103054650
 F          3.7472524223        1.1977154065       -1.3324399424
 F          5.3145529522       -0.2571955537       -1.5093226495
 O         -3.6587934830       -2.7262732349       -0.8716039394
 H         -3.7303384349       -1.1339867735       -2.8136483326
 H         -2.2670315438       -2.0567676000       -3.1425053609
 H         -2.1499157251       -0.3528731433       -2.6485469906
 H         -3.9022685498       -0.0293595866       -0.4904674473
 H         -3.2561796773       -0.9469803331        0.8905808789
 H         -3.0667827531        2.8187423842       -1.1715151124
 H         -4.3418610442        4.7936273237       -0.2899560043
 H         -3.4595831826        3.5605191348        3.7031766961
 H         -2.1874896078        1.5881229887        2.8006113478
 H         -0.3915684533       -0.7309983527       -1.4212966917
 H          1.6509776111        0.0869081561       -1.3068868045
 H          3.1697092697       -4.0714109879        0.8732736068
 H          0.8085499397       -3.8218353178        0.2138826574
 H         -3.2369409559       -3.4494237749       -0.3695566103
  43
        -89.94495988
 C         -3.0856324965       -3.2311683277       -0.6636050725
 C         -3.2210640982       -2.1677523779        0.4282670579
 C         -3.8896544681       -0.8908267103       -0.1265616534
 S         -2.8686074949        0.1899517949       -1.1832945717
 O         -2.0435325179       -0.6446068777       -2.0357222790
 O         -3.7522733402        1.1091704430       -1.8345086200
 C         -1.7225962773        1.1320526627       -0.1494117290
 C         -0.6176384272        1.6448693771       -0.8086528157
 C          0.3410257579        2.3552435264       -0.1084340484
 C          0.1653455036        2.5233051687        1.2552819485
 C         -0.9481475760        2.0376430775        1.9212791601
 C         -1.9075213323        1.3427855001        1.2041707197
 F          1.1042577478        3.1726633824        1.9579827813
 C         -1.8650869952       -1.7976169783        1.0671040912
 O         -1.7987140838       -1.6820965552        2.2758741426
 N         -0.8414154007       -1.6361218998        0.1999320020
 C          0.4305142886       -1.1469146453        0.4780449609
 C          1.2351164814       -0.8260126241       -0.6175473440
 C          2.4865342685       -0.2786648858       -0.4215030406
 C          2.9644875915       -0.0449881928        0.8748688177
 C          2.1644385157       -0.3942616551        1.9622045035
 C          0.9116614533       -0.9397481241        1.7701606898
 C          4.2325435170        0.5430532916        1.0988681596
 N          5.2516137272        1.0211270009        1.3078687670
 C          3.3315717527        0.1264667286       -1.6000846590
 F          4.5566767717       -0.4121952659       -1.5736361339
 F          3.4928385426        1.4619671535       -1.6512400024
 F          2.7845659092       -0.2269648491       -2.7708977745
 O         -4.0410113467       -2.6648205210        1.4554002110
 H         -4.0710212123       -3.6547265254       -0.8418788274
 H         -2.4278507703       -4.0305522275       -0.3315072154
 H         -2.7134788565       -2.8030856359       -1.5889895329
 H         -4.7325121912       -1.1662555910       -0.7592507883
 H         -4.2652366084       -0.2702790018        0.6835765249
 H         -0.5216773913        1.4758767185       -1.8693725056
 H          1.2111962018        2.7656826106       -0.5958080930
 H         -1.0534828715        2.2030529388        2.9812832512
 H         -2.7787244622        0.9685068424        1.7159639037
 H         -1.0822700638       -1.6448419929       -0.7929313155
 H          0.8658861538       -0.9945023208       -1.6179204921
 H          2.5345324925       -0.2233621638        2.9612632563
 H          0.2979500632       -1.1963219021        2.6171699016
 H         -3.6063089093       -2.4599671831        2.3027440782
  43
        -89.94469379
 C         -4.0141008634       -2.0570627672       -2.4901620985
 C         -3.1561744186       -1.7776158058       -1.2489766438
 C         -3.9267645431       -0.8914547735       -0.2669282009
 S         -2.9258964595       -0.3716505620        1.1862316155
 O         -3.8634010446        0.1494381912        2.1403251047
 O         -2.1053437151       -1.4813504825        1.5980066223
 C         -1.8095739552        0.9591485628        0.7034149203
 C         -2.1524414610        1.9305913525       -0.2172952416
 C         -1.2403922283        2.9258318884       -0.5241489364
 C         -0.0156823900        2.9341211317        0.1231461889
 C          0.3218031092        1.9901187691        1.0788383228
 C         -0.5914754545        0.9901419099        1.3603906055
 F          0.8735092616        3.8892978229       -0.1890604635
 C         -1.9128007627       -0.9604677698       -1.6577309830
 O         -1.9979635023       -0.0336476735       -2.4334733512
 N         -0.7960388668       -1.3585313605       -1.0079244719
 C          0.4443651975       -0.7428116039       -0.9959895900
 C          1.3506508234       -1.1362492351       -0.0084228998
 C          2.5829480481       -0.5219647478        0.0834855982
 C          2.9402772423        0.4938427888       -0.8136941854
 C          2.0374455679        0.8630009348       -1.8109092532
 C          0.8039865071        0.2533938644       -1.9044859111
 C          4.1890134672        1.1532770222       -0.7215493848
 N          5.1903804076        1.7059343473       -0.6656188159
 C          3.5448058107       -0.9021946596        1.1778049354
 F          4.7456938929       -1.2682972300        0.7095651859
 F          3.1008982742       -1.9234189429        1.9228633169
 F          3.7535788138        0.1198501650        2.0275632076
 O         -2.7207061147       -2.9748042948       -0.6530922382
 H         -3.5140392918       -2.8008866259       -3.1053659578
 H         -4.1314921332       -1.1450957130       -3.0676063300
 H         -4.9922678534       -2.4351272932       -2.2030133433
 H         -4.2850305567        0.0119991078       -0.7499769438
 H         -4.7716233400       -1.4209518742        0.1735998218
 H         -3.1133570655        1.9202730316       -0.7041387264
 H         -1.4669231705        3.6876907373       -1.2522809686
 H          1.2756603757        2.0437618648        1.5793122926
 H         -0.3762664050        0.2240632887        2.0880730974
 H         -0.9481301821       -2.1024661698       -0.3288128652
 H          1.0750589443       -1.9104058920        0.6915230377
 H          2.3145008215        1.6400307006       -2.5065149270
 H          0.1068180391        0.5516270457       -2.6692453666
 H         -3.4283368645       -3.3626066184       -0.1268190921
  43
        -89.94463188
 C         -1.7352203957        1.1355116351       -1.2100494842
 C         -1.4655391678       -0.2246806408       -0.5516823526
 C         -2.1512401073       -0.3228324942        0.8122731920
 S         -3.9684265056       -0.1569791937        0.6722374491
 O         -4.3582640581       -0.5682284799       -0.6599202854
 O         -4.5523362026       -0.8585082684        1.7775074658
 C         -4.3424092823        1.5913326775        0.8604548849
 C         -4.0131814683        2.2137755653        2.0507713259
 C         -4.3084813369        3.5544361132        2.2219838678
 C         -4.9371753621        4.2317065470        1.1883213742
 C         -5.2866398695        3.6114349566       -0.0002846721
 C         -4.9828432777        2.2705599004       -0.1586643512
 F         -5.2235818759        5.5324200260        1.3479860111
 C          0.0589502520       -0.3152574625       -0.3001535536
 O          0.6083004778        0.4255294569        0.4815580599
 N          0.6498647766       -1.2754766435       -1.0514507061
 C          1.9842656517       -1.6409678221       -1.1119804484
 C          2.9715514311       -0.9904446069       -0.3694379578
 C          4.2873058702       -1.3991244876       -0.4752474643
 C          4.6469010428       -2.4586207923       -1.3177605383
 C          3.6523040809       -3.1031017023       -2.0557497325
 C          2.3400769402       -2.6982581897       -1.9535803286
 C          5.9893610332       -2.8891315940       -1.4382864166
 N          7.0646444960       -3.2641887992       -1.5594940986
 C          5.3648254648       -0.7069761152        0.3177537509
 F          6.3032026100       -0.1616292597       -0.4746122051
 F          6.0042158365       -1.5503972013        1.1453064051
 F          4.8936578324        0.2856989902        1.0814425087
 O         -1.8597292088       -1.2837866456       -1.3888054919
 H         -1.4022478601        1.9404057857       -0.5608188731
 H         -2.7958158033        1.2414841351       -1.4174748176
 H         -1.1902743525        1.1943396476       -2.1501922620
 H         -1.9940559916       -1.3060196034        1.2537844172
 H         -1.7890760542        0.4460011274        1.4879185448
 H         -3.5477665880        1.6452549498        2.8400886250
 H         -4.0667636013        4.0747480641        3.1348219605
 H         -5.7872211300        4.1728646832       -0.7726662324
 H         -5.2472066514        1.7383293147       -1.0590878942
 H          0.0014079780       -1.8046964869       -1.6280619011
 H          2.7014959736       -0.1745385697        0.2815157164
 H          3.9258496326       -3.9197673058       -2.7059881863
 H          1.5754005155       -3.2008591833       -2.5270260854
 H         -2.8334467441       -1.2493550983       -1.4487545343
  43
        -89.94451444
 C         -3.2583549594       -1.7892808639       -2.8018031643
 C         -2.8469236458       -1.7421875958       -1.3208685657
 C         -3.7158748117       -0.7488235958       -0.5545815121
 S         -2.9538359055       -0.3378941766        1.0757651110
 O         -4.0426701177       -0.2340441417        2.0087103061
 O         -1.9175513967       -1.2949924751        1.3624700227
 C         -2.2012467082        1.2768188588        0.8772046587
 C         -3.0065830718        2.3590670590        0.5782942996
 C         -2.4306484638        3.6047116036        0.4039731013
 C         -1.0556129523        3.7230004099        0.5343501303
 C         -0.2436534500        2.6455216977        0.8488255306
 C         -0.8342053841        1.4070205017        1.0249249592
 F         -0.4961234465        4.9302744496        0.3595590661
 C         -1.4102507371       -1.1926987328       -1.2291003736
 O         -1.1935347243       -0.0259228602       -1.4785107800
 N         -0.4929494757       -2.1268461277       -0.8924206352
 C          0.8237046199       -1.9212939184       -0.5185179744
 C          1.4693370520       -0.6971005868       -0.7026215789
 C          2.7788459850       -0.5433209515       -0.2891139989
 C          3.4792484601       -1.6058322434        0.2955773180
 C          2.8299426385       -2.8308867923        0.4618038052
 C          1.5205657868       -2.9832929820        0.0634978033
 C          4.8208737017       -1.4649619307        0.7213950015
 N          5.9070760500       -1.3833897797        1.0754613215
 C          3.4703746646        0.7845011796       -0.4466544214
 F          3.8431731469        1.3001399616        0.7386842935
 F          2.6925849501        1.7113349616       -1.0229455427
 F          4.5798827771        0.7014584834       -1.1964075961
 O         -2.8778394099       -3.0312914184       -0.7545520897
 H         -3.0501679012       -0.8341511216       -3.2744977128
 H         -4.3195030150       -2.0117159041       -2.8922615290
 H         -2.6916544006       -2.5668938649       -3.3084687482
 H         -3.7950714666        0.1884890145       -1.0967364080
 H         -4.7054167437       -1.1444527585       -0.3352806030
 H         -4.0742394998        2.2253301760        0.5010174085
 H         -3.0234497741        4.4744710345        0.1694864689
 H          0.8209440660        2.7859741993        0.9448746116
 H         -0.2535511445        0.5344772533        1.2776971041
 H         -0.8996301852       -3.0168357423       -0.6213125283
 H          0.9383000289        0.1257105560       -1.1529317192
 H          3.3658762723       -3.6519206884        0.9128232442
 H          1.0200163583       -3.9283823890        0.2101597690
 H         -3.7890051804       -3.2814899367       -0.5661215321
  43
        -89.94451263
 C         -3.2707664672       -1.8182142457       -2.7495297522
 C         -2.8491224341       -1.7543355248       -1.2720213256
 C         -3.7134780465       -0.7536158210       -0.5105516722
 S         -2.9373814289       -0.3241528190        1.1084997853
 O         -4.0155656585       -0.2316755842        2.0549357727
 O         -1.8835540365       -1.2645740415        1.3862929059
 C         -2.2123549939        1.3003618708        0.8900279488
 C         -0.8446686886        1.4515673715        1.0085042408
 C         -0.2764695446        2.6974789128        0.8120470718
 C         -1.1108933914        3.7608589017        0.5085792642
 C         -2.4865179264        3.6216880388        0.4081771307
 C         -3.0398995777        2.3686265075        0.6013886213
 F         -0.5731457562        4.9751446693        0.3141304208
 C         -1.4118141646       -1.2035429412       -1.1971382821
 O         -1.1983303739       -0.0374206871       -1.4521018043
 N         -0.4901822230       -2.1380221453       -0.8730422009
 C          0.8321644291       -1.9346476876       -0.5189210364
 C          1.4733569749       -0.7075288513       -0.6990787807
 C          2.7899355246       -0.5576200736       -0.3071006812
 C          3.5023839045       -1.6273523618        0.2492742487
 C          2.8568791430       -2.8547582948        0.4127286534
 C          1.5401738990       -3.0029148094        0.0377454905
 C          4.8531341599       -1.4920834206        0.6471217095
 N          5.9475392514       -1.4156550331        0.9762187333
 C          3.4785878100        0.7720647618       -0.4613964995
 F          2.6799821170        1.7145841705       -0.9814990340
 F          4.5544958664        0.7037223479       -1.2605135382
 F          3.9042948735        1.2585583722        0.7179176323
 O         -2.8748648255       -3.0373208557       -0.6914764724
 H         -2.7059666113       -2.5999960993       -3.2518871196
 H         -3.0681790282       -0.8677826201       -3.2339966813
 H         -4.3320254933       -2.0439534716       -2.8300790826
 H         -3.7979412614        0.1775210284       -1.0624932318
 H         -4.7006727380       -1.1480112257       -0.2789441042
 H         -0.2460628319        0.5893919567        1.2545907865
 H          0.7878771102        2.8536736577        0.8828701395
 H         -3.0970355115        4.4811684907        0.1813389721
 H         -4.1067400171        2.2181230964        0.5469451507
 H         -0.8931406543       -3.0283961360       -0.5979300308
 H          0.9336492864        0.1199793864       -1.1301672881
 H          3.4017945210       -3.6811092465        0.8428226164
 H          1.0430491828       -3.9502013685        0.1820675092
 H         -3.7842994233       -3.2854957169       -0.4922862761
  43
        -89.94451224
 C         -3.3286751519       -1.8866845993       -2.7142287771
 C         -2.8902102115       -1.7892378022       -1.2437901894
 C         -3.7418039474       -0.7641842236       -0.4986862189
 S         -2.9626720109       -0.3016358076        1.1090065121
 O         -4.0473076051       -0.0946470850        2.0294578892
 O         -1.9746313248       -1.2905284024        1.4526431148
 C         -2.1294494868        1.2621404014        0.8338478508
 C         -0.7625829152        1.3368994728        1.0179578661
 C         -0.1079053194        2.5354642747        0.7976645293
 C         -0.8570718451        3.6307422133        0.3997462305
 C         -2.2315569994        3.5687894883        0.2304739248
 C         -2.8722765628        2.3632117654        0.4534148313
 F         -0.2355822056        4.7994794671        0.1812381412
 C         -1.4513613377       -1.2409945331       -1.1947516755
 O         -1.2311784945       -0.0942954738       -1.5226460772
 N         -0.5374936008       -2.1482257466       -0.7843959645
 C          0.7755473577       -1.9113763327       -0.4156924807
 C          1.4301231142       -0.7163380391       -0.7199461777
 C          2.7320807912       -0.5209592153       -0.3001834531
 C          3.4142425891       -1.5125423560        0.4157607208
 C          2.7578932688       -2.7126897768        0.6974141549
 C          1.4571978427       -2.9068296209        0.2887624437
 C          4.7422222245       -1.3238191368        0.8653783073
 N          5.8148819578       -1.2009918236        1.2476168227
 C          3.4257830667        0.7846158306       -0.5838312338
 F          2.6976059883        1.6038181877       -1.3540755634
 F          4.6011037955        0.6229857152       -1.2082373595
 F          3.6798931658        1.4685859505        0.5480771864
 O         -2.9167114191       -3.0564454410       -0.6305694333
 H         -2.7778645938       -2.6877230380       -3.2015174522
 H         -3.1198968153       -0.9515203596       -3.2250450961
 H         -4.3931921821       -2.1019587813       -2.7781089965
 H         -3.8223952181        0.1546803282       -1.0712835144
 H         -4.7313775486       -1.1451310921       -0.2543153820
 H         -0.2318953387        0.4530882517        1.3342165888
 H          0.9582416678        2.6327082428        0.9265478923
 H         -2.7743976309        4.4508697897       -0.0697149920
 H         -3.9426513317        2.2771651256        0.3504429133
 H         -0.9472932204       -3.0140732643       -0.4470373649
 H          0.9113880035        0.0547764337       -1.2656928504
 H          3.2810250651       -3.4801549391        1.2470375734
 H          0.9501804381       -3.8298199543        0.5256217098
 H         -3.8262301566       -3.2983770419       -0.4242178209
  43
        -89.94450711
 C         -3.3933040624       -2.1856953719       -2.5798003976
 C         -2.9609876164       -1.8978078502       -1.1342153685
 C         -3.8455186231       -0.8100997655       -0.5258621437
 S         -3.1888420817       -0.1929909185        1.0790325090
 O         -4.3064124095        0.3999552141        1.7597104223
 O         -2.4929109985       -1.2624401629        1.7463658887
 C         -1.9989863886        1.0961235912        0.6934686542
 C         -2.3667096936        2.1559552362       -0.1139240224
 C         -1.4450014062        3.1474345402       -0.3953834351
 C         -0.1772565035        3.0546464716        0.1581450225
 C          0.1908200001        2.0105284173        0.9907464388
 C         -0.7390109628        1.0201051276        1.2552113313
 F          0.7139926524        4.0179542215       -0.1079360904
 C         -1.5328432781       -1.3152253842       -1.1485939284
 O         -1.2721848711       -0.3404986922       -1.8210604786
 N         -0.6821567264       -1.9823168487       -0.3393389458
 C          0.6186814367       -1.6549102509       -0.0021727684
 C          1.3239466412       -0.6365803237       -0.6460558241
 C          2.6116061336       -0.3372086751       -0.2444835985
 C          3.2272553820       -1.0509243752        0.7913563674
 C          2.5187168705       -2.0778895830        1.4189568213
 C          1.2315963243       -2.3725075116        1.0283861420
 C          4.5426469970       -0.7523005006        1.2187076716
 N          5.6032811825       -0.5339878498        1.5915447437
 C          3.3665202206        0.7897325286       -0.8993805784
 F          3.6735554910        1.7563889969       -0.0162139647
 F          2.6719804756        1.3802470925       -1.8785139485
 F          4.5238652727        0.3841308788       -1.4444087339
 O         -2.9637932501       -3.0766521825       -0.3648259393
 H         -4.4584009398       -2.4015668298       -2.6235895276
 H         -2.8429965322       -3.0463779108       -2.9521217220
 H         -3.1717209023       -1.3270839955       -3.2064516714
 H         -3.9014846531        0.0500615783       -1.1855459639
 H         -4.8487145022       -1.1730331571       -0.3064674134
 H         -3.3687741061        2.2140197339       -0.5077320007
 H         -1.6914134293        3.9842131565       -1.0289258309
 H          1.1816594294        1.9887697547        1.4163429071
 H         -0.5070803730        0.1875855255        1.9005312229
 H         -1.1269224293       -2.7105310957        0.2142688581
 H          0.8569925937       -0.0814699545       -1.4430420419
 H          2.9912234935       -2.6306756398        2.2163597969
 H          0.6806163858       -3.1556153533        1.5266421760
 H         -3.8673731236       -3.3074038461       -0.1232331379
  43
        -89.94436717
 C         -2.7292004664       -1.7174070595       -1.9831294632
 C         -2.3115786904       -1.7962028200       -0.5129056789
 C         -2.8195494574       -0.5699761358        0.2802185150
 S         -1.9388774009        0.9948277703       -0.0244146850
 O         -0.7512700348        1.0292401742        0.7820410759
 O         -1.7508237532        1.1603762925       -1.4521824300
 C         -3.0866775091        2.2468854891        0.5499606780
 C         -4.0815189726        2.6870067833       -0.3038726172
 C         -4.9862667029        3.6345230099        0.1403214037
 C         -4.8624511221        4.1107840018        1.4367322782
 C         -3.8643503838        3.6778193851        2.2959985704
 C         -2.9653687617        2.7302079860        1.8396170247
 F         -5.7387588284        5.0267866726        1.8732720246
 C         -0.7776684081       -1.9197477880       -0.3404650905
 O         -0.3494283312       -2.7772617520        0.4043669936
 N         -0.0391324022       -1.0650485276       -1.0803876397
 C          1.3311305120       -0.8434034369       -0.9969074322
 C          2.1993862850       -1.7068059408       -0.3297745774
 C          3.5522538142       -1.4232557336       -0.2976491442
 C          4.0633494034       -0.2818560715       -0.9271850371
 C          3.1842267519        0.5755365238       -1.5920448193
 C          1.8367311137        0.2953778648       -1.6273003385
 C          5.4449013644        0.0222942293       -0.9044326507
 N          6.5567436600        0.2974704246       -0.9075498000
 C          4.5053798240       -2.3452107572        0.4160479804
 F          3.8959928929       -3.4013990049        0.9677879504
 F          5.1641468945       -1.7265887169        1.4098366698
 F          5.4418166504       -2.8423038829       -0.4114110426
 O         -2.8845394875       -2.9387865881        0.0648280075
 H         -2.5258688839       -0.7381450011       -2.4040962850
 H         -3.7966954727       -1.9169544064       -2.0418474176
 H         -2.2101864632       -2.4811172919       -2.5569178139
 H         -3.8658006676       -0.3944118402        0.0394920555
 H         -2.7144452754       -0.7554216584        1.3472816743
 H         -4.1242164476        2.2986650341       -1.3089982086
 H         -5.7734762365        4.0073586610       -0.4950697497
 H         -3.8018045226        4.0828599442        3.2931893587
 H         -2.1600982839        2.3700358132        2.4596917968
 H         -0.5407625178       -0.3407123625       -1.5876295901
 H          1.8158917586       -2.5838222633        0.1656455372
 H          3.5750542775        1.4586172281       -2.0738329655
 H          1.1553333835        0.9652349294       -2.1300422871
 H         -2.1755205383       -3.3956721325        0.5567685443
  43
        -89.94412675
 C         -2.8296864783       -1.9503467432       -1.9836790280
 C         -2.6418614719       -2.0427372785       -0.4635521133
 C         -2.9498690015       -0.7015673006        0.2330046774
 S         -2.5963198503        0.8179081454       -0.7145460128
 O         -1.2098266902        0.7749185562       -1.1437013253
 O         -3.5896451228        1.0207515231       -1.7241956054
 C         -2.7484268079        2.1021260564        0.5288363877
 C         -3.9689681810        2.7314609265        0.6921202809
 C         -4.1053326114        3.7088427916        1.6616514294
 C         -3.0035855406        4.0254909906        2.4415580134
 C         -1.7748739167        3.4041645025        2.2791270860
 C         -1.6523714837        2.4275797676        1.3067835178
 F         -3.1296894500        4.9694761824        3.3848554507
 C         -1.2070274014       -2.5407828136       -0.1645298104
 O         -1.0600967663       -3.6562163313        0.2959002307
 N         -0.2254662093       -1.6652208491       -0.4630975909
 C          1.1457182634       -1.8344520892       -0.3229771427
 C          1.9485450498       -0.7300997127       -0.6243706626
 C          3.3201795741       -0.8163244739       -0.5014638195
 C          3.9216132725       -2.0109958086       -0.0812765881
 C          3.1119860934       -3.1085631520        0.2121107854
 C          1.7398967354       -3.0249065039        0.0964829757
 C          5.3257185785       -2.1241065838        0.0507455808
 N          6.4583159654       -2.2473012845        0.1679781485
 C          4.1918618074        0.3720267990       -0.8089190377
 F          3.4839444924        1.4510130361       -1.1730256708
 F          5.0542407233        0.1295193449       -1.8075627629
 F          4.9256281427        0.7484655210        0.2524518930
 O         -3.5267547981       -2.9929399360        0.0731004551
 H         -2.6400997370       -2.9251112081       -2.4285180804
 H         -2.1630374351       -1.2149445093       -2.4231238565
 H         -3.8558577412       -1.6642106598       -2.1980672626
 H         -4.0197294677       -0.6714407842        0.4296929089
 H         -2.4060314060       -0.6048568335        1.1711938746
 H         -4.7883461487        2.4599798774        0.0460151348
 H         -5.0387887686        4.2253813222        1.8171343756
 H         -0.9421187946        3.6904700059        2.9011662256
 H         -0.7111085896        1.9313166300        1.1313539690
 H         -0.5048180631       -0.7430263206       -0.8182396589
 H          1.4850878332        0.1874390284       -0.9562724125
 H          3.5738550332       -4.0294337493        0.5334889049
 H          1.1225169575       -3.8765909828        0.3292896508
 H         -2.9882523176       -3.7594328251        0.3467862543
  43
        -89.94399623
 C         -2.1083282030        0.9747588991       -1.8373328053
 C         -2.2188687684       -0.5343946999       -1.5816914860
 C         -2.6785077609       -0.8559050871       -0.1494342863
 S         -2.1335716266        0.2395504120        1.2059912214
 O         -2.3724626190       -0.4770565275        2.4236268508
 O         -0.7697374666        0.6732093618        0.9581870183
 C         -3.1971643253        1.6855157874        1.1822721292
 C         -4.5460375258        1.5126272285        1.4354829119
 C         -5.3832214122        2.6137165872        1.4423464453
 C         -4.8351205107        3.8645771403        1.2017342101
 C         -3.4818964915        4.0480474930        0.9667301242
 C         -2.6560714631        2.9376674360        0.9601061648
 F         -5.6426189745        4.9346084181        1.2041040257
 C         -0.8641632488       -1.2109293433       -1.9120477568
 O         -0.8076312507       -1.9627321869       -2.8655771675
 N          0.1505697256       -0.8788966660       -1.0904723108
 C          1.4709309158       -1.3091503682       -1.1416840975
 C          2.3274550648       -0.8293084496       -0.1465902484
 C          3.6547560903       -1.2063788018       -0.1347456832
 C          4.1550933162       -2.0743986669       -1.1153966089
 C          3.2913883472       -2.5491710920       -2.1024737403
 C          1.9643708867       -2.1724102473       -2.1198061246
 C          5.5116564118       -2.4765086652       -1.1238337891
 N          6.6034190302       -2.8207217406       -1.1595360239
 C          4.5881333561       -0.6908752011        0.9284063061
 F          3.9835018778        0.1387163444        1.7895986606
 F          5.6194258018       -0.0050253808        0.4075610369
 F          5.1171854211       -1.6810621539        1.6645523467
 O         -3.1772105631       -1.0841578705       -2.4503475590
 H         -1.3748018120        1.4351436320       -1.1849567189
 H         -3.0804583369        1.4367380938       -1.6820700273
 H         -1.8185739007        1.1360612546       -2.8736487824
 H         -3.7659667990       -0.8154646241       -0.1280968995
 H         -2.3689520342       -1.8548055284        0.1563153289
 H         -4.9285555693        0.5264363945        1.6447744300
 H         -6.4397991724        2.5194956033        1.6350101259
 H         -3.0953488842        5.0403211505        0.7987171330
 H         -1.5945578315        3.0317534375        0.7963998477
 H         -0.0616391957       -0.2512159613       -0.3069078776
 H          1.9412516780       -0.1638948250        0.6114263740
 H          3.6751343521       -3.2179572164       -2.8575109047
 H          1.3052777945       -2.5433875998       -2.8870448133
 H         -2.6971926521       -1.6678225606       -3.0687947450
  43
        -89.94384272
 C         -3.2447105421       -2.2115311369       -2.3542777690
 C         -2.7150976791       -1.7884541663       -0.9738177215
 C         -3.7321160491       -0.9013569781       -0.2609157403
 S         -2.9566323046       -0.0409529365        1.1741790469
 O         -3.9593380422        0.0061910600        2.2026196513
 O         -1.7043109736       -0.6770072459        1.4844745788
 C         -2.6196260607        1.6300708128        0.6169039302
 C         -3.6768241158        2.4495115315        0.2703802527
 C         -3.4219458652        3.7332353623       -0.1782006897
 C         -2.1043073690        4.1540508306       -0.2641267141
 C         -1.0406217972        3.3435661688        0.0967782633
 C         -1.3104273382        2.0633879750        0.5456835800
 F         -1.8515292514        5.3967570761       -0.7072218573
 C         -1.4637130561       -0.9131432036       -1.1811276314
 O         -1.5723513311        0.1931442031       -1.6682766733
 N         -0.3157123730       -1.5146061565       -0.8025478734
 C          0.9486838912       -0.9578647546       -0.7167798809
 C          1.9359854461       -1.6866537218       -0.0482327514
 C          3.2178051637       -1.1861058397        0.0587435454
 C          3.5435915246        0.0579025639       -0.4982694445
 C          2.5516037085        0.7790941236       -1.1639016221
 C          1.2715210673        0.2791837657       -1.2778799381
 C          4.8495007130        0.5930738534       -0.4007627988
 N          5.8959578238        1.0546519175       -0.3404259647
 C          4.2874164484       -1.9692195523        0.7730162069
 F          4.7911460718       -1.3046548484        1.8240357896
 F          5.3230540956       -2.2615565744       -0.0311880016
 F          3.8391455286       -3.1411872638        1.2459466919
 O         -2.3594437235       -2.9157178437       -0.2098627664
 H         -2.5504092780       -2.9166589036       -2.8050810740
 H         -3.3356385067       -1.3423329629       -2.9987661745
 H         -4.2169834725       -2.6895956327       -2.2556620129
 H         -4.0919329018       -0.1206054482       -0.9241527653
 H         -4.5677195757       -1.4698073822        0.1422924305
 H         -4.6877445829        2.0862934627        0.3688290031
 H         -4.2183896760        4.4035119182       -0.4595332612
 H         -0.0314968202        3.7161493280        0.0233698937
 H         -0.5220988983        1.3914963795        0.8445627297
 H         -0.4576171728       -2.3890728161       -0.3058149359
 H          1.6921155383       -2.6413477188        0.3923347468
 H          2.8010725634        1.7366415099       -1.5949325821
 H          0.5107194939        0.8418398946       -1.7928664656
 H         -3.1530613488       -3.3420395029        0.1318905185
  43
        -89.94384045
 C         -3.1876231236       -2.2199478995       -2.3424655674
 C         -2.6838853162       -1.7826555083       -0.9566060632
 C         -3.7149958437       -0.8929919514       -0.2685176292
 S         -2.9572462182       -0.0146959745        1.1655943182
 O         -3.9547052916        0.0004242428        2.2001834932
 O         -1.6852537907       -0.6151410330        1.4668579969
 C         -2.6735480982        1.6668055693        0.6107608374
 C         -3.7582579333        2.4550302040        0.2767633802
 C         -3.5466098868        3.7475367757       -0.1691252793
 C         -2.2430546855        4.2081324729       -0.2656156286
 C         -1.1520452334        3.4286251117        0.0817774311
 C         -1.3785877348        2.1392319835        0.5285640541
 F         -2.0321360970        5.4598130629       -0.7056333022
 C         -1.4312530477       -0.9058885640       -1.1508320471
 O         -1.5381902509        0.2061156332       -1.6248440778
 N         -0.2837049012       -1.5176642138       -0.7867193379
 C          0.9831759230       -0.9673430626       -0.6975434651
 C          1.9732661803       -1.7157261687       -0.0552128790
 C          3.2584435102       -1.2237826464        0.0512333007
 C          3.5848532460        0.0314475546       -0.4795547915
 C          2.5898222554        0.7728138813       -1.1179526963
 C          1.3064830621        0.2813170853       -1.2318799294
 C          4.8944869693        0.5576712003       -0.3829422423
 N          5.9441637962        1.0120820749       -0.3227669462
 C          4.3311136279       -2.0290521789        0.7355646533
 F          4.8506001205       -1.3920317127        1.7958644926
 F          5.3559905040       -2.3091224785       -0.0866859846
 F          3.8809332748       -3.2090704537        1.1865400729
 O         -2.3372898423       -2.9022313229       -0.1771138208
 H         -3.2730525553       -1.3566352042       -2.9955656927
 H         -4.1586969713       -2.7028719650       -2.2560962492
 H         -2.4820207275       -2.9246481052       -2.7761266272
 H         -4.0686498285       -0.1210871321       -0.9452694298
 H         -4.5531643550       -1.4604107084        0.1305164195
 H         -4.7566744183        2.0608142232        0.3833767241
 H         -4.3655558350        4.3946225120       -0.4399867157
 H         -0.1555433085        3.8322318594        0.0003864276
 H         -0.5677905545        1.4899898002        0.8169279828
 H         -0.4268770831       -2.3980987308       -0.3013441369
 H          1.7296293799       -2.6800703857        0.3640415682
 H          2.8395990794        1.7395566840       -1.5277816966
 H          0.5434796028        0.8589843705       -1.7266849165
 H         -3.1351068453       -3.3279065414        0.1556312331
