  43
        -89.95177116
 C         -3.1436717843       -2.6217799399       -2.2213464224
 C         -2.8373698537       -1.8044874990       -0.9559417899
 C         -4.0406314752       -0.9423666227       -0.5813764986
 S         -3.7689727514       -0.0533029881        0.9943862626
 O         -4.9722288008        0.6552911590        1.3115241648
 O         -3.2896273788       -1.0330403036        1.9494666582
 C         -2.4420561349        1.1232071792        0.7213566691
 C         -2.6640181674        2.2165833424       -0.0947520274
 C         -1.6258516920        3.0947448702       -0.3460770641
 C         -0.3938823719        2.8504005017        0.2401270628
 C         -0.1724284578        1.7755585068        1.0854402788
 C         -1.2175859129        0.9000876686        1.3219138028
 F          0.6259916685        3.6826279699       -0.0231757291
 C         -1.6667401474       -0.8580204527       -1.3117995385
 O         -1.8290441443        0.1289982242       -1.9975193168
 N         -0.4929884870       -1.2893301332       -0.7924147416
 C          0.7519031177       -0.6829731342       -0.8316252346
 C          1.7689238870       -1.2294831927       -0.0462376919
 C          3.0197222995       -0.6445335045       -0.0274021339
 C          3.2805220476        0.4998990775       -0.7923277256
 C          2.2607275254        1.0327329509       -1.5818749475
 C          1.0117654050        0.4491676618       -1.6054232183
 C          4.5530299210        1.1196998817       -0.7789794191
 N          5.5732383713        1.6394011006       -0.7856471472
 C          4.1177508158       -1.2209987127        0.8274299514
 F          5.1950534734       -1.5695222733        0.1097783233
 F          3.7288999668       -2.3233468449        1.4857148298
 F          4.5358315748       -0.3528512121        1.7626070078
 O         -2.4663300314       -2.7014788572        0.0628339461
 H         -3.3346232593       -1.9574691927       -3.0585632277
 H         -4.0103683105       -3.2529007599       -2.0466917640
 H         -2.2935500014       -3.2587538258       -2.4510459073
 H         -4.2292828751       -0.1930934982       -1.3445121751
 H         -4.9300736371       -1.5471650699       -0.4158384136
 H         -3.6406134587        2.3716776391       -0.5232823120
 H         -1.7537595464        3.9513829026       -0.9877791987
 H          0.7966683910        1.6370012195        1.5378839521
 H         -1.1012917177        0.0487991862        1.9743149104
 H         -0.5905184868       -2.1361966788       -0.2314135783
 H          1.5769796112       -2.1092992240        0.5494083974
 H          2.4603595801        1.9133515923       -2.1723300420
 H          0.2264804545        0.8645239775       -2.2147230232
 H         -2.7220516587       -2.3222637636        0.9295924204
