  43
  -89.951771160000007        2.2883558159337524E-002 !
 C         -3.1436717843       -2.6217799399       -2.2213464224
 C         -2.8373698537       -1.8044874990       -0.9559417899
 C         -4.0406314752       -0.9423666227       -0.5813764986
 S         -3.7689727514       -0.0533029881        0.9943862626
 O         -4.9722288008        0.6552911590        1.3115241648
 O         -3.2896273788       -1.0330403036        1.9494666582
 C         -2.4420561349        1.1232071792        0.7213566691
 C         -2.6640181674        2.2165833424       -0.0947520274
 C         -1.6258516920        3.0947448702       -0.3460770641
 C         -0.3938823719        2.8504005017        0.2401270628
 C         -0.1724284578        1.7755585068        1.0854402788
 C         -1.2175859129        0.9000876686        1.3219138028
 F          0.6259916685        3.6826279699       -0.0231757291
 C         -1.6667401474       -0.8580204527       -1.3117995385
 O         -1.8290441443        0.1289982242       -1.9975193168
 N         -0.4929884870       -1.2893301332       -0.7924147416
 C          0.7519031177       -0.6829731342       -0.8316252346
 C          1.7689238870       -1.2294831927       -0.0462376919
 C          3.0197222995       -0.6445335045       -0.0274021339
 C          3.2805220476        0.4998990775       -0.7923277256
 C          2.2607275254        1.0327329509       -1.5818749475
 C          1.0117654050        0.4491676618       -1.6054232183
 C          4.5530299210        1.1196998817       -0.7789794191
 N          5.5732383713        1.6394011006       -0.7856471472
 C          4.1177508158       -1.2209987127        0.8274299514
 F          5.1950534734       -1.5695222733        0.1097783233
 F          3.7288999668       -2.3233468449        1.4857148298
 F          4.5358315748       -0.3528512121        1.7626070078
 O         -2.4663300314       -2.7014788572        0.0628339461
 H         -3.3346232593       -1.9574691927       -3.0585632277
 H         -4.0103683105       -3.2529007599       -2.0466917640
 H         -2.2935500014       -3.2587538258       -2.4510459073
 H         -4.2292828751       -0.1930934982       -1.3445121751
 H         -4.9300736371       -1.5471650699       -0.4158384136
 H         -3.6406134587        2.3716776391       -0.5232823120
 H         -1.7537595464        3.9513829026       -0.9877791987
 H          0.7966683910        1.6370012195        1.5378839521
 H         -1.1012917177        0.0487991862        1.9743149104
 H         -0.5905184868       -2.1361966788       -0.2314135783
 H          1.5769796112       -2.1092992240        0.5494083974
 H          2.4603595801        1.9133515923       -2.1723300420
 H          0.2264804545        0.8645239775       -2.2147230232
 H         -2.7220516587       -2.3222637636        0.9295924204
  43
  -89.951771019999995        2.2880168273316577E-002 !
 C         -3.1389556392       -2.6261552580       -2.2168318704
 C         -2.8360796990       -1.8045825199       -0.9533190905
 C         -4.0411195362       -0.9428443444       -0.5838163128
 S         -3.7750276495       -0.0508061029        0.9911935294
 O         -4.9785023485        0.6603853476        1.3015843334
 O         -3.3013686855       -1.0293082657        1.9503476182
 C         -2.4450119608        1.1229102200        0.7212481238
 C         -2.6626420981        2.2164287848       -0.0958236447
 C         -1.6219960817        3.0922750220       -0.3449441824
 C         -0.3919904436        2.8455160341        0.2443109460
 C         -0.1748511818        1.7704672826        1.0904695212
 C         -1.2224390339        0.8973137729        1.3247430399
 F          0.6302956178        3.6754793063       -0.0168108184
 C         -1.6658179381       -0.8579856261       -1.3100979108
 O         -1.8282882031        0.1278369078       -1.9974843954
 N         -0.4920061776       -1.2881936656       -0.7899065102
 C          0.7528728292       -0.6818902863       -0.8303017307
 C          1.7706515708       -1.2285122130       -0.0459942938
 C          3.0215038577       -0.6436344513       -0.0283500051
 C          3.2815765997        0.5009383373       -0.7932879761
 C          2.2610368675        1.0338480578       -1.5818050390
 C          1.0120533774        0.4502976423       -1.6042465034
 C          4.5540553925        1.1208280444       -0.7809285632
 N          5.5744022526        1.6402026293       -0.7888575985
 C          4.1204803684       -1.2204578127        0.8250165042
 F          5.1969621248       -1.5687136584        0.1059941397
 F          3.7323238111       -2.3231044334        1.4832324006
 F          4.5396434740       -0.3527705874        1.7601285206
 O         -2.4656084158       -2.6979229912        0.0689239177
 H         -4.0049681222       -3.2581221343       -2.0418063271
 H         -2.2874471256       -3.2624752083       -2.4431865098
 H         -3.3295133268       -1.9646672831       -3.0563682375
 H         -4.2280824061       -0.1950830048       -1.3488557021
 H         -4.9305703770       -1.5480448127       -0.4198499851
 H         -3.6378551884        2.3733559919       -0.5267777784
 H         -1.7465493076        3.9490125896       -0.9871088639
 H          0.7928570701        1.6300099372        1.5452703782
 H         -1.1095463802        0.0460552907        1.9778071358
 H         -0.5893920180       -2.1341521620       -0.2275387603
 H          1.5792722239       -2.1083915025        0.5497191702
 H          2.4601344415        1.9145097540       -2.1723592486
 H          0.2263170892        0.8654897392       -2.2130785050
 H         -2.7259979096       -2.3178922426        0.9339244968
  43
  -89.951771010000002        2.2879926157989214E-002 !
 C         -3.1391038728       -2.6236043731       -2.2191656219
 C         -2.8356961537       -1.8043275977       -0.9543271362
 C         -4.0405005156       -0.9430613263       -0.5828763263
 S         -3.7728186555       -0.0524402709        0.9926867512
 O         -4.9769885046        0.6561523908        1.3063627380
 O         -3.2954281348       -1.0311557631        1.9497713964
 C         -2.4455780435        1.1240285755        0.7211620254
 C         -2.6668394072        2.2176323962       -0.0948088667
 C         -1.6283071428        3.0955301395       -0.3455190904
 C         -0.3967440894        2.8508314799        0.2413499063
 C         -0.1760120842        1.7757926139        1.0865928916
 C         -1.2214922739        0.9005063573        1.3223302021
 F          0.6235036395        3.6828054629       -0.0213262928
 C         -1.6653825473       -0.8572101949       -1.3096388727
 O         -1.8277263983        0.1295107234       -1.9957792756
 N         -0.4916634885       -1.2880810995       -0.7897819912
 C          0.7532815380       -0.6818438922       -0.8294119985
 C          1.7707918285       -1.2292483422       -0.0453319941
 C          3.0220329488       -0.6451190964       -0.0276373196
 C          3.2825557360        0.4996311343       -0.7921360037
 C          2.2622022388        1.0334724568       -1.5802947218
 C          1.0128643500        0.4507095511       -1.6027594044
 C          4.5552760939        1.1191249621       -0.7793223714
 N          5.5758271347        1.6380611248       -0.7874801796
 C          4.1207979573       -1.2229218729        0.8253440168
 F          5.1959988845       -1.5737766610        0.1056257139
 F          3.7314373313       -2.3242907107        1.4849612342
 F          4.5422832870       -0.3549887819        1.7591515577
 O         -2.4652310313       -2.6996920862        0.0661169573
 H         -2.2877973403       -3.2598600611       -2.4469066457
 H         -3.3297447771       -1.9607085382       -3.0575097151
 H         -4.0051564440       -3.2556554390       -2.0448049117
 H         -4.2281604031       -0.1945420825       -1.3469910671
 H         -4.9297400991       -1.5485380528       -0.4187932290
 H         -3.6431904607        2.3730341240       -0.5237457137
 H         -1.7556155581        3.9522544341       -0.9871969548
 H          0.7928554467        1.6368464609        1.5393556135
 H         -1.1057308272        0.0490518113        1.9746437091
 H         -0.5891177099       -2.1348044600       -0.2285741356
 H          1.5789983101       -2.1093786848        0.5499288982
 H          2.4617360548        1.9142638631       -2.1705357230
 H          0.2271885047        0.8667574871       -2.2110659244
 H         -2.7234100435       -2.3200680898        0.9319749893
  43
  -89.951770999999994        2.2879684044879830E-002 !
 C         -3.1681117453       -2.6624378953       -2.1325506687
 C         -2.8528578967       -1.8102192614       -0.8925991659
 C         -4.0500454708       -0.9308481272       -0.5394754009
 S         -3.7693622876        0.0001556888        1.0102472180
 O         -4.9662835665        0.7275431806        1.3081921077
 O         -3.2972236911       -0.9562554393        1.9921688483
 C         -2.4328952843        1.1572730376        0.7029927360
 C         -2.6473926064        2.2305444138       -0.1412944612
 C         -1.6022534381        3.0926010201       -0.4182087573
 C         -0.3709797100        2.8530626648        0.1713921806
 C         -0.1567484416        1.7990893895        1.0443760850
 C         -1.2088877248        0.9394005107        1.3064111346
 F          0.6554503435        3.6690216188       -0.1162605356
 C         -1.6782223642       -0.8812592142       -1.2800350753
 O         -1.8377109655        0.0873725494       -1.9921117624
 N         -0.5046268845       -1.3056423548       -0.7546071403
 C          0.7438914275       -0.7087131409       -0.8165244682
 C          1.7617473731       -1.2410813724       -0.0225514595
 C          3.0163244900       -0.6639706743       -0.0257324446
 C          3.2801642648        0.4583590937       -0.8217261372
 C          2.2594649519        0.9768705938       -1.6196014053
 C          1.0067091188        0.4010101752       -1.6211809107
 C          4.5565986966        1.0700497931       -0.8313676184
 N          5.5798295148        1.5829632191       -0.8567204604
 C          4.1154312778       -1.2251347895        0.8378363880
 F          4.5448864738       -0.3354897254        1.7472902689
 F          5.1860909621       -1.6000095742        0.1235175151
 F          3.7229703859       -2.3069590602        1.5273008433
 O         -2.4829309574       -2.6791123261        0.1507114232
 H         -3.3601737800       -2.0218532250       -2.9878127176
 H         -4.0365535451       -3.2846284624       -1.9358622848
 H         -2.3216332014       -3.3093482894       -2.3474900067
 H         -4.2361148299       -0.2020443186       -1.3228068009
 H         -4.9426566743       -1.5254287151       -0.3550793186
 H         -3.6236601812        2.3826804812       -0.5715748625
 H         -1.7243239736        3.9330300092       -1.0820654542
 H          0.8122999303        1.6639819057        1.4979261154
 H         -1.0982397458        0.1045083716        1.9806264978
 H         -0.6047529176       -2.1359131879       -0.1697805241
 H          1.5674558615       -2.1036584736        0.5970727726
 H          2.4614537586        1.8403898391       -2.2340222644
 H          0.2208651237        0.8050543090       -2.2373345977
 H         -2.7359656364       -2.2747888489        1.0068392281
  43
  -89.951770949999997        2.2878473518794736E-002 !
 C         -3.1412912282       -2.6217059626       -2.2209805400
 C         -2.8359583414       -1.8050090643       -0.9549681174
 C         -4.0397900651       -0.9436881650       -0.5803606509
 S         -3.7684690896       -0.0540575561        0.9951536746
 O         -4.9730576429        0.6517101387        1.3135702849
 O         -3.2858034633       -1.0326346673        1.9497634948
 C         -2.4446839714        1.1255854043        0.7205703124
 C         -1.2189949975        0.9054533141        1.3197054284
 C         -0.1761814318        1.7833297760        1.0818113906
 C         -0.4011918972        2.8575661950        0.2366863840
 C         -1.6343802218        3.0988418975       -0.3481798199
 C         -2.6701396200        2.2182202168       -0.0955579944
 F          0.6163740845        3.6922042250       -0.0278815055
 C         -1.6655850942       -0.8578296586       -1.3097631124
 O         -1.8279749387        0.1294192324       -1.9951472215
 N         -0.4919412309       -1.2889148288       -0.7899691067
 C          0.7530332562       -0.6827483504       -0.8289728109
 C          1.7706346554       -1.2312240322       -0.0457047572
 C          3.0217187300       -0.6468838831       -0.0270709522
 C          3.2822101896        0.4989728518       -0.7899621037
 C          2.2617919942        1.0338672125       -1.5773113253
 C          1.0125330814        0.4509060462       -1.6006813011
 C          4.5549912874        1.1182124713       -0.7765468509
 N          5.5753811886        1.6375440695       -0.7828478642
 C          4.1205035651       -1.2257523875        0.8251544513
 F          5.1967293878       -1.5731702071        0.1053264830
 F          3.7319158811       -2.3293841738        1.4814291630
 F          4.5401903876       -0.3599387880        1.7617625547
 O         -2.4651035050       -2.7025213237        0.0633876949
 H         -3.3318077824       -1.9570630503       -3.0580323649
 H         -4.0079645789       -3.2531023667       -2.0472162444
 H         -2.2908720658       -3.2583883004       -2.4503921391
 H         -4.2290768973       -0.1946531579       -1.3435619604
 H         -4.9287711043       -1.5490881478       -0.4145824514
 H         -1.0999184869        0.0545434299        1.9720988975
 H          0.7937860794        1.6470584658        1.5330408587
 H         -1.7650802966        3.9550805517       -0.9898199079
 H         -3.6476578442        2.3710722681       -0.5227470597
 H         -0.5894007597       -2.1363680022       -0.2298234175
 H          1.5789605277       -2.1121455853        0.5483987679
 H          2.4611749186        1.9155375692       -2.1662912740
 H          0.2268812360        0.8675712790       -2.2086148245
 H         -2.7197914267       -2.3230431337        0.9303414469
  43
  -89.951770949999997        2.2878473518794736E-002 !
 C         -3.1728036979       -2.6610225826       -2.1348398659
 C         -2.8552047739       -1.8097140614       -0.8948584177
 C         -4.0509824108       -0.9290750985       -0.5400869314
 S         -3.7680013156       -0.0000021493        1.0103637124
 O         -4.9630194997        0.7302695291        1.3088318920
 O         -3.2984763272       -0.9584897066        1.9915073478
 C         -2.4284131329        1.1538752289        0.7042915111
 C         -2.6396390163        2.2280922722       -0.1396421001
 C         -1.5921951605        3.0877409415       -0.4153054162
 C         -0.3620140353        2.8450698384        0.1753043699
 C         -0.1510285725        1.7901876609        1.0479754061
 C         -1.2054037628        0.9328041721        1.3086049394
 F          0.6666307180        3.6585869837       -0.1112978932
 C         -1.6800168925       -0.8818866372       -1.2833674046
 O         -1.8392095928        0.0865057866       -1.9958202081
 N         -0.5064411768       -1.3066001398       -0.7581660439
 C          0.7420145489       -0.7095011499       -0.8203131815
 C          1.7587130043       -1.2382580388       -0.0224739910
 C          3.0130193346       -0.6605283835       -0.0257362482
 C          3.2777878769        0.4585824966       -0.8259083699
 C          2.2582708685        0.9734329745       -1.6276281204
 C          1.0057409976        0.3970916833       -1.6289607740
 C          4.5540624633        1.0707188190       -0.8359432949
 N          5.5774836193        1.5834290876       -0.8623894834
 C          4.1106767243       -1.2173192178        0.8424856988
 F          4.5374701228       -0.3235017854        1.7491158610
 F          5.1831543932       -1.5944385034        0.1321242203
 F          3.7174665925       -2.2964785367        1.5357121263
 O         -2.4849979394       -2.6793652236        0.1477222069
 H         -4.0426352125       -3.2812488154       -1.9380837881
 H         -2.3278563147       -3.3098361193       -2.3500758500
 H         -3.3635875665       -2.0198295546       -2.9899449980
 H         -4.2365496279       -0.1993373813       -1.3226674714
 H         -4.9443190236       -1.5225354993       -0.3555708624
 H         -3.6151329995        2.3827613895       -0.5707658968
 H         -1.7116553831        3.9286467554       -1.0790333989
 H          0.8172841217        1.6526392626        1.5023747464
 H         -1.0974730979        0.0976216886        1.9829091795
 H         -0.6068041391       -2.1361321263       -0.1723505896
 H          1.5637421763       -2.0984668365        0.6002179129
 H          2.4609923059        1.8345172588       -2.2452158860
 H          0.2205980130        0.7987594213       -2.2475545232
 H         -2.7381501633       -2.2759645390        1.0042313480
  43
  -89.951770900000000        2.2877263056756567E-002 !
 C         -3.1137357891       -2.5888868705       -2.2994779009
 C         -2.8211177198       -1.7973504739       -1.0145431546
 C         -4.0329643824       -0.9524728456       -0.6288212999
 S         -3.7799640296       -0.1004541193        0.9702945089
 O         -4.9879153568        0.5982932180        1.2913285595
 O         -3.3087666856       -1.1018558451        1.9067471423
 C         -2.4525199187        1.0845058756        0.7393885254
 C         -2.6691279532        2.1985201472       -0.0498052483
 C         -1.6302135743        3.0843695337       -0.2690549869
 C         -0.4029946869        2.8264948950        0.3212674028
 C         -0.1871726955        1.7302811235        1.1401579178
 C         -1.2329288311        0.8474831475        1.3445674740
 F          0.6178023462        3.6666979070        0.0886457998
 C         -1.6553150211       -0.8349977603       -1.3426837783
 O         -1.8211680978        0.1668196363       -2.0056854819
 N         -0.4809324302       -1.2708947316       -0.8285610474
 C          0.7598881485       -0.6552608264       -0.8475433857
 C          1.7769301873       -1.2128211199       -0.0700008145
 C          3.0233838248       -0.6196149995       -0.0311057019
 C          3.2796862488        0.5442791405       -0.7676238699
 C          2.2600679363        1.0880867013       -1.5498834103
 C          1.0154652155        0.4964199035       -1.5934277192
 C          4.5476587757        1.1725392663       -0.7333786153
 N          5.5641520313        1.6994838382       -0.7226243239
 C          4.1213142466       -1.2081882608        0.8155455156
 F          3.7370485125       -2.3283216645        1.4459488085
 F          4.5285634665       -0.3592808239        1.7728983639
 F          5.2045804900       -1.5322958103        0.0954387687
 O         -2.4491533218       -2.7136932243       -0.0133665963
 H         -2.2571771563       -3.2137716155       -2.5383012104
 H         -3.3054692715       -1.9078069630       -3.1229303674
 H         -3.9762053844       -3.2306818960       -2.1437964382
 H         -4.2204663049       -0.1861082728       -1.3750925395
 H         -4.9197121415       -1.5667497438       -0.4852083067
 H         -3.6422137759        2.3633555151       -0.4825965079
 H         -1.7539380989        3.9573389442       -0.8891683684
 H          0.7782134543        1.5812616547        1.5971507114
 H         -1.1207672340       -0.0206496098        1.9751318515
 H         -0.5753739092       -2.1309453333       -0.2874833855
 H          1.5883512034       -2.1076403835        0.5039869755
 H          2.4563119935        1.9836594923       -2.1186057096
 H          0.2300836900        0.9206382361       -2.1964771376
 H         -2.7177131536       -2.3584126171        0.8596186310
  43
  -89.951770879999998        2.2876778889804876E-002 !
 C         -3.1184865162       -2.5864354129       -2.3022421964
 C         -2.8228608490       -1.7972541486       -1.0165743277
 C         -4.0331453167       -0.9516580292       -0.6274034026
 S         -3.7760026115       -0.1017530110        0.9721786277
 O         -4.9829844185        0.5968888312        1.2970660214
 O         -3.3028032910       -1.1044811853        1.9062118686
 C         -2.4488057027        1.0832213847        0.7398124650
 C         -2.6662549191        2.1973910564       -0.0489238642
 C         -1.6275929688        3.0833106813       -0.2690465008
 C         -0.3998084308        2.8254609137        0.3201186966
 C         -0.1831514574        1.7291411686        1.1386466758
 C         -1.2286403029        0.8461890120        1.3438054475
 F          0.6207493248        3.6656929379        0.0865469264
 C         -1.6567273311       -0.8353999840       -1.3449506234
 O         -1.8225207939        0.1669247459       -2.0071893542
 N         -0.4822463364       -1.2720286374       -0.8316565858
 C          0.7584779401       -0.6561462096       -0.8500229895
 C          1.7747255976       -1.2123809492       -0.0705045543
 C          3.0208999900       -0.6186441358       -0.0307344496
 C          3.2777832830        0.5443086302       -0.7685433914
 C          2.2590116824        1.0866704539       -1.5528942669
 C          1.0146418323        0.4945726343       -1.5971797745
 C          4.5454495523        1.1731461243       -0.7333704520
 N          5.5616952897        1.7004785025       -0.7219121017
 C          4.1177841134       -1.2054050042        0.8185258236
 F          3.7327874690       -2.3242429557        1.4507776422
 F          4.5237231954       -0.3544524419        1.7746227256
 F          5.2020022340       -1.5309343662        0.1005045617
 O         -2.4502477837       -2.7155444555       -0.0174465092
 H         -3.3109328474       -1.9038368443       -3.1242711746
 H         -3.9813622213       -3.2275642323       -2.1460529830
 H         -2.2629933964       -3.2118273922       -2.5435470749
 H         -4.2215088690       -0.1842287375       -1.3723611785
 H         -4.9201608952       -1.5652869824       -0.4826462151
 H         -3.6397202130        2.3622331629       -0.4808603836
 H         -1.7519080674        3.9562759838       -0.8890468837
 H          0.7826156546        1.5802040319        1.5948508945
 H         -1.1160009049       -0.0217427834        1.9745412554
 H         -0.5767300351       -2.1323339655       -0.2909776894
 H          1.5857532531       -2.1065948091        0.5042829553
 H          2.4557820241        1.9813802798       -2.1227534961
 H          0.2300757850        0.9173758963       -2.2022656124
 H         -2.7163013870       -2.3609310162        0.8565728133
  43
  -89.951770809999999        2.2875084386337702E-002 !
 C         -3.1413286140       -2.6204655844       -2.2220337698
 C         -2.8356235020       -1.8051842188       -0.9552116709
 C         -4.0393427799       -0.9442129753       -0.5793411474
 S         -3.7668459163       -0.0551021958        0.9963163702
 O         -4.9719504267        0.6487401705        1.3170706735
 O         -3.2812151461       -1.0334637390        1.9496508418
 C         -2.4452417510        1.1266338838        0.7203179463
 C         -1.2186068506        0.9084901537        1.3182246812
 C         -0.1773758169        1.7878884224        1.0790439831
 C         -0.4048877996        2.8615640218        0.2338731167
 C         -1.6390877533        3.1009171130       -0.3496492749
 C         -2.6732567714        2.2188073460       -0.0957052674
 F          0.6110961386        3.6977737578       -0.0318259411
 C         -1.6652914383       -0.8576331035       -1.3090977455
 O         -1.8276769505        0.1301090225       -1.9937814786
 N         -0.4917005460       -1.2889112183       -0.7893507019
 C          0.7533123075       -0.6828162279       -0.8280267132
 C          1.7710165663       -1.2321678116       -0.0454933225
 C          3.0221618726       -0.6479729991       -0.0265173067
 C          3.2825890745        0.4986406354       -0.7883000828
 C          2.2620486305        1.0344635881       -1.5748612610
 C          1.0127439801        0.4516101185       -1.5986204717
 C          4.5554787877        1.1176541873       -0.7747629912
 N          5.5759254234        1.6368095291       -0.7811738019
 C          4.1211935752       -1.2279738761        0.8246195980
 F          5.1964404081       -1.5762219945        0.1036852181
 F          3.7322405175       -2.3314208847        1.4809749960
 F          4.5425638687       -0.3627522768        1.7609940154
 O         -2.4647393673       -2.7038287098        0.0621014981
 H         -2.2910661854       -3.2570082933       -2.4524267064
 H         -3.3319995505       -1.9548557607       -3.0582826876
 H         -4.0080254682       -3.2519461386       -2.0487100355
 H         -4.2294377760       -0.1949745177       -1.3421392953
 H         -4.9280201608       -1.5499607101       -0.4131905629
 H         -1.0975422800        0.0578301432        1.9705800251
 H          0.7932276766        1.6532661867        1.5293984093
 H         -1.7717788362        3.9568652396       -0.9912736955
 H         -3.6514219376        2.3700284598       -0.5220013960
 H         -0.5890770919       -2.1369360827       -0.2300468983
 H          1.5793541120       -2.1136635138        0.5477632749
 H          2.4613904533        1.9167252117       -2.1629704610
 H          0.2270454301        0.8689157468       -2.2060564515
 H         -2.7176883311       -2.3243420284        0.9295639232
  43
  -89.951770809999999        2.2875084386337702E-002 !
 C         -3.1181280984       -2.5781455246       -2.3090983685
 C         -2.8209658442       -1.7971218817       -1.0188971267
 C         -4.0305064175       -0.9533641533       -0.6231209202
 S         -3.7675812746       -0.1068360829        0.9774003978
 O         -4.9777338615        0.5807109386        1.3140897113
 O         -3.2787842778       -1.1084621151        1.9046046437
 C         -2.4522368391        1.0898710369        0.7383628481
 C         -2.6837140685        2.2020047049       -0.0492368992
 C         -1.6540442275        3.0968962075       -0.2751636701
 C         -0.4207918844        2.8497046471        0.3070980613
 C         -0.1900528534        1.7552836541        1.1243102073
 C         -1.2267260809        0.8634210696        1.3354797542
 F          0.5910541861        3.6988530879        0.0680068814
 C         -1.6547684129       -0.8336079526       -1.3419404967
 O         -1.8200849035        0.1711294709       -2.0007058287
 N         -0.4809171025       -1.2715594863       -0.8284201413
 C          0.7602748621       -0.6566563253       -0.8446163074
 C          1.7767790702       -1.2180426539       -0.0691093467
 C          3.0238088177       -0.6262320775       -0.0280901835
 C          3.2813340129        0.5399383933       -0.7606100223
 C          2.2621171585        1.0878148656       -1.5405589261
 C          1.0168652238        0.4976403726       -1.5860852415
 C          4.5500784650        1.1665287206       -0.7244629932
 N          5.5671445262        1.6922330206       -0.7121150384
 C          4.1212003916       -1.2189467171        0.8163780870
 F          3.7352935524       -2.3398593861        1.4443164114
 F          4.5308981567       -0.3731233301        1.7753992648
 F          5.2032747520       -1.5433756502        0.0945728231
 O         -2.4486506521       -2.7218973383       -0.0258357725
 H         -3.9821464016       -3.2186364780       -2.1566938004
 H         -2.2637453037       -3.2036075937       -2.5541289324
 H         -3.3093181059       -1.8902771245       -3.1270205389
 H         -4.2224516086       -0.1843191678       -1.3654627299
 H         -4.9163567572       -1.5682262730       -0.4765182671
 H         -3.6609991799        2.3585265161       -0.4756376767
 H         -1.7893991984        3.9687321927       -0.8944442988
 H          0.7795373566        1.6146093715        1.5749893558
 H         -1.1030672801       -0.0034891773        1.9655723279
 H         -0.5756371521       -2.1346796649       -0.2922235048
 H          1.5873743003       -2.1148057918        0.5015607051
 H          2.4592298639        1.9851777634       -2.1061397565
 H          0.2320417908        0.9245161567       -2.1879684868
 H         -2.7061859730       -2.3679636263        0.8510335184
  43
  -89.951770609999997        2.2870243639285331E-002 !
 C         -3.1629939334       -2.6646488187       -2.1297656140
 C         -2.8509131774       -1.8102831082       -0.8904797421
 C         -4.0497956308       -0.9318941872       -0.5408457646
 S         -3.7732645141        0.0010688653        1.0084193679
 O         -4.9714073660        0.7278441956        1.3029182804
 O         -3.3024764315       -0.9538064302        1.9924730944
 C         -2.4370314244        1.1587557051        0.7024148799
 C         -2.6511458653        2.2318168078       -0.1422441382
 C         -1.6060340012        3.0941640680       -0.4183727754
 C         -0.3751719955        2.8550274401        0.1722521257
 C         -0.1613383956        1.8012392083        1.0455363904
 C         -1.2134323971        0.9412861597        1.3068258804
 F          0.6513169354        3.6711212521       -0.1148029701
 C         -1.6766408879       -0.8806016909       -1.2772978328
 O         -1.8362100076        0.0876612844       -1.9898539584
 N         -0.5031550148       -1.3041748637       -0.7509879997
 C          0.7455143264       -0.7076810498       -0.8137659235
 C          1.7640985886       -1.2414988860       -0.0217272778
 C          3.0190631127       -0.6652632360       -0.0261465735
 C          3.2823375996        0.4580977370       -0.8208462340
 C          2.2607968932        0.9783157559       -1.6165001589
 C          1.0077865483        0.4030251230       -1.6172576800
 C          4.5592818537        1.0687428836       -0.8319546091
 N          5.5825010023        1.5818311326       -0.8571785146
 C          4.1192692135       -1.2284327434        0.8347036374
 F          4.5491367683       -0.3410615462        1.7461897103
 F          5.1894442877       -1.6007894662        0.1183573884
 F          3.7280129118       -2.3123872784        1.5215171529
 O         -2.4816441043       -2.6773206401        0.1546209528
 H         -2.3157892562       -3.3115642077       -2.3417134649
 H         -3.3533910075       -2.0255479618       -2.9864874358
 H         -4.0316339462       -3.2868723174       -1.9340699672
 H         -4.2349503478       -0.2041238722       -1.3253534113
 H         -4.9421466397       -1.5272478180       -0.3577753292
 H         -3.6271057410        2.3835092311       -0.5734099814
 H         -1.7277755880        3.9344683354       -1.0824599122
 H          0.8072788557        1.6666820703        1.5001723919
 H         -1.1032636533        0.1068697843        1.9817102075
 H         -0.6031913780       -2.1341912642       -0.1657950617
 H          1.5700813806       -2.1046004590        0.5972544730
 H          2.4621231141        1.8431832092       -2.2292540005
 H          0.2208006867        0.8094443988       -2.2304125446
 H         -2.7368895950       -2.2723369168        1.0097745204
  43
  -89.951770560000000        2.2869033612676417E-002 !
 C         -3.1688456438       -2.6674023319       -2.1293854288
 C         -2.8541973636       -1.8107828057       -0.8922517465
 C         -4.0513311174       -0.9297591336       -0.5432339427
 S         -3.7735188613        0.0034770418        1.0056191552
 O         -4.9683138043        0.7371489277        1.2965345768
 O         -3.3103718001       -0.9530742045        1.9916536191
 C         -2.4300832614        1.1534863252        0.7018956905
 C         -1.2093788624        0.9300609432        1.3099911656
 C         -0.1519383555        1.7841306653        1.0509132575
 C         -0.3576001494        2.8381582406        0.1759445473
 C         -1.5854896251        3.0832869519       -0.4184071617
 C         -2.6360547758        2.2269515386       -0.1442754444
 F          0.6740301001        3.6485169479       -0.1089355162
 C         -1.6790591803       -0.8836320158       -1.2825515602
 O         -1.8380211482        0.0826684646       -1.9978655247
 N         -0.5056204243       -1.3068915978       -0.7558598442
 C          0.7428303321       -0.7099094272       -0.8192938361
 C          1.7593503706       -1.2364948090       -0.0198012265
 C          3.0136047230       -0.6586618635       -0.0241977720
 C          3.2785655878        0.4583237053       -0.8272684381
 C          2.2592572102        0.9708875417       -1.6307357619
 C          1.0067510414        0.3945019087       -1.6308567233
 C          4.5548416226        1.0703772411       -0.8387156623
 N          5.5781631225        1.5831765809       -0.8660558657
 C          4.1110016613       -1.2129966089        0.8459183508
 F          4.5375338732       -0.3166879482        1.7502073667
 F          5.1836901652       -1.5921274311        0.1369515438
 F          3.7175529918       -2.2902290567        1.5420334610
 O         -2.4848171433       -2.6758092380        0.1545308648
 H         -3.3596506000       -2.0298520719       -2.9871974935
 H         -4.0378914809       -3.2883065784       -1.9313433835
 H         -2.3225887382       -3.3156564838       -2.3410947119
 H         -4.2348516320       -0.2021262397       -1.3282591640
 H         -4.9449783969       -1.5231059531       -0.3598688499
 H         -1.1055084144        0.0955273787        1.9857294224
 H          0.8147480922        1.6446491277        1.5081681877
 H         -1.7008266559        3.9235292980       -1.0836950436
 H         -3.6098944766        2.3834051026       -0.5784740953
 H         -0.6062075678       -2.1345571954       -0.1674678679
 H          1.5642085116       -2.0949519246        0.6052399049
 H          2.4621271448        1.8303033634       -2.2505871256
 H          0.2217826579        0.7944410639       -2.2507924032
 H         -2.7426416605       -2.2708200979        1.0088987299
  43
  -89.951769780000006        2.2850165483855368E-002 !
 C         -3.1034589935       -2.5905881678       -2.2958083648
 C         -2.8181916458       -1.7944157719       -1.0120067653
 C         -4.0335338489       -0.9510184863       -0.6343201117
 S         -3.7910468384       -0.0963466731        0.9649568858
 O         -5.0004010831        0.6043878481        1.2761761511
 O         -3.3275343915       -1.0965600651        1.9064736476
 C         -2.4605672634        1.0863755882        0.7405200753
 C         -1.2434556946        0.8460651396        1.3493924614
 C         -0.1950655286        1.7266642020        1.1490010022
 C         -0.4058113694        2.8240011386        0.3303048571
 C         -1.6305239904        3.0850946941       -0.2637655488
 C         -2.6721035043        2.2013972488       -0.0485922928
 F          0.6177411491        3.6619018788        0.1013710019
 C         -1.6527337387       -0.8311433307       -1.3387025267
 O         -1.8182754308        0.1702834396       -2.0023465588
 N         -0.4787251272       -1.2664464157       -0.8231747829
 C          0.7625755235       -0.6518079345       -0.8430430068
 C          1.7811284783       -1.2130469772       -0.0701113680
 C          3.0285405513       -0.6217234659       -0.0331227106
 C          3.2842712870        0.5441135770       -0.7667687845
 C          2.2629900832        1.0918955702       -1.5440952723
 C          1.0175388829        0.5018754954       -1.5860490285
 C          4.5531737994        1.1705815271       -0.7343638441
 N          5.5703111058        1.6961913009       -0.7252442364
 C          4.1285012452       -1.2150292376        0.8075700904
 F          3.7442974692       -2.3361122207        1.4363440731
 F          4.5417821704       -0.3698514707        1.7655719415
 F          5.2080011001       -1.5396299527        0.0819773222
 O         -2.4482092590       -2.7068786931       -0.0064772849
 H         -3.2939151734       -1.9125509914       -3.1220698144
 H         -3.9647251376       -3.2343470343       -2.1415545017
 H         -2.2442638425       -3.2138021838       -2.5294792596
 H         -4.2179731990       -0.1859456140       -1.3827088075
 H         -4.9201203961       -1.5664715942       -0.4948613187
 H         -1.1353797697       -0.0225658302        1.9800087247
 H          0.7685800157        1.5750310604        1.6087780701
 H         -1.7501901322        3.9586703591       -0.8837922761
 H         -3.6434150981        2.3685139285       -0.4844772725
 H         -0.5733991065       -2.1262846921       -0.2818474597
 H          1.5930710176       -2.1094330368        0.5015813502
 H          2.4586844818        1.9891380485       -2.1103678621
 H          0.2312174571        0.9285105070       -2.1861761285
 H         -2.7240756036       -2.3512910060        0.8640855534
  43
  -89.951769339999998        2.2839528792120319E-002 !
 C         -3.1520897664       -2.6177856345       -2.2256411710
 C         -2.8396390215       -1.8068997952       -0.9577312346
 C         -4.0398203852       -0.9438904321       -0.5748868198
 S         -3.7569712837       -0.0569147479        1.0001196471
 O         -4.9600661895        0.6465423511        1.3297060696
 O         -3.2655569757       -1.0366738823        1.9489851678
 C         -2.4370302578        1.1255996333        0.7186438436
 C         -1.2109059276        0.9127647965        1.3194870281
 C         -0.1711404130        1.7933401558        1.0782754709
 C         -0.3994653293        2.8626839837        0.2278556179
 C         -1.6331055636        3.0965537743       -0.3590562874
 C         -2.6659240158        2.2135987316       -0.1027272447
 F          0.6152059194        3.6997807308       -0.0401300445
 C         -1.6687345054       -0.8604903274       -1.3127072043
 O         -1.8308571607        0.1264810944       -1.9986102454
 N         -0.4954180999       -1.2908669314       -0.7916808022
 C          0.7492909271       -0.6840766662       -0.8296158596
 C          1.7665499176       -1.2324028856       -0.0458040936
 C          3.0171346789       -0.6470813237       -0.0254027120
 C          3.2773311985        0.4999419239       -0.7867069044
 C          2.2573952003        1.0344023529       -1.5749544249
 C          1.0087286852        0.4502431859       -1.6003345237
 C          4.5493385026        1.1208832347       -0.7702708918
 N          5.5690543629        1.6412478587       -0.7733112594
 C          4.1153036113       -1.2256302879        0.8278340983
 F          5.1956439449       -1.5650737438        0.1104703177
 F          3.7289223386       -2.3340150925        1.4773201497
 F          4.5278388506       -0.3625035969        1.7701947180
 O         -2.4675154906       -2.7090726296        0.0558680693
 H         -4.0214884189       -3.2454755201       -2.0520817869
 H         -2.3053361578       -3.2578059237       -2.4592018552
 H         -3.3412380923       -1.9492223946       -3.0598949806
 H         -4.2329208101       -0.1938949692       -1.3361504721
 H         -4.9285787194       -1.5482353602       -0.4040939654
 H         -1.0891324264        0.0651149668        1.9756440994
 H          0.7989788749        1.6627264342        1.5309015632
 H         -1.7663775531        3.9490233044       -1.0052237871
 H         -3.6434899881        2.3610152152       -0.5317583200
 H         -0.5927204663       -2.1390326345       -0.2325684792
 H          1.5749425816       -2.1139855243        0.5473352244
 H          2.4565941032        1.9168794339       -2.1627824938
 H          0.2234047665        0.8666841843       -2.2088590993
 H         -2.7137117446       -2.3296122221        0.9253208807
  43
  -89.951765670000000        2.2751001779492377E-002 !
 C         -3.2201090612       -1.8700841492       -2.8296970425
 C         -2.8620372473       -1.6967141464       -1.3500860860
 C         -3.7954963499       -0.6984634842       -0.6645386817
 S         -3.1465458911       -0.3515253727        1.0196830019
 O         -4.2750101957       -0.1630895277        1.8857737194
 O         -2.2407596009       -1.4374653944        1.3473927728
 C         -2.2072851219        1.1739362875        0.9698243705
 C         -0.8701438179        1.1575205392        1.3165605394
 C         -0.1432938526        2.3340730655        1.2848305847
 C         -0.7905173102        3.4984096372        0.9042376534
 C         -2.1354693026        3.5246782904        0.5691735521
 C         -2.8506599175        2.3413563463        0.6062316111
 F         -0.0974219225        4.6455847211        0.8701676410
 C         -1.4470706748       -1.0911846133       -1.2520067313
 O         -1.2659972019        0.1025315525       -1.3714161403
 N         -0.4930288838       -2.0295352662       -1.0423994899
 C          0.8425814044       -1.8470729295       -0.7281436121
 C          1.4394511205       -0.5853641997       -0.7392334798
 C          2.7685539061       -0.4533109429       -0.3863735483
 C          3.5325774337       -1.5706934531       -0.0271829195
 C          2.9304722081       -2.8304621911       -0.0345368926
 C          1.6033922834       -2.9651321678       -0.3779299911
 C          4.8916858580       -1.4515629258        0.3481696375
 N          5.9914887244       -1.3891731134        0.6612161190
 C          3.4082008252        0.9094872016       -0.3587767357
 F          4.5148348640        0.9762902053       -1.1120068791
 F          3.7662613992        1.2653745563        0.8890762318
 F          2.5904535877        1.8752075828       -0.7982536932
 O         -2.9127665456       -2.9615920104       -0.7395644854
 H         -4.2515426800       -2.1995123264       -2.9172153608
 H         -2.5768643069       -2.6271434889       -3.2703373325
 H         -3.0881648758       -0.9312323385       -3.3588420587
 H         -3.8288757537        0.2431595018       -1.2026357234
 H         -4.7935642832       -1.1082407887       -0.5317422828
 H         -0.4175773306        0.2226118622        1.6071928421
 H          0.9027829385        2.3626948522        1.5445914854
 H         -2.5988738291        4.4566015685        0.2872127184
 H         -3.9026685739        2.3215605503        0.3691557633
 H         -0.8620155605       -2.9731041400       -0.9429041206
 H          0.8574881713        0.2792940520       -1.0140264412
 H          3.5165981062       -3.6943575742        0.2389000874
 H          1.1426286680       -3.9416751384       -0.3699268185
 H         -2.7760468331       -2.8232799258        0.2160052636
  43
  -89.951765359999996        2.2743539755633924E-002 !
 C         -3.2239581265       -1.8766219848       -2.8269299865
 C         -2.8648762629       -1.6999248900       -1.3479649851
 C         -3.7975508716       -0.6997576276       -0.6640968603
 S         -3.1492139424       -0.3498358130        1.0196877657
 O         -4.2780372608       -0.1522028214        1.8832082657
 O         -2.2495080271       -1.4392286159        1.3527879424
 C         -2.2012497487        1.1702065532        0.9666801242
 C         -0.8649746720        1.1468559338        1.3163905922
 C         -0.1312637179        2.3190857913        1.2839026564
 C         -0.7708531678        3.4863166052        0.8992408435
 C         -2.1148310099        3.5195513304        0.5608579436
 C         -2.8370682547        2.3405671304        0.5992021476
 F         -0.0709422677        4.6292264678        0.8637253622
 C         -1.4498249900       -1.0942040238       -1.2528442805
 O         -1.2687724038        0.0988606210       -1.3782234992
 N         -0.4958965866       -2.0310872337       -1.0364961026
 C          0.8391266668       -1.8460167781       -0.7210974353
 C          1.4359344255       -0.5843912914       -0.7420669667
 C          2.7639825250       -0.4488730402       -0.3866515130
 C          3.5269715167       -1.5627556253       -0.0146147445
 C          2.9251999785       -2.8227385965       -0.0129397697
 C          1.5992049773       -2.9608225115       -0.3591337684
 C          4.8837674572       -1.4392266231        0.3676813366
 N          5.9853812262       -1.3770589619        0.6744778838
 C          3.4026797050        0.9145265437       -0.3690946555
 F          4.5155695831        0.9739202796       -1.1135173844
 F          3.7499182610        1.2842597116        0.8778653853
 F          2.5881144336        1.8747298076       -0.8259989209
 O         -2.9153420019       -2.9633115635       -0.7344939579
 H         -2.5807355987       -2.6343143012       -3.2664997994
 H         -3.0930215511       -0.9388118933       -3.3581273012
 H         -4.2552643811       -2.2067993347       -2.9126901001
 H         -3.8302408435        0.2408426440       -1.2039766794
 H         -4.7959998105       -1.1084879243       -0.5307814616
 H         -0.4183913988        0.2099548262        1.6098809337
 H          0.9146370634        2.3420090597        1.5452645588
 H         -2.5720532747        4.4534040273        0.2754399149
 H         -3.8887085748        2.3265056115        0.3603598350
 H         -0.8647955134       -2.9741885711       -0.9320586906
 H          0.8545708748        0.2777556997       -1.0257753154
 H          3.5108177502       -3.6840998707        0.2694019335
 H          1.1386462431       -3.9373251938       -0.3438437089
 H         -2.7803898111       -2.8226096255        0.2210585149
  43
  -89.951765320000007        2.2742577092412272E-002 !
 C         -3.1938799616       -2.0504294080       -2.7246507439
 C         -2.8476342649       -1.7824583727       -1.2563946392
 C         -3.7880085281       -0.7447373409       -0.6428959913
 S         -3.1511059116       -0.2899565243        1.0201675016
 O         -4.2858351990       -0.0571450716        1.8671232676
 O         -2.2395961559       -1.3469066982        1.4189533046
 C         -2.2232288058        1.2368302676        0.8806930610
 C         -0.8876781228        1.2527920103        1.2335069444
 C         -0.1699871415        2.4310161786        1.1318421506
 C         -0.8245511622        3.5642150478        0.6770512429
 C         -2.1680870875        3.5588025887        0.3354105539
 C         -2.8740518227        2.3741907107        0.4426444692
 F         -0.1403244570        4.7127501941        0.5748889474
 C         -1.4342143355       -1.1695232688       -1.1858495957
 O         -1.2539062112        0.0153167653       -1.3745073762
 N         -0.4802524379       -2.0928125370       -0.9171413844
 C          0.8542308949       -1.8915459820       -0.6097297754
 C          1.4491000142       -0.6310804815       -0.6854293033
 C          2.7774749225       -0.4787820068       -0.3379900835
 C          3.5428503357       -1.5748823777        0.0793263394
 C          2.9425817813       -2.8342022410        0.1372973272
 C          1.6161055886       -2.9885430434       -0.2000969908
 C          4.9016848771       -1.4341977642        0.4481703563
 N          6.0014109621       -1.3535947560        0.7573250893
 C          3.4159411450        0.8841716912       -0.3809820314
 F          2.5936557891        1.8273519479       -0.8594822379
 F          4.5161144582        0.9149203779       -1.1461622050
 F          3.7844518590        1.3000611671        0.8449077375
 O         -2.9010425631       -3.0061492451       -0.5671091570
 H         -3.0600662878       -1.1467326819       -3.3113955636
 H         -4.2238744477       -2.3875912418       -2.7987849706
 H         -2.5455831898       -2.8321651262       -3.1115297605
 H         -3.8190915458        0.1606161069       -1.2401228776
 H         -4.7862092271       -1.1475649287       -0.4912778464
 H         -0.4292386136        0.3414127956        1.5835438169
 H          0.8747458238        2.4841362533        1.3930209065
 H         -2.6375252681        4.4677015465       -0.0055659436
 H         -3.9246995981        2.3310708661        0.2026772037
 H         -0.8487219377       -3.0294894358       -0.7648696358
 H          0.8661891494        0.2171055664       -1.0058609199
 H          3.5297168170       -3.6818480396        0.4557915404
 H          1.1567184660       -3.9639837801       -0.1415081114
 H         -2.7690783356       -2.8074140741        0.3783318063
  43
  -89.951765150000000        2.2738486226995674E-002 !
 C         -3.1845964067       -1.8915800342       -2.8456462649
 C         -2.8495763533       -1.6970586795       -1.3632895718
 C         -3.7875464320       -0.6824038622       -0.7088404428
 S         -3.1617191034       -0.3128716627        0.9793835956
 O         -4.3019980340       -0.1133722975        1.8273984000
 O         -2.2605310067       -1.3941146857        1.3340531109
 C         -2.2229030097        1.2124841402        0.9212582930
 C         -2.8626080288        2.3739132563        0.5328290076
 C         -2.1482533692        3.5575004467        0.4886593327
 C         -0.8077783133        3.5374107292        0.8415220776
 C         -0.1644050501        2.3792812749        1.2467245294
 C         -0.8904244398        1.2024429831        1.2856628815
 F         -0.1153961921        4.6848813313        0.8004347968
 C         -1.4321815838       -1.0996089532       -1.2514785863
 O         -1.2412774977        0.0915946573       -1.3801854529
 N         -0.4876000946       -2.0426294986       -1.0208238783
 C          0.8459272762       -1.8675815011       -0.6939145975
 C          1.4508416932       -0.6096760615       -0.7017549329
 C          2.7777227849       -0.4856236819       -0.3378030415
 C          3.5317489954       -1.6073772121        0.0288254078
 C          2.9215112150       -2.8631741178        0.0191472390
 C          1.5963956970       -2.9897765511       -0.3347023814
 C          4.8889381301       -1.4962501314        0.4135260173
 N          5.9872999423       -1.4402424632        0.7330340792
 C          3.4269161639        0.8725859886       -0.3076082553
 F          4.5319612877        0.9334211098       -1.0639316904
 F          3.7910910896        1.2226945314        0.9399128857
 F          2.6148675105        1.8454300141       -0.7421958199
 O         -2.9183070929       -2.9519860516       -0.7340822756
 H         -3.0384011332       -0.9619898427       -3.3872512824
 H         -4.2164997026       -2.2162266997       -2.9447018201
 H         -2.5390842135       -2.6592745969       -3.2640192468
 H         -3.8066967021        0.2507114190       -1.2622637124
 H         -4.7899999320       -1.0841511127       -0.5850430602
 H         -3.9113787990        2.3494974821        0.2822856832
 H         -2.6089402748        4.4848863048        0.1879186028
 H          0.8783296044        2.4127216381        1.5188533773
 H         -0.4408141786        0.2721894832        1.5951342430
 H         -0.8644637148       -2.9826467698       -0.9176398922
 H          0.8768132161        0.2581243876       -0.9833048551
 H          3.4997575485       -3.7303436285        0.2988422663
 H          1.1292425543       -3.9632657715       -0.3286890796
 H         -2.7926963923       -2.7999250109        0.2208225450
  43
  -89.951764999999995        2.2734877250976299E-002 !
 C         -3.2257991351       -1.9901038415       -2.7606808972
 C         -2.8555066067       -1.7718249202       -1.2900457219
 C         -3.7943712082       -0.7658029095       -0.6231657349
 S         -3.1357381638       -0.3648343248        1.0451566297
 O         -4.2592296060       -0.1509802714        1.9117283571
 O         -2.2260155577       -1.4386383224        1.4010616514
 C         -2.1977577240        1.1591856069        0.9445724664
 C         -0.8616165937        1.1544516793        1.2956017608
 C         -0.1349073320        2.3296585754        1.2290047325
 C         -0.7810763238        3.4809474823        0.8089789235
 C         -2.1249020288        3.4957653084        0.4686903115
 C         -2.8402247855        2.3142227580        0.5419889973
 F         -0.0883246237        4.6266653631        0.7407397280
 C         -1.4476756450       -1.1459136887       -1.2224511817
 O         -1.2830473885        0.0453767792       -1.3831553320
 N         -0.4800258924       -2.0635898970       -0.9856913284
 C          0.8530220795       -1.8507069611       -0.6794925716
 C          1.4320238832       -0.5821529463       -0.7403162233
 C          2.7581540997       -0.4168046841       -0.3903661422
 C          3.5368886590       -1.5076405692        0.0156730478
 C          2.9531882293       -2.7754736539        0.0560113147
 C          1.6291435485       -2.9430470552       -0.2847000862
 C          4.8919796108       -1.3538206445        0.3929782133
 N          5.9885101552       -1.2630972048        0.7104355189
 C          3.3758515804        0.9561734037       -0.4137676997
 F          3.7012194153        1.3745653657        0.8239605738
 F          2.5523698035        1.8866595014       -0.9140035896
 F          4.4970054907        1.0073975891       -1.1459906120
 O         -2.8849595395       -3.0197592954       -0.6445084757
 H         -4.2543755259       -2.3327582820       -2.8289030289
 H         -2.5785321143       -2.7523491898       -3.1862213122
 H         -3.1090111924       -1.0650282050       -3.3169471502
 H         -3.8438156270        0.1600809529       -1.1867126926
 H         -4.7863952201       -1.1831007214       -0.4698329007
 H         -0.4095902591        0.2294086421        1.6171095496
 H          0.9100468683        2.3669808561        1.4923911067
 H         -2.5875178680        4.4179609684        0.1552450840
 H         -3.8915161176        2.2870383599        0.3026748997
 H         -0.8355598829       -3.0081937187       -0.8524396873
 H          0.8385076336        0.2625051849       -1.0502038697
 H          3.5509600883       -3.6192367284        0.3647904838
 H          1.1825634670       -3.9250778568       -0.2390726319
 H         -2.7454559503       -2.8530705392        0.3062740988
  43
  -89.951764630000000        2.2725977559428952E-002 !
 C         -3.2278033319       -1.9931424696       -2.7580932855
 C         -2.8560811949       -1.7735237428       -1.2880318504
 C         -3.7937923488       -0.7663153033       -0.6212528016
 S         -3.1331509536       -0.3639218072        1.0459826966
 O         -4.2555903300       -0.1497165179        1.9138355800
 O         -2.2226860522       -1.4371936836        1.4016065637
 C         -2.1958095427        1.1603134293        0.9429416972
 C         -0.8588406413        1.1562298941        1.2908276681
 C         -0.1327901377        2.3317267192        1.2221797572
 C         -0.7805505328        3.4826983807        0.8037340233
 C         -2.1251946566        3.4968710149        0.4666359246
 C         -2.8397510550        2.3149757794        0.5416293669
 F         -0.0884810329        4.6287270727        0.7336638547
 C         -1.4479482378       -1.1480764951       -1.2223908967
 O         -1.2830677623        0.0429236189       -1.3849852361
 N         -0.4804269807       -2.0656207187       -0.9844752531
 C          0.8521890294       -1.8520410267       -0.6768879616
 C          1.4319618815       -0.5841025904       -0.7427301084
 C          2.7573956633       -0.4176540272       -0.3907030125
 C          3.5346568421       -1.5068052768        0.0225212588
 C          2.9502946234       -2.7741709122        0.0675608744
 C          1.6269541135       -2.9428297251       -0.2752753383
 C          4.8887940606       -1.3518730816        0.4027768919
 N          5.9843439797       -1.2601945751        0.7234000180
 C          3.3754378048        0.9550491083       -0.4191622606
 F          3.6938486111        1.3809132402        0.8178817418
 F          2.5548658799        1.8825271953       -0.9296593305
 F          4.5006808420        1.0017824660       -1.1453277916
 O         -2.8855642072       -3.0207510665       -0.6411054696
 H         -3.1111291593       -1.0686901208       -3.3154278146
 H         -4.2565820936       -2.3354273693       -2.8249554923
 H         -2.5812945613       -2.7561039439       -3.1834963049
 H         -3.8433553340        0.1589965000       -1.1857361543
 H         -4.7858794194       -1.1829200815       -0.4664675884
 H         -0.4055888882        0.2314562955        1.6113773466
 H          0.9127609091        2.3695743698        1.4831521370
 H         -2.5889857920        4.4188164788        0.1542053603
 H         -3.8916677669        2.2872829659        0.3051124084
 H         -0.8362190100       -3.0098131062       -0.8489974683
 H          0.8394122085        0.2594021451       -1.0575415935
 H          3.5469367216       -3.6166358614        0.3819620187
 H          1.1798595172       -3.9244444179       -0.2259508354
 H         -2.7450451886       -2.8531528672        0.3093500527
  43
  -89.951764420000003        2.2720927933044373E-002 !
 C         -3.2184053144       -2.0716091602       -2.7112773796
 C         -2.8625315640       -1.7936538175       -1.2471547760
 C         -3.7965564394       -0.7483807536       -0.6361352905
 S         -3.1526235134       -0.2826121364        1.0210396735
 O         -4.2834061348       -0.0155196556        1.8629900859
 O         -2.2622723379       -1.3516203882        1.4355880097
 C         -2.1921344184        1.2226964255        0.8653978078
 C         -0.8609420097        1.2155718772        1.2347449753
 C         -0.1169237389        2.3767464244        1.1262880195
 C         -0.7411738525        3.5168317183        0.6467735999
 C         -2.0800231151        3.5345909599        0.2875255704
 C         -2.8128449126        2.3672480564        0.4031551490
 F         -0.0315384359        4.6489370853        0.5375917507
 C         -1.4480935025       -1.1817764281       -1.1898303774
 O         -1.2670961531       -0.0009393484       -1.4019362886
 N         -0.4945851765       -2.0988474325       -0.8994967886
 C          0.8368539878       -1.8873245196       -0.5854371663
 C          1.4320956669       -0.6298720017       -0.6980125815
 C          2.7553263151       -0.4635103241       -0.3377674443
 C          3.5151853601       -1.5428758177        0.1300378011
 C          2.9155868335       -2.8005669191        0.2217956887
 C          1.5942801224       -2.9687486359       -0.1291181015
 C          4.8668778832       -1.3870132128        0.5185712877
 N          5.9601045431       -1.2939842270        0.8466939986
 C          3.3902414418        0.8994579889       -0.4176765853
 F          2.5837167701        1.8155086321       -0.9694771017
 F          4.5195466916        0.9031346215       -1.1391774550
 F          3.7079295606        1.3708366909        0.8028394323
 O         -2.9148097288       -3.0117120744       -0.5482553211
 H         -2.5755282788       -2.8591327524       -3.0954214479
 H         -3.0840277557       -1.1731081024       -3.3058029222
 H         -4.2501808958       -2.4049953054       -2.7769359100
 H         -3.8280220941        0.1524866104       -1.2400712049
 H         -4.7953831422       -1.1467998355       -0.4768384034
 H         -0.4262583314        0.2997254487        1.6031027000
 H          0.9248080394        2.4117132546        1.4024874997
 H         -2.5253744410        4.4480641664       -0.0729482597
 H         -3.8611493799        2.3437108293        0.1507183303
 H         -0.8630940118       -3.0323062950       -0.7283070292
 H          0.8531110241        0.2060554507       -1.0554174056
 H          3.4989068560       -3.6356907480        0.5780378948
 H          1.1352115382       -3.9423250495       -0.0436099441
 H         -2.7851221896       -2.8051805552        0.3960928649
  43
  -89.951764139999995        2.2714196842825902E-002 !
 C         -3.2307859064       -1.8802384770       -2.8234039742
 C         -2.8699658139       -1.7021139685       -1.3449791173
 C         -3.8017607741       -0.7005724337       -0.6617564948
 S         -3.1540527573       -0.3488385364        1.0217837683
 O         -4.2827215977       -0.1374740289        1.8821680242
 O         -2.2642527945       -1.4443621956        1.3613637875
 C         -2.1919003795        1.1621970712        0.9639207285
 C         -0.8578226855        1.1279315490        1.3211227633
 C         -0.1119870292        2.2924080665        1.2845272394
 C         -0.7373959372        3.4631702695        0.8876206460
 C         -2.0791396211        3.5074919520        0.5418044951
 C         -2.8137239975        2.3363268644        0.5848027620
 F         -0.0258307208        4.5985868169        0.8480962837
 C         -1.4547999978       -1.0961520293       -1.2524887693
 O         -1.2734749751        0.0960649310       -1.3861874079
 N         -0.5010593071       -2.0311701510       -1.0278147329
 C          0.8334952162       -1.8426714770       -0.7123056069
 C          1.4297306159       -0.5810362939       -0.7447927820
 C          2.7567901288       -0.4409894797       -0.3874175927
 C          3.5193611818       -1.5504256942       -0.0015666783
 C          2.9185337231       -2.8108110313        0.0104324912
 C          1.5935469304       -2.9533646934       -0.3379979869
 C          4.8748169493       -1.4225609556        0.3840286839
 N          5.9709238741       -1.3530873644        0.7082910329
 C          3.3934134819        0.9234881113       -0.3812194747
 F          4.5163755455        0.9740795241       -1.1109219752
 F          3.7227694624        1.3115096248        0.8653155539
 F          2.5837224962        1.8755359679       -0.8631133018
 O         -2.9205559740       -2.9646618357       -0.7300542779
 H         -3.0966505065       -0.9436581139       -3.3559922663
 H         -4.2632438904       -2.2071082490       -2.9085446718
 H         -2.5900839814       -2.6408009542       -3.2616983720
 H         -3.8337773818        0.2394233723       -1.2027504835
 H         -4.8005355293       -1.1083778339       -0.5279054690
 H         -0.4223508021        0.1887169692        1.6238092460
 H          0.9320562368        2.3069210128        1.5535853462
 H         -2.5251312208        4.4439035290        0.2470829064
 H         -3.8639409474        2.3313724202        0.3394115382
 H         -0.8697602004       -2.9736746567       -0.9174354397
 H          0.8486922312        0.2778751812       -1.0388329140
 H          3.5037679964       -3.6687816629        0.3036739753
 H          1.1337281110       -3.9300482637       -0.3144521309
 H         -2.7879705169       -2.8225179019        0.2257138983
  43
  -89.951763700000001        2.2703623444475868E-002 !
 C         -3.2074750753       -2.0265171322       -2.7629138650
 C         -2.8532652475       -1.7798526951       -1.2928088454
 C         -3.7921753674       -0.7526850147       -0.6588884254
 S         -3.1514634393       -0.3215481407        1.0088738531
 O         -4.2839732242       -0.0759868894        1.8550325932
 O         -2.2586566984       -1.3969710380        1.4009809777
 C         -2.1946700127        1.1893188874        0.8879183548
 C         -2.8176811863        2.3423718863        0.4505661607
 C         -2.0876965865        3.5138666727        0.3622266863
 C         -0.7493719742        3.4915475576        0.7231923259
 C         -0.1228696700        2.3426017236        1.1780018827
 C         -0.8640158207        1.1773517989        1.2590613760
 F         -0.0425500850        4.6276369457        0.6405402256
 C         -1.4417169636       -1.1628243183       -1.2214310514
 O         -1.2661579304        0.0230791814       -1.4083607740
 N         -0.4841303022       -2.0810581718       -0.9486773272
 C          0.8452372253       -1.8689668814       -0.6262613676
 C          1.4344325704       -0.6066552811       -0.7131977940
 C          2.7552998545       -0.4400854949       -0.3444321764
 C          3.5187059986       -1.5238759751        0.1070409117
 C          2.9254445520       -2.7862256247        0.1724530257
 C          1.6065510906       -2.9548048014       -0.1872741519
 C          4.8673004472       -1.3681265895        0.5063185219
 N          5.9581045230       -1.2756192075        0.8424559524
 C          3.3820546489        0.9280459405       -0.3952405397
 F          3.6763809078        1.3839619063        0.8371656043
 F          2.5779896277        1.8463037721       -0.9469140905
 F          4.5227534479        0.9501957866       -1.0979017204
 O         -2.9002150246       -3.0134871385       -0.6214123641
 H         -3.0763578397       -1.1144493493       -3.3371681070
 H         -4.2379094766       -2.3623939984       -2.8364895972
 H         -2.5613271853       -2.8027595039       -3.1641686047
 H         -3.8272691221        0.1614337567       -1.2423737058
 H         -4.7893674618       -1.1588874595       -0.5092594555
 H         -3.8655117952        2.3217930948        0.1959253074
 H         -2.5348594224        4.4340365079        0.0215877162
 H          0.9182438772        2.3740723063        1.4570140800
 H         -0.4276192494        0.2547548625        1.6080693103
 H         -0.8483326014       -3.0196395043       -0.7973627071
 H          0.8525881515        0.2327549131       -1.0575203267
 H          3.5115453331       -3.6247250992        0.5159849148
 H          1.1522873498       -3.9321712921       -0.1217689396
 H         -2.7727957937       -2.8274941921        0.3275378998
  43
  -89.951763839999998        2.2706987173579923E-002 !
 C         -3.1817374294       -2.0406270775       -2.7308909698
 C         -2.8408186598       -1.7771054174       -1.2605746431
 C         -3.7846766147       -0.7430076729       -0.6465695169
 S         -3.1525980148       -0.2929181921        1.0196340964
 O         -4.2896899035       -0.0738957858        1.8671564323
 O         -2.2331506951       -1.3448770852        1.4131799164
 C         -2.2377783546        1.2422005493        0.8874350028
 C         -0.9012843833        1.2678673424        1.2358974800
 C         -0.1940964620        2.4526408353        1.1371125097
 C         -0.8599482226        3.5823156185        0.6900771366
 C         -2.2045396686        3.5671391819        0.3530505769
 C         -2.8997813445        2.3759092365        0.4567521218
 F         -0.1857615536        4.7370968408        0.5906000399
 C         -1.4279808048       -1.1635141187       -1.1834355046
 O         -1.2479425004        0.0228445352       -1.3623125944
 N         -0.4739526972       -2.0891174173       -0.9229339151
 C          0.8618750985       -1.8922426340       -0.6188330164
 C          1.4566144971       -0.6308201120       -0.6779565536
 C          2.7873301555       -0.4846767300       -0.3368202277
 C          3.5552489531       -1.5877583389        0.0567931601
 C          2.9545618642       -2.8474259161        0.0997815785
 C          1.6256923315       -2.9956793772       -0.2306991993
 C          4.9175375473       -1.4537025401        0.4151100386
 N          6.0205156062       -1.3786176465        0.7137521596
 C          3.4279001809        0.8776891030       -0.3639306871
 F          2.5969001456        1.8331604475       -0.8014362136
 F          4.5094349210        0.9227837613       -1.1549058031
 F          3.8272100704        1.2656422167        0.8611405719
 O         -2.8949338250       -3.0033001657       -0.5756397404
 H         -4.2107808256       -2.3796794677       -2.8094232339
 H         -2.5306529482       -2.8196018148       -3.1186806669
 H         -3.0480744187       -1.1345680938       -3.3140283443
 H         -3.8154747034        0.1642831751       -1.2408600450
 H         -4.7825920948       -1.1480822606       -0.4992570104
 H         -0.4339775369        0.3588270019        1.5801108347
 H          0.8512468303        2.5134133609        1.3938995619
 H         -2.6829762812        4.4736099251        0.0181779287
 H         -3.9508264329        2.3246834741        0.2201371952
 H         -0.8424196858       -3.0270842383       -0.7789403747
 H          0.8719594777        0.2224400449       -0.9813552759
 H          3.5432671648       -3.7001766649        0.4011540171
 H          1.1660058387       -3.9716167878       -0.1838926193
 H         -2.7630367049       -2.8079643597        0.3704257246
  43
  -89.951758530000006        2.2579754078215102E-002 !
 C         -3.1737146439       -1.9149473248       -2.8044693274
 C         -2.8241687345       -1.7316130993       -1.3240452181
 C         -3.7756139376       -0.7469367610       -0.6445957907
 S         -3.1322796407       -0.3847450170        1.0387316836
 O         -4.2626026821       -0.2520547133        1.9129280322
 O         -2.1786426469       -1.4325585685        1.3537436250
 C         -2.2651289486        1.1822032375        0.9876677646
 C         -0.9223449141        1.2280676133        1.3086201241
 C         -0.2530725105        2.4379753407        1.2662914193
 C         -0.9624893513        3.5713436745        0.9035758849
 C         -2.3136795594        3.5352170864        0.5958063708
 C         -2.9703695226        2.3187108783        0.6409875130
 F         -0.3250205351        4.7503812856        0.8593267122
 C         -1.4174324374       -1.1075035362       -1.2224209647
 O         -1.2519072739        0.0900113825       -1.3236218014
 N         -0.4507389672       -2.0386818800       -1.0395833184
 C          0.8889004304       -1.8511906706       -0.7470041272
 C          1.4700965349       -0.5824601103       -0.7149075627
 C          2.8065835776       -0.4500281027       -0.3909786123
 C          3.5938354720       -1.5731957281       -0.1072561140
 C          3.0059750634       -2.8386825620       -0.1538947295
 C          1.6714109078       -2.9739781715       -0.4662568868
 C          4.9640049339       -1.4535978410        0.2246682253
 N          6.0741512133       -1.3889907885        0.4982373702
 C          3.4357474958        0.9161355461       -0.3221262195
 F          3.8918797658        1.1956831623        0.9120963881
 F          2.5781418755        1.8985285278       -0.6301000106
 F          4.4772186963        1.0447453641       -1.1569958722
 O         -2.8579163633       -2.9957074093       -0.7100119578
 H         -4.1986109747       -2.2635680017       -2.8945584442
 H         -2.5153167545       -2.6608359197       -3.2418036294
 H         -3.0576613014       -0.9749882145       -3.3354029435
 H         -3.8232195524        0.1923603698       -1.1856840797
 H         -4.7667463265       -1.1732200436       -0.5123732196
 H         -0.4206522277        0.3149386522        1.5871968489
 H          0.7961822241        2.5153978262        1.5013771795
 H         -2.8266126462        4.4450288341        0.3276830627
 H         -4.0246866837        2.2488222954        0.4244313161
 H         -0.8080619283       -2.9881249481       -0.9556089678
 H          0.8708519688        0.2859726297       -0.9357551733
 H          3.6093106433       -3.7066771766        0.0633535292
 H          1.2220638280       -3.9555665634       -0.4900799570
 H         -2.7136721969       -2.8538190087        0.2434920789
  43
  -89.951307600000007        1.4011548292965333E-002 !
 C         -2.9498284995       -2.9948370325       -1.8812817468
 C         -2.8273255168       -1.9703200558       -0.7412496886
 C         -3.8742801006       -0.8720923047       -0.9067603680
 S         -3.8815669645        0.2712340494        0.5209028244
 O         -4.9027482271        1.2497951659        0.2984149710
 O         -3.9857174590       -0.5548434850        1.7087498182
 C         -2.2799682351        1.0782546491        0.5714666505
 C         -1.3953794306        0.7304511366        1.5747953754
 C         -0.1419457497        1.3147034189        1.6108641100
 C          0.1861428620        2.2305320593        0.6240782112
 C         -0.7011926619        2.5973829700       -0.3756546000
 C         -1.9545116194        2.0127074283       -0.3942335808
 F          1.4111971950        2.7748848624        0.6406498166
 C         -1.4304337885       -1.3205348227       -0.8811851653
 O         -1.1984926039       -0.4820817461       -1.7247611151
 N         -0.5457951125       -1.8270221243        0.0115344683
 C          0.7741952926       -1.4700627056        0.2316170672
 C          1.4297030282       -0.5296530325       -0.5645599904
 C          2.7405595772       -0.1901422968       -0.2889934422
 C          3.4295085385       -0.7932415903        0.7701330544
 C          2.7666167361       -1.7361104742        1.5585016161
 C          1.4555880964       -2.0666319473        1.2945687838
 C          4.7823729416       -0.4879951865        1.0533602383
 N          5.8791575320       -0.2812177466        1.3090911502
 C          3.4535845281        0.8175627190       -1.1535805179
 F          2.6229646590        1.4610257951       -1.9838071584
 F          4.3839276080        0.2302066322       -1.9297695988
 F          4.0871806036        1.7564961851       -0.4421303155
 O         -2.9370942536       -2.6601377609        0.4817964959
 H         -3.9426898262       -3.4355690455       -1.8699075426
 H         -2.2192164908       -3.7859424549       -1.7339702838
 H         -2.7723926632       -2.5128481049       -2.8377821046
 H         -3.6704811384       -0.2791850543       -1.7936026703
 H         -4.8822347386       -1.2803305206       -0.9466490865
 H         -1.7043623045        0.0154000480        2.3211683919
 H          0.5748069265        1.0723026545        2.3793943112
 H         -0.3997860687        3.3158689848       -1.1203282871
 H         -2.6790473408        2.2737239059       -1.1480034401
 H         -0.9595676586       -2.5172932043        0.6380148655
 H          0.9075347739       -0.0706534889       -1.3882700593
 H          3.2954877522       -2.2018942028        2.3758794000
 H          0.9490728695       -2.7950969852        1.9100686900
 H         -3.3736803176       -2.0780435400        1.1384297223
  43
  -89.951307510000007        1.4010213931170712E-002 !
 C         -2.9502021158       -2.9647350247       -1.9239527783
 C         -2.8202987295       -1.9740714601       -0.7551891235
 C         -3.8800599779       -0.8818279874       -0.8718107422
 S         -3.8755670254        0.2188437856        0.5890317163
 O         -4.9113359650        1.1915000934        0.4128476035
 O         -3.9499081269       -0.6427440630        1.7536683002
 C         -2.2823537124        1.0423933159        0.6356291092
 C         -1.3766848476        0.6763965672        1.6133349347
 C         -0.1289398740        1.2730193132        1.6440351403
 C          0.1721784752        2.2195109902        0.6777882558
 C         -0.7364365055        2.6044422418       -0.2956994745
 C         -1.9837295655        2.0069221173       -0.3089359892
 F          1.3916160903        2.7764366327        0.6883034317
 C         -1.4317213836       -1.3068854416       -0.8959641144
 O         -1.2200236835       -0.4415088636       -1.7173874404
 N         -0.5293596610       -1.8311607582       -0.0317029338
 C          0.7907863033       -1.4691852731        0.1789720634
 C          1.4264056487       -0.5005689671       -0.5993310924
 C          2.7386048653       -0.1582213265       -0.3338974067
 C          3.4484549100       -0.7856918215        0.6969097252
 C          2.8053373741       -1.7565546123        1.4674754684
 C          1.4931730781       -2.0905133275        1.2137146405
 C          4.8028557983       -0.4768584388        0.9687120324
 N          5.9014937852       -0.2676070500        1.2143129468
 C          3.4306133054        0.8797317255       -1.1795651776
 F          4.0647454923        1.8048004870       -0.4505701445
 F          2.5832070756        1.5376554325       -1.9809154397
 F          4.3561310819        0.3229889767       -1.9835840276
 O         -2.9054237426       -2.7017617924        0.4476743927
 H         -2.2099654530       -3.7526202357       -1.8116047086
 H         -2.7916748027       -2.4522173722       -2.8678179026
 H         -3.9385524034       -3.4154681517       -1.9114078089
 H         -3.6958572769       -0.2609808984       -1.7436974180
 H         -4.8845849777       -1.2987637486       -0.9083350220
 H         -1.6649978009       -0.0626131060        2.3444896294
 H          0.6037702002        1.0170259779        2.3928588300
 H         -0.4557136482        3.3466448524       -1.0250408949
 H         -2.7241966361        2.2810625599       -1.0422934329
 H         -0.9275385870       -2.5436578165        0.5798522290
 H          0.8880502282       -0.0224770495       -1.4014749452
 H          3.3503291603       -2.2411419229        2.2630394100
 H          1.0020129958       -2.8407568118        1.8153432743
 H         -3.3354234685       -2.1432181073        1.1286588806
  43
  -89.951307380000003        1.4008286743982397E-002 !
 C         -2.9498632087       -2.9828082051       -1.8998745518
 C         -2.8202338282       -1.9788924927       -0.7424132392
 C         -3.8785799014       -0.8868900172       -0.8730060223
 S         -3.8778633083        0.2276250228        0.5772685299
 O         -4.9074544273        1.2038437986        0.3854511354
 O         -3.9640341728       -0.6228572298        1.7492120009
 C         -2.2807460016        1.0436414250        0.6270411426
 C         -1.3836936337        0.6819020784        1.6142617763
 C         -0.1333344892        1.2728023229        1.6486045236
 C          0.1791943104        2.2091390020        0.6761321874
 C         -0.7207342595        2.5900812425       -0.3069247247
 C         -1.9709005204        1.9986058143       -0.3236233856
 F          1.4015740012        2.7597061205        0.6899906875
 C         -1.4309028221       -1.3145622436       -0.8892572743
 O         -1.2177557188       -0.4587302085       -1.7202273460
 N         -0.5297301699       -1.8295901016       -0.0182219822
 C          0.7896893823       -1.4640860524        0.1911013000
 C          1.4266222872       -0.5051530081       -0.5980110493
 C          2.7375950754       -0.1576497253       -0.3331934707
 C          3.4452433170       -0.7709168773        0.7076147788
 C          2.8008596302       -1.7323865292        1.4888842050
 C          1.4897669542       -2.0710574802        1.2358612987
 C          4.7985744139       -0.4575461900        0.9792628914
 N          5.8963207731       -0.2445563020        1.2255716515
 C          3.4302319825        0.8700323712       -1.1907932060
 F          4.0677999840        1.8015159419       -0.4732431116
 F          2.5824193721        1.5213449336       -1.9972722271
 F          4.3528199847        0.3028850354       -1.9909505664
 O         -2.9071424011       -2.6923890061        0.4688763771
 H         -3.9385998778       -3.4325547378       -1.8831689971
 H         -2.2104048336       -3.7699720366       -1.7777555734
 H         -2.7900153093       -2.4812737711       -2.8494032340
 H         -3.6909996655       -0.2747888079       -1.7503480994
 H         -4.8834422059       -1.3030953107       -0.9085539154
 H         -1.6806470874       -0.0493762204        2.3497161431
 H          0.5928934331        1.0198306870        2.4047252872
 H         -0.4312702506        3.3244638555       -1.0407507952
 H         -2.7047987847        2.2698796064       -1.0646003148
 H         -0.9289844188       -2.5345158686        0.6012994319
 H          0.8899346263       -0.0378692004       -1.4076134154
 H          3.3441203901       -2.2059598819        2.2922313129
 H          0.9976232509       -2.8137698276        1.8459715152
 H         -3.3425431443       -2.1279287906        1.1414569961
  43
  -89.951307360000001        1.4007990277159661E-002 !
 C         -2.9773539430       -2.7783380603       -2.1483491695
 C         -2.8389325021       -1.8818474780       -0.9068096331
 C         -3.8874992303       -0.7732241248       -0.9393392469
 S         -3.8735813502        0.2114695259        0.6020207708
 O         -4.8987741081        1.2057745210        0.5006564206
 O         -3.9588171225       -0.7366086078        1.6966188490
 C         -2.2719866378        1.0122464919        0.7136996576
 C         -1.3714341360        0.5613348032        1.6601336772
 C         -0.1180258511        1.1413957310        1.7388606262
 C          0.1937950163        2.1582123056        0.8506574693
 C         -0.7094245976        2.6276009880       -0.0901821765
 C         -1.9624454782        2.0452654395       -0.1515891824
 F          1.4184219789        2.7008173921        0.9063760338
 C         -1.4437312488       -1.2195253338       -0.9950750658
 O         -1.2227383540       -0.2951734115       -1.7468872757
 N         -0.5472710267       -1.8185354871       -0.1743119201
 C          0.7764300978       -1.4876381355        0.0633981538
 C          1.4214151313       -0.4660503300       -0.6353789338
 C          2.7369010629       -0.1588065419       -0.3445273695
 C          3.4407700173       -0.8738348101        0.6318794883
 C          2.7881895538       -1.8967833713        1.3229666443
 C          1.4727404381       -2.1964606991        1.0445830330
 C          4.7983233714       -0.6013352696        0.9258551476
 N          5.8991561768       -0.4235080379        1.1858434519
 C          3.4386935197        0.9371071737       -1.1046687143
 F          4.3583249909        0.4380372353       -1.9521129365
 F          4.0822071913        1.7941182828       -0.3041893905
 F          2.5973824534        1.6657750063       -1.8492721661
 O         -2.9325477708       -2.6990290710        0.2364766509
 H         -2.2452713179       -3.5800148748       -2.0965489790
 H         -2.8125264387       -2.1964360789       -3.0499504661
 H         -3.9702039087       -3.2186401516       -2.1709326713
 H         -3.6960875800       -0.0889300001       -1.7607097716
 H         -4.8961275243       -1.1758673133       -1.0080882131
 H         -1.6681093639       -0.2300337643        2.3305784014
 H          0.6109161881        0.8200069532        2.4658167071
 H         -0.4203068658        3.4222410586       -0.7583944537
 H         -2.6989464534        2.3835278096       -0.8617565237
 H         -0.9529113200       -2.5725670145        0.3798481130
 H          0.8876156115        0.0800672422       -1.3960466082
 H          3.3285004269       -2.4487768748        2.0766864370
 H          0.9742023851       -2.9873201933        1.5849720719
 H         -3.3580846883       -2.1903830108        0.9581892780
  43
  -89.951307330000006        1.4007545588795208E-002 !
 C         -2.9789698568       -2.7724128986       -2.1552550391
 C         -2.8395676563       -1.8810369226       -0.9101927012
 C         -3.8882436460       -0.7723102940       -0.9373128804
 S         -3.8711000737        0.2078739266        0.6068946309
 O         -4.8990274757        1.1999968205        0.5119790472
 O         -3.9502737520       -0.7434727469        1.6991247433
 C         -2.2711380551        1.0123017516        0.7151888696
 C         -1.3664813328        0.5618187963        1.6579136909
 C         -0.1142721959        1.1448919919        1.7338182052
 C          0.1921820398        2.1643117031        0.8466666145
 C         -0.7152075166        2.6331615362       -0.0904870057
 C         -1.9669241257        2.0477435554       -0.1490963855
 F          1.4154019294        2.7102618713        0.8998750253
 C         -1.4443570099       -1.2185342862       -0.9971097983
 O         -1.2236810164       -0.2917336705       -1.7459947398
 N         -0.5479009235       -1.8193376613       -0.1776922760
 C          0.7756295421       -1.4887161518        0.0612324917
 C          1.4209470580       -0.4660571375       -0.6357149139
 C          2.7364774061       -0.1596747337       -0.3441215778
 C          3.4398929381       -0.8763416585        0.6314849700
 C          2.7869968132       -1.9004118518        1.3206510536
 C          1.4715806987       -2.1993764279        1.0413836036
 C          4.7972980479       -0.6042166458        0.9265328606
 N          5.8979465858       -0.4264868253        1.1874145057
 C          3.4390177938        0.9371656091       -1.1022788621
 F          4.3609044431        0.4393008713       -1.9479526759
 F          4.0801085836        1.7942465775       -0.2998830352
 F          2.5987989395        1.6655185462       -1.8483287000
 O         -2.9325787936       -2.7029880019        0.2296832110
 H         -3.9720259791       -3.2121899745       -2.1790823128
 H         -2.2471706370       -3.5746024639       -2.1070709357
 H         -2.8143785137       -2.1868882559       -3.0545623350
 H         -3.6985137870       -0.0855623105       -1.7570204839
 H         -4.8969965078       -1.1748251188       -1.0052848254
 H         -1.6590953756       -0.2315597707        2.3278162732
 H          0.6177418348        0.8239611526        2.4579054180
 H         -0.4302954050        3.4299736678       -0.7579599688
 H         -2.7064671278        2.3853653990       -0.8564580157
 H         -0.9534157105       -2.5752010872        0.3740805032
 H          0.8874847259        0.0813100493       -1.3957453129
 H          3.3270338195       -2.4538430393        2.0735380752
 H          0.9728544268       -2.9912898088        1.5800902546
 H         -3.3546482975       -2.1961145380        0.9546623105
  43
  -89.951307299999996        1.4007100914336899E-002 !
 C         -2.9536225123       -2.9580535583       -1.9349223409
 C         -2.8216127144       -1.9732060706       -0.7615276116
 C         -3.8807712492       -0.8796727616       -0.8712639997
 S         -3.8716854587        0.2152491313        0.5939159750
 O         -4.9090062400        1.1876065721        0.4252388637
 O         -3.9410791216       -0.6509411915        1.7554548839
 C         -2.2793745620        1.0406803011        0.6386059549
 C         -1.3700477006        0.6719390531        1.6118653671
 C         -0.1235977448        1.2712938472        1.6419608082
 C          0.1725063847        2.2234351959        0.6797212289
 C         -0.7396961452        2.6108380387       -0.2894114457
 C         -1.9855792341        2.0103703001       -0.3021687270
 F          1.3902920853        2.7838412139        0.6901088735
 C         -1.4330338648       -1.3056340050       -0.9003571791
 O         -1.2218737391       -0.4365071846       -1.7179722655
 N         -0.5300559565       -1.8340115451       -0.0392486122
 C          0.7900819466       -1.4727112835        0.1725435667
 C          1.4247079151       -0.4994037927       -0.6007121819
 C          2.7369347127       -0.1579720396       -0.3342246695
 C          3.4477673336       -0.7910190453        0.6924878368
 C          2.8055390964       -1.7662523611        1.4582245967
 C          1.4933756299       -2.0993992142        1.2034213523
 C          4.8023396661       -0.4832417266        0.9646956899
 N          5.9009753353       -0.2745172884        1.2106406574
 C          3.4279489952        0.8853104924       -1.1741552600
 F          4.0607225152        1.8071434201       -0.4398671375
 F          2.5800323719        1.5465175922       -1.9722275944
 F          4.3544135564        0.3340344012       -1.9808038536
 O         -2.9058039574       -2.7067963476        0.4377684331
 H         -2.7945843565       -2.4413713259       -2.8764243991
 H         -3.9427150932       -3.4071868344       -1.9241858673
 H         -2.2146931454       -3.7477117559       -1.8264724562
 H         -3.6982395209       -0.2554919505       -1.7411071262
 H         -4.8857336872       -1.2956047460       -0.9068322440
 H         -1.6545906084       -0.0711834754        2.3403169132
 H          0.6117825222        1.0133772066        2.3875062713
 H         -0.4628647100        3.3575198074       -1.0156586247
 H         -2.7288360907        2.2865450481       -1.0319384556
 H         -0.9277466588       -2.5496152138        0.5690005227
 H          0.8855784711       -0.0170620955       -1.3997881985
 H          3.3513524096       -2.2552720103        2.2505082403
 H          1.0029338309       -2.8531822720        1.8012023049
 H         -3.3322551387       -2.1502899585        1.1226701120
  43
  -89.951307020000002        1.4002951301458103E-002 !
 C         -2.9653535078       -2.9201058028       -1.9768780500
 C         -2.8197009133       -1.9748553278       -0.7730222375
 C         -3.8889837823       -0.8868710973       -0.8264695987
 S         -3.8576059820        0.1613293966        0.6722233022
 O         -4.9099001414        1.1256018236        0.5588492595
 O         -3.8893270516       -0.7415953132        1.8071712780
 C         -2.2744807046        1.0047471158        0.7059529088
 C         -2.0118303297        2.0024470473       -0.2145307310
 C         -0.7730830220        2.6175902736       -0.2114803031
 C          0.1637173468        2.2160807606        0.7280116229
 C         -0.1010797580        1.2354451728        1.6705599280
 C         -1.3407732951        0.6218325247        1.6501990645
 F          1.3745604292        2.7913034806        0.7284004100
 C         -1.4391112093       -1.2913205808       -0.9135116960
 O         -1.2482830389       -0.3966281699       -1.7082649257
 N         -0.5184602848       -1.8361206851       -0.0819126648
 C          0.8019289064       -1.4699284596        0.1194161504
 C          1.4174568064       -0.4721781516       -0.6379685515
 C          2.7311490880       -0.1278301567       -0.3828026068
 C          3.4621302514       -0.7812735855        0.6166424036
 C          2.8388358156       -1.7807475730        1.3666259120
 C          1.5254471903       -2.1174358584        1.1230717798
 C          4.8182727127       -0.4697878916        0.8765493498
 N          5.9189941776       -0.2588211666        1.1110818317
 C          3.4020478754        0.9413138834       -1.2063402182
 F          4.0370537052        1.8504780630       -0.4582200266
 F          2.5380562565        1.6142891118       -1.9767849980
 F          4.3220798855        0.4176411037       -2.0383192897
 O         -2.8772976940       -2.7494419569        0.4017051718
 H         -2.8258550796       -2.3704987495       -2.9027063883
 H         -3.9510747647       -3.3765336441       -1.9648161050
 H         -2.2193765759       -3.7075531725       -1.9078857530
 H         -3.7292264078       -0.2340918971       -1.6796281710
 H         -4.8912883652       -1.3097447248       -0.8546943096
 H         -2.7731504829        2.2884587317       -0.9215387565
 H         -0.5203032219        3.3864306875       -0.9232278806
 H          0.6525794482        0.9672148710        2.3938841164
 H         -1.6012331682       -0.1439115114        2.3640869251
 H         -0.9005203614       -2.5730688744        0.5107647124
 H          0.8625752154        0.0265448594       -1.4159353109
 H          3.4001300416       -2.2853465792        2.1380478948
 H          1.0497749064       -2.8901571081        1.7084712977
 H         -3.2902946391       -2.2175866907        1.1139335506
  43
  -89.951306610000003        1.3996877300368415E-002 !
 C         -2.9461363061       -3.0165604249       -1.8483093078
 C         -2.8258937375       -1.9739787063       -0.7244280237
 C         -3.8718584882       -0.8781389722       -0.9102375903
 S         -3.8884489769        0.2828011102        0.5029940361
 O         -4.9004464738        1.2652186687        0.2569792528
 O         -4.0116221500       -0.5283479693        1.6992218855
 C         -2.2819063607        1.0795557938        0.5622072504
 C         -1.4101085580        0.7355016193        1.5779930641
 C         -0.1527397297        1.3107626697        1.6208493257
 C          0.1922576113        2.2136122677        0.6279132023
 C         -0.6822688955        2.5772297933       -0.3841871822
 C         -1.9398427652        2.0019300471       -0.4093680477
 F          1.4218939795        2.7476857550        0.6505128405
 C         -1.4281888501       -1.3275250671       -0.8718044775
 O         -1.1946559965       -0.5008152763       -1.7264151504
 N         -0.5447581062       -1.8227333001        0.0284379542
 C          0.7746666015       -1.4620253918        0.2461131244
 C          1.4318029987       -0.5337883880       -0.5628528499
 C          2.7416633429       -0.1889925645       -0.2890646585
 C          3.4283273975       -0.7753993992        0.7808228128
 C          2.7638998913       -1.7064367271        1.5818751170
 C          1.4536921510       -2.0417035069        1.3198517675
 C          4.7803767612       -0.4654501991        1.0628400882
 N          5.8764954265       -0.2549889647        1.3183423102
 C          3.4555831021        0.8057293188       -1.1677924181
 F          2.6244953779        1.4413036438       -2.0038423258
 F          4.3819044494        0.2057317101       -1.9392191137
 F          4.0939601637        1.7517912966       -0.4704180910
 O         -2.9382689276       -2.6439255685        0.5095273943
 H         -2.2150865143       -3.8046909119       -1.6877696391
 H         -2.7679603223       -2.5495477020       -2.8120753843
 H         -3.9386742568       -3.4578404859       -1.8311843509
 H         -3.6624569475       -0.2965249437       -1.8032519465
 H         -4.8795847888       -1.2868356610       -0.9512831963
 H         -1.7318263114        0.0301754065        2.3282306616
 H          0.5545409305        1.0707298636        2.3988261044
 H         -0.3679645661        3.2857681268       -1.1330536510
 H         -2.6549224741        2.2609106248       -1.1727946582
 H         -0.9598062128       -2.5032173534        0.6646074572
 H          0.9115046382       -0.0877918172       -1.3948516090
 H          3.2908982785       -2.1591304442        2.4077760428
 H          0.9460976184       -2.7610992031        1.9450594389
 H         -3.3848924956       -2.0553142904        1.1533889581
  43
  -89.951304289999996        1.3962556943757282E-002 !
 C         -2.9732709864       -2.8287882193       -2.0875124746
 C         -2.8371987599       -1.8934153690       -0.8745266184
 C         -3.8829698890       -0.7841599053       -0.9469611869
 S         -3.8848802730        0.2384977921        0.5693710295
 O         -4.8909658766        1.2464487540        0.4226525783
 O         -4.0082261644       -0.6814194425        1.6840794400
 C         -2.2723487657        1.0153732800        0.6955319460
 C         -1.3982985608        0.5698794804        1.6691354059
 C         -0.1366345172        1.1299571969        1.7601734214
 C          0.2102366111        2.1212084173        0.8562090642
 C         -0.6664325453        2.5861609080       -0.1115854073
 C         -1.9283107921        2.0244514672       -0.1849204959
 F          1.4441357710        2.6418996758        0.9228433583
 C         -1.4401284294       -1.2373781339       -0.9795804922
 O         -1.2161390551       -0.3351468270       -1.7568045929
 N         -0.5457558784       -1.8150825637       -0.1414096745
 C          0.7764988292       -1.4753476344        0.0926425550
 C          1.4239813061       -0.4753747888       -0.6344553616
 C          2.7368666350       -0.1555692486       -0.3451902379
 C          3.4363369601       -0.8379975210        0.6573005164
 C          2.7816391441       -1.8404203725        1.3760112644
 C          1.4683973126       -2.1514841574        1.0996722989
 C          4.7915874335       -0.5540481945        0.9511279038
 N          5.8906944324       -0.3674895124        1.2123675802
 C          3.4393529271        0.9175964922       -1.1364416383
 F          4.3509922185        0.3927863694       -1.9771032760
 F          4.0918582137        1.7920897769       -0.3630768161
 F          2.5963231136        1.6312786432       -1.8939669888
 O         -2.9351444425       -2.6728047451        0.2948279589
 H         -2.8067003199       -2.2759741668       -3.0069967452
 H         -3.9661488061       -3.2694957501       -2.0979865889
 H         -2.2414860340       -3.6285509030       -2.0088543287
 H         -3.6805787242       -0.1214470374       -1.7833296772
 H         -4.8918315304       -1.1861180727       -1.0169050514
 H         -1.7214684108       -0.2020422596        2.3499849550
 H          0.5724989760        0.8118920889        2.5078797523
 H         -0.3503997845        3.3607472807       -0.7911100620
 H         -2.6448715685        2.3598660608       -0.9165322301
 H         -0.9536205477       -2.5511222695        0.4346286031
 H          0.8937320197        0.0453255748       -1.4151977281
 H          3.3184855744       -2.3671429637        2.1500447757
 H          0.9682729889       -2.9261386548        1.6616560824
 H         -3.3797956898       -2.1481920791        0.9929937924
  43
  -89.951302810000001        1.3940706901805860E-002 !
 C         -2.9439204643       -3.0433302204       -1.8078943560
 C         -2.8249481978       -1.9788867429       -0.7044605728
 C         -3.8686492753       -0.8854435400       -0.9149322184
 S         -3.8948568476        0.2969659740        0.4801375625
 O         -4.8943531168        1.2845024093        0.2054637390
 O         -4.0419847199       -0.4955414492        1.6860604157
 C         -2.2819430364        1.0801533288        0.5507162746
 C         -1.4272138581        0.7413099376        1.5826916966
 C         -0.1653349258        1.3057486281        1.6355731681
 C          0.2015081974        2.1923488348        0.6358727459
 C         -0.6557927021        2.5510984596       -0.3925553210
 C         -1.9183116019        1.9871461359       -0.4275180101
 F          1.4362986068        2.7143482088        0.6677845509
 C         -1.4259090975       -1.3375591584       -0.8615625738
 O         -1.1902464494       -0.5259724911       -1.7299233889
 N         -0.5439239280       -1.8188767708        0.0476056622
 C          0.7749118683       -1.4537622591        0.2620024044
 C          1.4331700253       -0.5388584784       -0.5610742256
 C          2.7416561985       -0.1870865568       -0.2894630025
 C          3.4263047320       -0.7542680822        0.7919579420
 C          2.7609926856       -1.6726188143        1.6068171850
 C          1.4519180962       -2.0141668594        1.3471666595
 C          4.7772347883       -0.4381427640        1.0724390740
 N          5.8727816078       -0.2233515644        1.3268910804
 C          3.4553903837        0.7939655257       -1.1835160993
 F          2.6227747569        1.4210735971       -2.0246556774
 F          4.3767565537        0.1809780219       -1.9506655050
 F          4.0992747117        1.7474500888       -0.5017555995
 O         -2.9404603812       -2.6237727737        0.5426891962
 H         -2.7638208888       -2.5955303645       -2.7803934661
 H         -3.9367721936       -3.4836169799       -1.7838232425
 H         -2.2136061442       -3.8285588244       -1.6305911210
 H         -3.6521868010       -0.3181616137       -1.8154796642
 H         -4.8764895055       -1.2937736415       -0.9568548720
 H         -1.7655777598        0.0486217411        2.3373658426
 H          0.5290710542        1.0693423601        2.4261366159
 H         -0.3246041322        3.2466801439       -1.1462835422
 H         -2.6202982665        2.2424681523       -1.2041817200
 H         -0.9605233061       -2.4870220089        0.6955974649
 H          0.9143506703       -0.1074647549       -1.4016520265
 H          3.2865139236       -2.1106859069        2.4415021177
 H          0.9435535242       -2.7232443625        1.9834409261
 H         -3.3985970284       -2.0271040919        1.1707309024
  43
  -89.951246330000004        1.3131924754888712E-002 !
 C         -3.1083361845       -2.5618327983       -2.3852115209
 C         -2.8706969007       -1.9207897539       -1.0105050717
 C         -3.9006021644       -0.8229995676       -0.7472379062
 S         -3.6257277816       -0.0406764543        0.8855471461
 O         -4.7724001579        0.7665063954        1.1789519346
 O         -3.3026859958       -1.1082472397        1.8143696145
 C         -2.1822717162        1.0171003330        0.7626162050
 C         -2.2149671018        2.1180843315       -0.0728491388
 C         -1.0982380688        2.9272408979       -0.1705368686
 C          0.0198697935        2.6119086548        0.5865358631
 C          0.0534661214        1.5197878704        1.4389719894
 C         -1.0679713084        0.7133031571        1.5207663152
 F          1.1021227017        3.3949675068        0.5006733369
 C         -1.4820843359       -1.2432156856       -1.0532472600
 O         -1.2910070780       -0.2259541086       -1.6848417539
 N         -0.5609551069       -1.9241540815       -0.3306876115
 C          0.7610063041       -1.6029625002       -0.0745454695
 C          1.3776423455       -0.4917963719       -0.6518939694
 C          2.6932856928       -0.2027600697       -0.3449499832
 C          3.4221361909       -1.0166683433        0.5310989952
 C          2.7983229338       -2.1297430066        1.0980209441
 C          1.4843317295       -2.4165063003        0.8004639377
 C          4.7733380678       -0.7415938960        0.8505311659
 N          5.8673071249       -0.5516943834        1.1303121268
 C          3.3671778336        1.0007804680       -0.9521255262
 F          3.8471870170        1.8328946182       -0.0163517437
 F          2.5422916832        1.7215330604       -1.7201631453
 F          4.4066090105        0.6549020024       -1.7308302432
 O         -2.9118068079       -2.9397726919       -0.0426487711
 H         -4.1176024931       -2.9605505475       -2.4325719051
 H         -2.4064626003       -3.3798409271       -2.5244078135
 H         -2.9655013193       -1.8252940688       -3.1698860625
 H         -3.8309272231       -0.0390374611       -1.4950056840
 H         -4.9113375272       -1.2242794801       -0.7096153414
 H         -3.1097252657        2.3387972033       -0.6318399737
 H         -1.0785673732        3.7887529819       -0.8180002887
 H          0.9388013312        1.3199946783        2.0217371065
 H         -1.0973365613       -0.1448574441        2.1738394362
 H         -0.9391024086       -2.7585571806        0.1184907521
 H          0.8238206392        0.1335564401       -1.3329507018
 H          3.3583945829       -2.7597542699        1.7718368694
 H          1.0067906820       -3.2767925437        1.2453052418
 H         -3.1104564564       -2.5289799219        0.8247564332
  43
  -89.951242899999997        1.3084347407428004E-002 !
 C         -3.0772157999       -2.6446015794       -2.3167322107
 C         -2.8711758009       -1.9229973394       -0.9769974424
 C         -3.8963075765       -0.8021835437       -0.8116082331
 S         -3.6742598599        0.0660136130        0.7850615927
 O         -4.8080920068        0.9203201891        0.9768396486
 O         -3.4265719691       -0.9543701497        1.7870669809
 C         -2.1944816255        1.0733116970        0.6702483102
 C         -1.1197405624        0.7718374154        1.4844199482
 C          0.0300554324        1.5378243530        1.4078829349
 C          0.0641152472        2.5878908828        0.5041469060
 C         -1.0140333060        2.9012626211       -0.3095033647
 C         -2.1597658468        2.1330101329       -0.2169577248
 F          1.1750377544        3.3304435249        0.4227263428
 C         -1.4735676657       -1.2639862334       -1.0228444065
 O         -1.2539760794       -0.2861701638       -1.7052610594
 N         -0.5788504111       -1.9151187949       -0.2418416102
 C          0.7424879200       -1.5994765024        0.0243423497
 C          1.3877549400       -0.5299508409       -0.5985853421
 C          2.7016876183       -0.2443996987       -0.2811187505
 C          3.4005214338       -1.0213244264        0.6511351392
 C          2.7480194401       -2.0926934616        1.2642461428
 C          1.4355668937       -2.3753409245        0.9561569529
 C          4.7502178480       -0.7514253653        0.9812727259
 N          5.8421622014       -0.5654164381        1.2713713632
 C          3.4072531971        0.9125210042       -0.9407445049
 F          2.6048377429        1.6120976930       -1.7511143914
 F          4.4439864958        0.5039364820       -1.6927801115
 F          3.9001182186        1.7793224593       -0.0446023655
 O         -2.9490932642       -2.8810657711        0.0493670183
 H         -4.0881592044       -3.0386663922       -2.3674475915
 H         -2.3788035783       -3.4743082894       -2.3872033684
 H         -2.9073522419       -1.9579629549       -3.1403104911
 H         -3.7895054455       -0.0610007650       -1.5977105174
 H         -4.9126662698       -1.1902721238       -0.7902957993
 H         -1.2019180097       -0.0519221003        2.1761315395
 H          0.8860639870        1.3387802619        2.0331505455
 H         -0.9415259064        3.7289723063       -0.9960862161
 H         -3.0252770426        2.3535482224       -0.8202430029
 H         -0.9795008285       -2.7179742494        0.2439808393
 H          0.8572010668        0.0661183408       -1.3230628312
 H          3.2848585701       -2.6939424553        1.9818257034
 H          0.9359931005       -3.2035857088        1.4362139681
 H         -3.1837621550       -2.4201613423        0.8820386319
  43
  -89.951143400000007        1.1776738527920333E-002 !
 C         -2.9609560628       -2.4770743539       -2.2135472539
 C         -2.6515057931       -1.8189426816       -0.8642202360
 C         -3.8144426440       -0.9439084883       -0.3961666603
 S         -3.2882499859       -0.0076089551        1.0929587145
 O         -4.4352233936        0.1384901950        1.9420340860
 O         -2.1415091642       -0.7047715491        1.6431428013
 C         -2.7563092805        1.6230324785        0.5714882348
 C         -3.6745784562        2.4683458777       -0.0211725175
 C         -3.2703788483        3.7252784644       -0.4340209417
 C         -1.9496950102        4.0947015471       -0.2343637070
 C         -1.0284817897        3.2584018500        0.3745663136
 C         -1.4459845146        2.0047523584        0.7831179752
 F         -1.5502059113        5.3103984625       -0.6411955384
 C         -1.4434006815       -0.8777476442       -1.0486688798
 O         -1.5796825699        0.2421075286       -1.4975572921
 N         -0.2773400151       -1.4571446278       -0.6804672148
 C          0.9881447778       -0.8993929753       -0.6113183864
 C          2.0187511982       -1.6839601262       -0.0876602611
 C          3.2995654330       -1.1768294761        0.0035538611
 C          3.5789291407        0.1277890556       -0.4239574759
 C          2.5427274782        0.9041318411       -0.9446989285
 C          1.2632191216        0.3997094398       -1.0415843297
 C          4.8834222121        0.6695631162       -0.3388116999
 N          5.9272470271        1.1371298877       -0.2827246453
 C          4.4162196763       -2.0187872191        0.5625601935
 F          4.9723734529       -1.4678513311        1.6521196568
 F          5.4049836628       -2.2038031998       -0.3262288372
 F          4.0040184617       -3.2421749729        0.9262892376
 O         -2.3616677605       -2.8385606985        0.0576072831
 H         -2.1422418037       -3.1363072948       -2.4895313288
 H         -3.0885303526       -1.7185435668       -2.9798818604
 H         -3.8673775394       -3.0696310334       -2.1283804232
 H         -4.0932574474       -0.2198577093       -1.1548218031
 H         -4.6702643100       -1.5434070189       -0.0961615588
 H         -4.6964413065        2.1460070385       -0.1437696323
 H         -3.9543427135        4.4135573529       -0.9042289087
 H         -0.0126882530        3.5904153793        0.5185054088
 H         -0.7708259177        1.3141963636        1.2629051651
 H         -0.3883881133       -2.3948814293       -0.2991142471
 H          1.8138015153       -2.6891716424        0.2488632152
 H          2.7567602526        1.9085334886       -1.2764740379
 H          0.4674690351        1.0024443634       -1.4468929573
 H         -2.2654843749       -2.4181496761        0.9324019086
  43
  -89.951143110000004        1.1773125078008427E-002 !
 C         -2.9346454770       -2.5190278308       -2.2020174214
 C         -2.6253327378       -1.8612359009       -0.8525233734
 C         -3.7988206424       -1.0076451152       -0.3713530576
 S         -3.2746243042       -0.0673551375        1.1160533235
 O         -4.4149404969        0.0533530671        1.9780199702
 O         -2.1090390976       -0.7448103821        1.6510395551
 C         -2.7797716696        1.5753579650        0.5958911911
 C         -1.4755512975        1.9825737771        0.7975752474
 C         -1.0868518307        3.2457786123        0.3899916954
 C         -2.0298560517        4.0654870488       -0.2080372549
 C         -3.3445689812        3.6703262063       -0.3976060588
 C         -3.7199036216        2.4041401020        0.0142358795
 F         -1.6583490313        5.2903185992       -0.6139966115
 C         -1.4346705794       -0.8990601339       -1.0420425318
 O         -1.5934910882        0.2207584525       -1.4835558860
 N         -0.2559382132       -1.4609560587       -0.6872291715
 C          0.9999989603       -0.8814987647       -0.6225627396
 C          2.0477458408       -1.6514762839       -0.1114602767
 C          3.3198627178       -1.1222654937       -0.0242939905
 C          3.5731749696        0.1903943204       -0.4432828661
 C          2.5201008720        0.9518784970       -0.9518992918
 C          1.2492550840        0.4253579874       -1.0449746987
 C          4.8681915681        0.7549256938       -0.3615103101
 N          5.9037004321        1.2408768862       -0.3071508487
 C          4.4548175652       -1.9483303252        0.5214003444
 F          5.4419232572       -2.1074748808       -0.3742064046
 F          4.0671162159       -3.1821910713        0.8766357875
 F          5.0067414269       -1.3966887236        1.6127658674
 O         -2.3110936951       -2.8795108015        0.0628025990
 H         -3.8304040648       -3.1268990741       -2.1120555899
 H         -2.1073974486       -3.1634883027       -2.4872852607
 H         -3.0809702195       -1.7596679032       -2.9641780340
 H         -4.0967589056       -0.2861386943       -1.1251458711
 H         -4.6415307328       -1.6226282666       -0.0656189215
 H         -0.7825706230        1.3041093316        1.2691338207
 H         -0.0767664861        3.5977350141        0.5265607431
 H         -4.0461950076        4.3462526627       -0.8596419837
 H         -4.7359443301        2.0614685536       -0.1016309290
 H         -0.3480000164       -2.4025327586       -0.3103582207
 H          1.8628462192       -2.6626450907        0.2187465462
 H          2.7140276937        1.9625449043       -1.2768559659
 H          0.4403413193        1.0168439014       -1.4406586573
 H         -2.2133721310       -2.4607967980        0.9381710418
  43
  -89.951142869999998        1.1770135475129870E-002 !
 C         -2.9152722860       -2.3896342083       -2.3857155847
 C         -2.6232386227       -1.7999167556       -1.0014193334
 C         -3.7971262190       -0.9585799489       -0.4999555047
 S         -3.2911292152       -0.0963111531        1.0400624740
 O         -4.4458644118       -0.0045749680        1.8862101973
 O         -2.1422882861       -0.8109395023        1.5627814059
 C         -2.7705271191        1.5637007458        0.6075418190
 C         -3.6935652242        2.4307927576        0.0550423536
 C         -3.2987372252        3.7110327166       -0.2896338019
 C         -1.9822252069        4.0808175065       -0.0645991987
 C         -1.0564512869        3.2219350156        0.5046907380
 C         -1.4646050061        1.9451299038        0.8452768772
 F         -1.5918821614        5.3196759817       -0.4049506396
 C         -1.4211552923       -0.8412060853       -1.1253976341
 O         -1.5621353080        0.2982214787       -1.5202599307
 N         -0.2544530635       -1.4279134168       -0.7710766943
 C          1.0033281371       -0.8612915035       -0.6519383564
 C          2.0309629825       -1.6569177052       -0.1392753753
 C          3.3038726539       -1.1412631929        0.0013008573
 C          3.5781958935        0.1828258741       -0.3652775834
 C          2.5451028418        0.9698738197       -0.8760202443
 C          1.2734492741        0.4573453500       -1.0216313298
 C          4.8745659052        0.7336607483       -0.2287177177
 N          5.9115572935        1.2091891194       -0.1292148963
 C          4.4170178052       -1.9943029301        0.5504263860
 F          4.0107256320       -3.2362712471        0.8525672622
 F          4.9413197883       -1.4840735382        1.6750738112
 F          5.4282184628       -2.1310133933       -0.3216766157
 O         -2.3340121158       -2.8635361073       -0.1304859927
 H         -3.0413198110       -1.5934611339       -3.1131466640
 H         -3.8180563511       -2.9919994371       -2.3398897875
 H         -2.0891066535       -3.0280859931       -2.6871768773
 H         -4.0749155987       -0.1984436141       -1.2228870438
 H         -4.6507931980       -1.5790362033       -0.2390247451
 H         -4.7119448232        2.1063689434       -0.0891501488
 H         -3.9868848113        4.4172556117       -0.7258908684
 H         -0.0444492676        3.5549400642        0.6712878856
 H         -0.7856120640        1.2366666555        1.2924208192
 H         -0.3618116142       -2.3837668132       -0.4364995998
 H          1.8296830879       -2.6772902810        0.1505729299
 H          2.7553711417        1.9893217883       -1.1610540504
 H          0.4801517086        1.0685108484       -1.4190443784
 H         -2.2497436334       -2.4882199510        0.7657375787
  43
  -89.951142840000003        1.1769761828219051E-002 !
 C         -2.9322227738       -2.5160251924       -2.2045018705
 C         -2.6239089042       -1.8597226814       -0.8540584617
 C         -3.7977874994       -1.0067311250       -0.3727998998
 S         -3.2746797002       -0.0682065242        1.1160909954
 O         -4.4151187964        0.0498574177        1.9782574230
 O         -2.1083059210       -0.7451003987        1.6500439198
 C         -2.7819709104        1.5756911376        0.5978427580
 C         -1.4774596103        1.9834151800        0.7965008853
 C         -1.0907437757        3.2474749074        0.3896954409
 C         -2.0359856077        4.0675068556       -0.2043647131
 C         -3.3509470161        3.6717606523       -0.3909548142
 C         -3.7242415924        2.4046592781        0.0199195942
 F         -1.6664796100        5.2932776603       -0.6093182657
 C         -1.4330074704       -0.8975532584       -1.0423648912
 O         -1.5914637868        0.2226495538       -1.4830148921
 N         -0.2545730207       -1.4598792979       -0.6873081172
 C          1.0017557884       -0.8812572439       -0.6232921678
 C          2.0486444445       -1.6509368519       -0.1099446717
 C          3.3213712615       -1.1229283445       -0.0243857902
 C          3.5761931964        0.1881404311       -0.4474979215
 C          2.5238731287        0.9494908108       -0.9579574897
 C          1.2523388563        0.4242505795       -1.0490899617
 C          4.8719826139        0.7511627693       -0.3681004427
 N          5.9084012953        1.2355097517       -0.3170802222
 C          4.4553623298       -1.9486446013        0.5238406106
 F          5.4416396437       -2.1130397091       -0.3717463043
 F          4.0659043635       -3.1804174583        0.8843453529
 F          5.0088961938       -1.3934611833        1.6125873263
 O         -2.3102782323       -2.8789750337        0.0603958202
 H         -2.1054025138       -3.1613079487       -2.4891523570
 H         -3.0765247641       -1.7558646980       -2.9662444494
 H         -3.8288799856       -3.1227796820       -2.1163670348
 H         -4.0950371525       -0.2842505679       -1.1259340093
 H         -4.6407785221       -1.6220241791       -0.0684941120
 H         -0.7827811366        1.3047850928        1.2652864150
 H         -0.0805295144        3.5999255614        0.5239916218
 H         -4.0543350809        4.3479522501       -0.8499042196
 H         -4.7404697634        2.0616206039       -0.0930189112
 H         -0.3471041457       -2.4013366451       -0.3102565353
 H          1.8626695472       -2.6610584356        0.2228823765
 H          2.7190323854        1.9588495074       -1.2863148048
 H          0.4440543186        1.0154266194       -1.4465678591
 H         -2.2131053088       -2.4611899122        0.9362482137
  43
  -89.951142709999999        1.1768142828372486E-002 !
 C         -2.9386516491       -2.5208551558       -2.2057439357
 C         -2.6311369460       -1.8624361672       -0.8560607940
 C         -3.8063099208       -1.0099069034       -0.3769179818
 S         -3.2895639986       -0.0714747827        1.1140401093
 O         -4.4380600448        0.0619155908        1.9630704073
 O         -2.1360059328       -0.7584241309        1.6629055360
 C         -2.7722174686        1.5652910353        0.5966629689
 C         -1.4660632894        1.9585259984        0.8130461478
 C         -1.0585091932        3.2166043728        0.4081304903
 C         -1.9852249869        4.0455085811       -0.2025179347
 C         -3.3018460741        3.6644657801       -0.4070839118
 C         -3.6961687101        2.4033475838        0.0025535872
 F         -1.5952568238        5.2652472431       -0.6064614844
 C         -1.4412805254       -0.8993950890       -1.0463413290
 O         -1.6002727842        0.2180091145       -1.4938893120
 N         -0.2630867935       -1.4568194163       -0.6830582019
 C          0.9923564359       -0.8759099645       -0.6210529454
 C          2.0407843987       -1.6422486735       -0.1058854768
 C          3.3125072338       -1.1114951415       -0.0219269374
 C          3.5646449076        0.1991234544       -0.4479904162
 C          2.5108529862        0.9570054316       -0.9605531463
 C          1.2404123759        0.4289391467       -1.0503827232
 C          4.8591817352        0.7652503996       -0.3694508678
 N          5.8943456666        1.2523317850       -0.3188225392
 C          4.4484095265       -1.9337369537        0.5275644955
 F          5.4354238779       -2.0963845368       -0.3674740720
 F          4.0619625174       -3.1661226716        0.8891319814
 F          5.0000208920       -1.3760110013        1.6160001379
 O         -2.3166182102       -2.8802183775        0.0595984998
 H         -3.0843635661       -1.7618694457       -2.9683863504
 H         -3.8342065482       -3.1291195356       -2.1165400174
 H         -2.1107096239       -3.1650312105       -2.4896473583
 H         -4.1020442696       -0.2873229210       -1.1305546880
 H         -4.6500122834       -1.6255634237       -0.0751982849
 H         -0.7861800810        1.2731978126        1.2936919407
 H         -0.0461775558        3.5573813225        0.5559597872
 H         -3.9903689088        4.3472869121       -0.8785712942
 H         -4.7147125110        2.0722046546       -0.1240007505
 H         -0.3547640697       -2.3971570850       -0.3028528039
 H          1.8568636226       -2.6519007295        0.2294853439
 H          2.7038775687        1.9659703143       -1.2913720025
 H          0.4310355817        1.0175077229       -1.4494374419
 H         -2.2258822242       -2.4621622834        0.9362730752
  43
  -89.951142160000003        1.1761295677744636E-002 !
 C         -2.8954475345       -2.3930167590       -2.3785449342
 C         -2.6148903941       -1.7988655704       -0.9937463794
 C         -3.7940691196       -0.9587545456       -0.5030040839
 S         -3.2989518702       -0.0896692859        1.0367655159
 O         -4.4574285777       -0.0026857518        1.8783583244
 O         -2.1481918506       -0.7965802904        1.5656589324
 C         -2.7866034249        1.5725275254        0.6026611470
 C         -3.7105881633        2.4308372933        0.0382004472
 C         -3.3218193899        3.7126614717       -0.3075012897
 C         -2.0103607739        4.0930350506       -0.0709963709
 C         -1.0838307908        3.2429987693        0.5102224887
 C         -1.4858865794        1.9644392214        0.8516183614
 F         -1.6256746900        5.3333007750       -0.4127753738
 C         -1.4134163681       -0.8386246041       -1.1109161255
 O         -1.5540770772        0.3020221917       -1.5023678891
 N         -0.2471710955       -1.4264656768       -0.7568252871
 C          1.0111375694       -0.8612796163       -0.6364667957
 C          2.0417433309       -1.6640886651       -0.1412246113
 C          3.3154739388       -1.1504564814       -0.0006850183
 C          3.5874482367        0.1790646700       -0.3488566022
 C          2.5514030408        0.9733164749       -0.8421828259
 C          1.2791130621        0.4626039320       -0.9885674559
 C          4.8843032227        0.7282251808       -0.2109574727
 N          5.9216969717        1.2025268404       -0.1100563706
 C          4.4321385808       -2.0118580283        0.5278211177
 F          4.0280827432       -3.2588641945        0.8118063200
 F          4.9629683407       -1.5200581181        1.6575826590
 F          5.4381683939       -2.1337629879       -0.3524240272
 O         -2.3298654381       -2.8596216286       -0.1179147713
 H         -3.7968988542       -2.9977273008       -2.3375798203
 H         -2.0655595961       -3.0300423521       -2.6726922629
 H         -3.0185222765       -1.5991332039       -3.1089648044
 H         -4.0690738633       -0.2021288150       -1.2306144449
 H         -4.6478219823       -1.5803009413       -0.2449314869
 H         -4.7250858022        2.0984642550       -0.1150078939
 H         -4.0106456648        4.4119103683       -0.7538267104
 H         -0.0758624698        3.5839790375        0.6849193054
 H         -0.8059741670        1.2622430813        1.3071731448
 H         -0.3546529364       -2.3838944819       -0.4269400901
 H          1.8423191462       -2.6887179808        0.1345810133
 H          2.7598323955        1.9970412999       -1.1128450225
 H          0.4834787049        1.0793878926       -1.3724282542
 H         -2.2490378495       -2.4811500160        0.7772174883
  43
  -89.951141719999995        1.1755820825642697E-002 !
 C         -2.9513361007       -2.5356590908       -2.1424660813
 C         -2.6344876020       -1.8593247387       -0.8040010511
 C         -3.8029852661       -0.9946089161       -0.3307697404
 S         -3.2682876658       -0.0342872482        1.1400095597
 O         -4.4024738727        0.0981310706        2.0083533126
 O         -2.0990414597       -0.7045620542        1.6759875221
 C         -2.7776001819        1.6011207969        0.5937319807
 C         -1.4720826999        2.0115037740        0.7799856497
 C         -1.0871650632        3.2692673245        0.3524299991
 C         -2.0350869455        4.0804503797       -0.2494492409
 C         -3.3509333957        3.6821296579       -0.4239876256
 C         -3.7224557815        2.4214267652        0.0077247252
 F         -1.6672419054        5.2997410652       -0.6749832085
 C         -1.4409505823       -0.9047165556       -1.0124572460
 O         -1.5976205614        0.2105824285       -1.4660468120
 N         -0.2624976377       -1.4680848636       -0.6590088092
 C          0.9971148866       -0.8950035678       -0.6122285252
 C          2.0453223370       -1.6654106969       -0.1026145849
 C          3.3214140181       -1.1430149844       -0.0342195025
 C          3.5783288664        0.1631755796       -0.4708119125
 C          2.5247692354        0.9252267225       -0.9775872937
 C          1.2498426570        0.4055486570       -1.0516761762
 C          4.8776732740        0.7204048540       -0.4092219640
 N          5.9167198067        1.2001742221       -0.3721970650
 C          4.4569061998       -1.9698604807        0.5091520678
 F          5.0241509632       -1.4088291543        1.5877684340
 F          5.4332365397       -2.1462879419       -0.3950197425
 F          4.0651088533       -3.1967941479        0.8834195207
 O         -2.3200477193       -2.8652825878        0.1248198885
 H         -3.0985421769       -1.7869388150       -2.9149607416
 H         -3.8485759573       -3.1393501184       -2.0398542648
 H         -2.1271941377       -3.1867610516       -2.4216722867
 H         -4.1015801821       -0.2832136909       -1.0938562793
 H         -4.6464551075       -1.6019276278       -0.0121759461
 H         -0.7752364392        1.3397187784        1.2553713754
 H         -0.0762448458        3.6234765507        0.4764582261
 H         -4.0564637472        4.3515768269       -0.8894924095
 H         -4.7392913847        2.0770180157       -0.0952063566
 H         -0.3564904006       -2.4044080518       -0.2697837231
 H          1.8577183227       -2.6716545200        0.2408985704
 H          2.7215092915        1.9309448344       -1.3160040537
 H          0.4405201287        0.9973578236       -1.4461169571
 H         -2.2151962438       -2.4338669912        0.9930978289
  43
  -89.951141669999998        1.1755198844686437E-002 !
 C         -2.8927271658       -2.4499903354       -2.3155984725
 C         -2.6034968475       -1.8392697113       -0.9397900829
 C         -3.7875846024       -1.0098819548       -0.4427235059
 S         -3.2860266017       -0.1208958820        1.0835407838
 O         -4.4355364253       -0.0422921585        1.9381538970
 O         -2.1195212563       -0.8075323408        1.6046214508
 C         -2.8017654674        1.5442025220        0.6289476688
 C         -1.5025674721        1.9547797269        0.8547437678
 C         -1.1225582827        3.2357698804        0.4975690701
 C         -2.0689799884        4.0692612021       -0.0755074039
 C         -3.3788148119        3.6701149968       -0.2889247986
 C         -3.7454171877        2.3860391469        0.0722794833
 F         -1.7058730853        5.3117931157       -0.4323296182
 C         -1.4159670866       -0.8649779091       -1.0808329645
 O         -1.5759771017        0.2701065511       -1.4809369815
 N         -0.2380410777       -1.4348996100       -0.7362527815
 C          1.0153216237       -0.8541727826       -0.6412058210
 C          2.0622173018       -1.6393196647       -0.1518015675
 C          3.3321399762       -1.1100176960       -0.0372441409
 C          3.5840448883        0.2177769845       -0.4067063082
 C          2.5317265373        0.9944123630       -0.8935733235
 C          1.2630568746        0.4680741518       -1.0136444356
 C          4.8771489612        0.7820019479       -0.2977311218
 N          5.9115193907        1.2675561802       -0.2216652139
 C          4.4662797044       -1.9523591972        0.4846892854
 F          4.0795638629       -3.1986885288        0.7946162127
 F          5.0119322532       -1.4382718624        1.5973047425
 F          5.4579044451       -2.0781255048       -0.4112763194
 O         -2.2942510752       -2.8880177288       -0.0577364407
 H         -3.0349191162       -1.6646739983       -3.0517987353
 H         -3.7855983759       -3.0659951934       -2.2581829546
 H         -2.0581053608       -3.0788782345       -2.6138532860
 H         -4.0805854965       -0.2632541372       -1.1736401776
 H         -4.6303003370       -1.6398949033       -0.1694005316
 H         -0.8067180436        1.2651040090        1.3052721242
 H         -0.1165685067        3.5911209944        0.6540673480
 H         -4.0835256327        4.3569738157       -0.7296611234
 H         -4.7577003102        2.0392788326       -0.0626563295
 H         -0.3293773830       -2.3901658400       -0.3954226393
 H          1.8784388760       -2.6624875259        0.1398437120
 H          2.7246819652        2.0166842657       -1.1807055804
 H          0.4548659893        1.0710909313       -1.3931334361
 H         -2.2077141592       -2.5001576785        0.8328385391
  43
  -89.951141640000003        1.1754825671943978E-002 !
 C         -2.8955396226       -2.4507201538       -2.3141759433
 C         -2.6041047201       -1.8399338182       -0.9388733170
 C         -3.7870649869       -1.0100824995       -0.4398952241
 S         -3.2818514349       -0.1201162015        1.0845847292
 O         -4.4289681142       -0.0421560568        1.9424709209
 O         -2.1133985769       -0.8057282410        1.6026208569
 C         -2.8003114643        1.5452425831        0.6279998746
 C         -1.5017181429        1.9580702360        0.8531282539
 C         -1.1237144356        3.2392173105        0.4943455014
 C         -2.0714947729        4.0706174254       -0.0794996039
 C         -3.3807893514        3.6692642052       -0.2921037043
 C         -3.7453169818        2.3849801503        0.0704556753
 F         -1.7104247746        5.3133931434       -0.4375517928
 C         -1.4164668680       -0.8659323245       -1.0811534557
 O         -1.5767902026        0.2695008421       -1.4801491929
 N         -0.2381127425       -1.4364595695       -0.7389833214
 C          1.0149266214       -0.8552537072       -0.6422956908
 C          2.0621346285       -1.6409782597       -0.1545510419
 C          3.3315881361       -1.1110885921       -0.0378317455
 C          3.5826891625        0.2179511627       -0.4031413038
 C          2.5301128725        0.9951641270       -0.8885245543
 C          1.2619341047        0.4681727268       -1.0110195130
 C          4.8748850299        0.7835243465       -0.2899840660
 N          5.9082577305        1.2705261798       -0.2101588899
 C          4.4659956999       -1.9540664819        0.4824966833
 F          4.0805824873       -3.2023211528        0.7862441600
 F          5.0087204298       -1.4439745004        1.5983906117
 F          5.4595482813       -2.0743930956       -0.4120474272
 O         -2.2939884152       -2.8886672481       -0.0571009635
 H         -2.0615819384       -3.0798669386       -2.6136325407
 H         -3.0386208918       -1.6654626883       -3.0502500729
 H         -3.7885002438       -3.0664792535       -2.2554038837
 H         -4.0815155252       -0.2639360589       -1.1706830741
 H         -4.6292344058       -1.6397917950       -0.1642372509
 H         -0.8047627290        1.2700093101        1.3044083328
 H         -0.1184178745        3.5965280056        0.6508977499
 H         -4.0866375579        4.3545416757       -0.7334876840
 H         -4.7571632614        2.0366533873       -0.0637682730
 H         -0.3291223962       -2.3920534764       -0.3990294909
 H          1.8789965425       -2.6651699536        0.1339045577
 H          2.7224476869        2.0184727021       -1.1723572063
 H          0.4534800570        1.0717271605       -1.3890821003
 H         -2.2050124120       -2.5005633204        0.8330918259
  43
  -89.951141390000004        1.1751716359280143E-002 !
 C         -2.9536434606       -2.5350138323       -2.1421631482
 C         -2.6344012732       -1.8592363607       -0.8039647092
 C         -3.8016274601       -0.9939857419       -0.3285732420
 S         -3.2633124386       -0.0338632218        1.1410874244
 O         -4.3947673265        0.0964368323        2.0133243181
 O         -2.0914659318       -0.7029908000        1.6728022008
 C         -2.7769329799        1.6026112951        0.5941837099
 C         -1.4713745291        2.0149414794        0.7757196027
 C         -1.0900877285        3.2735146870        0.3473023221
 C         -2.0415921322        4.0835566563       -0.2504567542
 C         -3.3574905048        3.6833162521       -0.4200777460
 C         -3.7253278670        2.4217874676        0.0123184336
 F         -1.6774329120        5.3038645812       -0.6762601064
 C         -1.4405808346       -0.9051668434       -1.0135328255
 O         -1.5972813381        0.2106133924       -1.4658290109
 N         -0.2618977903       -1.4696419544       -0.6625867873
 C          0.9976782214       -0.8965820405       -0.6147890461
 C          2.0455787607       -1.6672503056       -0.1049795520
 C          3.3214935360       -1.1446735209       -0.0349717202
 C          3.5785497051        0.1619726820       -0.4702160060
 C          2.5252603655        0.9242717596       -0.9772588072
 C          1.2505480252        0.4043206015       -1.0531283461
 C          4.8775570684        0.7196286341       -0.4064521429
 N          5.9163567238        1.1999529235       -0.3672715924
 C          4.4565877646       -1.9717291460        0.5089165092
 F          5.0220558381       -1.4118926475        1.5891019254
 F          5.4342785175       -2.1464214258       -0.3941073383
 F          4.0649058616       -3.1993794648        0.8809352499
 O         -2.3193712129       -2.8656578470        0.1241908747
 H         -2.1303282081       -3.1864314912       -2.4229695614
 H         -3.1016997822       -1.7860995137       -2.9142586186
 H         -3.8509912791       -3.1383305592       -2.0384508405
 H         -4.1013522463       -0.2825452837       -1.0911608610
 H         -4.6447489515       -1.6008912342       -0.0082762814
 H         -0.7716681107        1.3440100481        1.2480684353
 H         -0.0793089307        3.6293336248        0.4677548803
 H         -4.0658143341        4.3518237271       -0.8826869260
 H         -4.7419660161        2.0757418059       -0.0870136795
 H         -0.3558636507       -2.4062224429       -0.2739963162
 H          1.8578983340       -2.6738663432        0.2373647730
 H          2.7221200156        1.9302839563       -1.3147487960
 H          0.4414538067        0.9962610854       -1.4478168752
 H         -2.2119850811       -2.4344228839        0.9921992448
  43
  -89.951140550000005        1.1741275091793808E-002 !
 C         -2.9497923983       -2.5355414529       -2.1407675071
 C         -2.6324721761       -1.8589893994       -0.8025207264
 C         -3.8006130923       -0.9939759245       -0.3290402904
 S         -3.2640394953       -0.0327732920        1.1405497449
 O         -4.3958774735        0.0959290931        2.0125363211
 O         -2.0913052331       -0.7000226902        1.6726583958
 C         -2.7802230113        1.6043613898        0.5934082996
 C         -1.4754243260        2.0189706868        0.7751871073
 C         -1.0962252708        3.2781179296        0.3465961161
 C         -2.0489912670        4.0864109892       -0.2515190540
 C         -3.3641869871        3.6839194016       -0.4212559402
 C         -3.7299459230        2.4218458901        0.0113255123
 F         -1.6868430829        5.3072779174       -0.6774539100
 C         -1.4387129340       -0.9046441141       -1.0111339361
 O         -1.5953470231        0.2113811434       -1.4628323686
 N         -0.2601173191       -1.4693579619       -0.6602436044
 C          0.9996313484       -0.8966758951       -0.6124339367
 C          2.0477449353       -1.6685191401       -0.1048304074
 C          3.3239285334       -1.1465440472       -0.0353124339
 C          3.5809962398        0.1607368949       -0.4685886646
 C          2.5274829069        0.9242866487       -0.9732415532
 C          1.2525126313        0.4049153609       -1.0487274104
 C          4.8803085667        0.7177174563       -0.4053206101
 N          5.9192322902        1.1977575202       -0.3657797234
 C          4.4592789825       -1.9749328952        0.5059898595
 F          5.0260949620       -1.4170805427        1.5864888534
 F          5.4359571096       -2.1485025070       -0.3983540586
 F          4.0675359174       -3.2030548498        0.8764081871
 O         -2.3182021719       -2.8648505666        0.1265337556
 H         -3.8469386423       -3.1392754641       -2.0377466586
 H         -2.1258122661       -3.1866451057       -2.4203417299
 H         -3.0973721727       -1.7870602328       -2.9133843616
 H         -4.0997713304       -0.2831225843       -1.0923990160
 H         -4.6438186339       -1.6010454226       -0.0093057327
 H         -0.7746757270        1.3493006616        1.2477832105
 H         -0.0860678539        3.6356823450        0.4670914524
 H         -4.0736079939        4.3511972695       -0.8839563301
 H         -4.7459540419        2.0739978189       -0.0882000983
 H         -0.3542162339       -2.4061448605       -0.2721961878
 H          1.8600465137       -2.6756257336        0.2360750941
 H          2.7243853292        1.9307710882       -1.3092937887
 H          0.4432712232        0.9977288059       -1.4418174328
 H         -2.2110960323       -2.4330090730        0.9942547182
  43
  -89.951140030000005        1.1734816099516729E-002 !
 C         -2.9476171460       -2.4757240411       -2.2089085361
 C         -2.6426095842       -1.8164598016       -0.8592177430
 C         -3.8070272366       -0.9415025556       -0.3949765785
 S         -3.2809676179       -0.0015627276        1.0920732601
 O         -4.4239741493        0.1318113080        1.9486675847
 O         -2.1241654307       -0.6880416944        1.6344784756
 C         -2.7700370453        1.6350991646        0.5686884402
 C         -3.7013411695        2.4692690169       -0.0194637045
 C         -3.3145616527        3.7311730122       -0.4338826542
 C         -1.9975216931        4.1165757086       -0.2404430093
 C         -1.0632750545        3.2913437659        0.3637292777
 C         -1.4634137245        2.0325877615        0.7740395325
 F         -1.6149166640        5.3372399170       -0.6487210837
 C         -1.4338788967       -0.8753341239       -1.0397041414
 O         -1.5695102764        0.2472955186       -1.4817194134
 N         -0.2679233674       -1.4589824722       -0.6777201206
 C          0.9982695735       -0.9033510249       -0.6055361020
 C          2.0290197659       -1.6945170435       -0.0921455491
 C          3.3106675997       -1.1900218912        0.0015233179
 C          3.5907192845        0.1186926026       -0.4128584399
 C          2.5544099549        0.9015417908       -0.9236106631
 C          1.2740965039        0.3996942350       -1.0231886036
 C          4.8958863540        0.6580059685       -0.3245374668
 N          5.9406659912        1.1234444562       -0.2665570892
 C          4.4274205339       -2.0393085632        0.5490970826
 F          4.9860033824       -1.5013288111        1.6438537916
 F          5.4145077211       -2.2153084268       -0.3434017356
 F          4.0145949758       -3.2663523830        0.8996743687
 O         -2.3552835003       -2.8353148138        0.0643796395
 H         -3.8536127084       -3.0692243748       -2.1257408661
 H         -2.1275130897       -3.1342486762       -2.4824292703
 H         -3.0740679369       -1.7178536116       -2.9760956002
 H         -4.0855790336       -0.2195018284       -1.1556616850
 H         -4.6625065414       -1.5409913652       -0.0940915358
 H         -4.7197706728        2.1344740488       -0.1373071911
 H         -4.0091852281        4.4112363010       -0.9004073819
 H         -0.0509768160        3.6358595768        0.5028420818
 H         -0.7776700964        1.3501600892        1.2503754299
 H         -0.3797089174       -2.3985457984       -0.3012737987
 H          1.8235269622       -2.7029168633        0.2343648347
 H          2.7690323259        1.9091452567       -1.2451614486
 H          0.4781986772        1.0074545178       -1.4206745418
 H         -2.2559402372       -2.4133973281        0.9378709026
  43
  -89.951139580000003        1.1729229454908756E-002 !
 C         -2.8835591318       -2.3914168680       -2.3768425353
 C         -2.6083555162       -1.7965204151       -0.9913166917
 C         -3.7895598150       -0.9567933058       -0.5049894239
 S         -3.2983975439       -0.0860906677        1.0351930578
 O         -4.4566835052       -0.0069686330        1.8778822150
 O         -2.1430821140       -0.7865805209        1.5626415872
 C         -2.7973317144        1.5795958745        0.6015819016
 C         -3.7283657628        2.4320840616        0.0398650307
 C         -3.3491350406        3.7168570511       -0.3055136578
 C         -2.0397402131        4.1058628735       -0.0716105298
 C         -1.1061241923        3.2615407961        0.5066045530
 C         -1.4986865881        1.9799814420        0.8478395343
 F         -1.6643127594        5.3490983571       -0.4129598665
 C         -1.4066264764       -0.8361045606       -1.1043597290
 O         -1.5464987699        0.3057414919       -1.4925449330
 N         -0.2408692365       -1.4259956941       -0.7519850594
 C          1.0183084248       -0.8629078238       -0.6313044960
 C          2.0486305655       -1.6691438942       -0.1410279599
 C          3.3235410988       -1.1581973880       -0.0015225099
 C          3.5970367961        0.1720251408       -0.3458212763
 C          2.5611686425        0.9698428247       -0.8337552052
 C          1.2876510735        0.4618441314       -0.9790179212
 C          4.8952914342        0.7182708826       -0.2095344372
 N          5.9339933999        1.1901132595       -0.1103631015
 C          4.4398994451       -2.0234203969        0.5213396641
 F          4.0338320946       -3.2701339772        0.8037992367
 F          4.9757227549       -1.5355350016        1.6504127259
 F          5.4426807943       -2.1457152858       -0.3625967816
 O         -2.3260098407       -2.8568067091       -0.1139604522
 H         -2.0520892124       -3.0277265963       -2.6680611339
 H         -3.0049708324       -1.5979307099       -3.1079874633
 H         -3.7845551612       -2.9970038208       -2.3386895131
 H         -4.0629094552       -0.2009823754       -1.2340635708
 H         -4.6435796502       -1.5786596820       -0.2486877796
 H         -4.7409750430        2.0929599664       -0.1111179288
 H         -4.0437641645        4.4118900525       -0.7494222369
 H         -0.1000890160        3.6092496840        0.6791816142
 H         -0.8130834066        1.2820139931        1.3013060772
 H         -0.3492282822       -2.3840728895       -0.4243723472
 H          1.8480811582       -2.6944088096        0.1315932124
 H          2.7707703594        1.9941648446       -1.1012306101
 H          0.4921628675        1.0812806894       -1.3589164414
 H         -2.2454992520       -2.4774091648        0.7807051514
  43
  -89.951131849999996        1.1633677495659694E-002 !
 C         -2.9514710331       -2.3964276991       -2.3947016615
 C         -2.6494397545       -1.8065786841       -1.0122670773
 C         -3.8223151866       -0.9678886874       -0.5033733681
 S         -3.3245767798       -0.1150564008        1.0438560931
 O         -4.4961386608        0.0236536898        1.8595564576
 O         -2.2143659424       -0.8657610586        1.5987809323
 C         -2.7306391843        1.5218176251        0.6165381438
 C         -3.6036084864        2.4223568921        0.0369415068
 C         -3.1480324324        3.6828905531       -0.3051390331
 C         -1.8234697160        4.0003184626       -0.0494725083
 C         -0.9480380401        3.1085019178        0.5480252527
 C         -1.4166232446        1.8516548510        0.8849379953
 F         -1.3737718341        5.2191092204       -0.3886941050
 C         -1.4505110354       -0.8453929548       -1.1491837207
 O         -1.5937850954        0.2847296608       -1.5693893398
 N         -0.2840436184       -1.4169061979       -0.7706307378
 C          0.9715483075       -0.8429266397       -0.6623187528
 C          2.0004880798       -1.6211083600       -0.1261170993
 C          3.2706526298       -1.0964132456        0.0061576965
 C          3.5406906368        0.2193465447       -0.3922163478
 C          2.5063677168        0.9888209225       -0.9266664594
 C          1.2375995449        0.4671047663       -1.0642666390
 C          4.8338835655        0.7794797970       -0.2636342346
 N          5.8683139734        1.2620907644       -0.1718635338
 C          4.3855717099       -1.9305097430        0.5803159174
 F          3.9837323099       -3.1663491054        0.9117794101
 F          4.9030305088       -1.3898149292        1.6939010076
 F          5.4006815621       -2.0839690298       -0.2843021379
 O         -2.3515279392       -2.8699126348       -0.1443438574
 H         -2.1278070937       -3.0358275860       -2.7009411721
 H         -3.0810330817       -1.6001699545       -3.1213824082
 H         -3.8545405457       -2.9978606357       -2.3430577800
 H         -4.0999902382       -0.2029587381       -1.2213115930
 H         -4.6768197459       -1.5898274549       -0.2481072321
 H         -4.6303279739        2.1387376440       -0.1316843624
 H         -3.7952317781        4.4132153890       -0.7637694514
 H          0.0724959133        3.4004978377        0.7378982365
 H         -0.7780339046        1.1189055588        1.3522015978
 H         -0.3887674999       -2.3677641333       -0.4206192270
 H          1.8024380979       -2.6348062510        0.1883917090
 H          2.7131370017        2.0017267401       -1.2365026627
 H          0.4432216158        1.0650269597       -1.4791142176
 H         -2.2830675156       -2.4986909099        0.7556931548
  43
  -89.951126570000000        1.1568858262696614E-002 !
 C         -3.0344062914       -2.4770491369       -2.2330669443
 C         -2.6930352838       -1.8267183951       -0.8873681553
 C         -3.8437049200       -0.9496772104       -0.3923732476
 S         -3.3027478416       -0.0331530237        1.1030271708
 O         -4.4566061723        0.1666149415        1.9310882154
 O         -2.1959166946       -0.7766873293        1.6741662185
 C         -2.6870826285        1.5696765387        0.5864967993
 C         -3.5542076981        2.4583772976       -0.0195441616
 C         -3.0818588340        3.6918026327       -0.4306605127
 C         -1.7468271396        3.9950671060       -0.2153911105
 C         -0.8767098541        3.1159301658        0.4080803552
 C         -1.3621299970        1.8861907224        0.8140959437
 F         -1.2811053521        5.1870772247       -0.6214357357
 C         -1.4865860334       -0.8882067984       -1.0971278213
 O         -1.6256691431        0.2193821347       -1.5748436346
 N         -0.3194818687       -1.4513799545       -0.7082465470
 C          0.9425582400       -0.8844567477       -0.6480973311
 C          1.9701806759       -1.6391677018       -0.0769819384
 C          3.2461401271       -1.1193697224        0.0115079135
 C          3.5235226895        0.1678565301       -0.4669681937
 C          2.4906747111        0.9136380712       -1.0366846272
 C          1.2160155952        0.3965959907       -1.1304441511
 C          4.8227664401        0.7226649942       -0.3841886746
 N          5.8620410365        1.2004686012       -0.3307241058
 C          4.3593840674       -1.9279831009        0.6241158107
 F          4.8910688153       -1.3272750825        1.6996319229
 F          5.3654485500       -2.1406289026       -0.2384697198
 F          3.9504786279       -3.1386861734        1.0310306659
 O         -2.3878768357       -2.8516985585        0.0230851255
 H         -3.1706948491       -1.7142750553       -2.9936328853
 H         -3.9434692641       -3.0630955952       -2.1326527080
 H         -2.2260344753       -3.1412503345       -2.5269628783
 H         -4.1275780060       -0.2148408361       -1.1387799135
 H         -4.7002076705       -1.5476444158       -0.0906507740
 H         -4.5891987354        2.1872915070       -0.1549339879
 H         -3.7241097531        4.4118138742       -0.9119822297
 H          0.1526869283        3.3964389999        0.5643956838
 H         -0.7283504734        1.1645237105        1.3045836585
 H         -0.4277484212       -2.3810545100       -0.3061490550
 H          1.7665348128       -2.6305599284        0.2989797941
 H          2.7031627775        1.9041840787       -1.4087318651
 H          0.4227339706        0.9761032440       -1.5725688924
 H         -2.2987269154       -2.4402300144        0.9037024370
  43
  -89.951118159999993        1.1466358918793317E-002 !
 C         -2.9919134622       -2.4440153438       -2.3482493485
 C         -2.6610331576       -1.8453927915       -0.9760931247
 C         -3.8294157058       -1.0156566392       -0.4423653930
 S         -3.3105893490       -0.1571237679        1.0944814062
 O         -4.4734669550       -0.0028642444        1.9195278419
 O         -2.2009536977       -0.9125833814        1.6441725528
 C         -2.7057123616        1.4713217726        0.6501075242
 C         -1.3857279716        1.7896429007        0.9027183555
 C         -0.9075681721        3.0390020206        0.5516941472
 C         -1.7798042697        3.9352832456       -0.0437347536
 C         -3.1101489984        3.6297169350       -0.2834285030
 C         -3.5752772114        2.3766970446        0.0728861737
 F         -1.3209068775        5.1465561454       -0.3970004306
 C         -1.4755851949       -0.8728630770       -1.1479247214
 O         -1.6383728741        0.2477166269       -1.5862183903
 N         -0.2972314001       -1.4225956353       -0.7740846194
 C          0.9514396134       -0.8297412059       -0.6891444109
 C          1.9939890253       -1.5803346555       -0.1401172053
 C          3.2571618637       -1.0346550738       -0.0271698512
 C          3.5064507331        0.2748482422       -0.4584013087
 C          2.4589997000        1.0160802774       -1.0069977163
 C          1.1971356916        0.4733046116       -1.1252682109
 C          4.7918697349        0.8565153000       -0.3488529051
 N          5.8193180439        1.3563043371       -0.2724293724
 C          4.3864107647       -1.8384258556        0.5620861284
 F          4.0045856340       -3.0724957824        0.9223786362
 F          4.8980971332       -1.2647687408        1.6618335365
 F          5.4015784217       -1.9954833167       -0.3016983052
 O         -2.3317782153       -2.9020479387       -0.1114740457
 H         -2.1705849663       -3.0780598705       -2.6714008059
 H         -3.1453917964       -1.6520829344       -3.0749786169
 H         -3.8884810673       -3.0525306324       -2.2721498710
 H         -4.1282661566       -0.2535363648       -1.1548157222
 H         -4.6736576333       -1.6443457243       -0.1697851695
 H         -0.7499187445        1.0540520570        1.3693591335
 H          0.1178945999        3.3215357860        0.7288663811
 H         -3.7543644419        4.3631958111       -0.7412026173
 H         -4.6065586847        2.1026432652       -0.0830935868
 H         -0.3854299705       -2.3690920234       -0.4077104552
 H          1.8119075547       -2.5888585660        0.1995958682
 H          2.6498864521        2.0237282073       -1.3430765496
 H          0.3925350704        1.0494867040       -1.5509416996
 H         -2.2568890371       -2.5289488614        0.7876031554
  43
  -89.951115659999999        1.1436064903105513E-002 !
 C         -3.0246024005       -2.5058772327       -2.2432786560
 C         -2.6796061865       -1.8630380979       -0.8947670905
 C         -3.8396622990       -1.0097931744       -0.3803389218
 S         -3.3064717335       -0.1041861715        1.1241406724
 O         -4.4641092375        0.0879656287        1.9485222130
 O         -2.2004591886       -0.8497880121        1.6942441054
 C         -2.6900531536        1.5028649435        0.6215822201
 C         -1.3655178315        1.8172744673        0.8544784986
 C         -0.8786036868        3.0496892843        0.4584983183
 C         -1.7469317948        3.9335381360       -0.1607658639
 C         -3.0816710633        3.6324857655       -0.3809338447
 C         -3.5555182637        2.3964196203        0.0202705803
 F         -1.2796283053        5.1279728326       -0.5575934652
 C         -1.4907734658       -0.9031493343       -1.1094672388
 O         -1.6511286785        0.2014927407       -1.5872915664
 N         -0.3126925241       -1.4444831998       -0.7227890049
 C          0.9396983268       -0.8558226514       -0.6692579567
 C          1.9817742400       -1.5901447104       -0.0977813649
 C          3.2488045339       -1.0479357943       -0.0153390758
 C          3.5025483347        0.2417726935       -0.5003047516
 C          2.4553982421        0.9669498834       -1.0705352984
 C          1.1896169952        0.4275030592       -1.1582620270
 C          4.7921694323        0.8193601099       -0.4235250587
 N          5.8231818821        1.3152675500       -0.3750177782
 C          4.3775698453       -1.8342549846        0.5979181408
 F          5.3851340538       -2.0329323039       -0.2661757182
 F          3.9909382275       -3.0501021216        1.0111366769
 F          4.9011068813       -1.2194993883        1.6695329881
 O         -2.3485596645       -2.8916198301        0.0023722363
 H         -3.9236577749       -3.1066259714       -2.1397220805
 H         -2.2090938132       -3.1548760624       -2.5511051129
 H         -3.1797190855       -1.7380729359       -2.9951160595
 H         -4.1394398392       -0.2696501968       -1.1152317285
 H         -4.6853595379       -1.6245863595       -0.0817668901
 H         -0.7330758557        1.0919487560        1.3413295064
 H          0.1505952523        3.3285007170        0.6191343145
 H         -3.7225308911        4.3562551955       -0.8584418004
 H         -4.5903349284        2.1268538823       -0.1192301375
 H         -0.4031008114       -2.3765087557       -0.3214364926
 H          1.7963647547       -2.5832929818        0.2829668287
 H          2.6496259955        1.9592853131       -1.4477283395
 H          0.3852528477        0.9911404619       -1.6008341361
 H         -2.2671034959       -2.4893174704        0.8882781608
  43
  -89.951099659999997        1.1244069479885294E-002 !
 C         -3.0430050687       -2.4601576456       -2.3045100315
 C         -2.7036955982       -1.8281841453       -0.9491247378
 C         -3.8616655469       -0.9682096228       -0.4411891395
 S         -3.3494143619       -0.0860664159        1.0837130780
 O         -4.5276038467        0.1469760166        1.8671068443
 O         -2.2909410357       -0.8712217429        1.6898820574
 C         -2.6564127859        1.4972892016        0.6060250101
 C         -3.4664141949        2.4240184481       -0.0218177350
 C         -2.9317000145        3.6401731969       -0.4066674533
 C         -1.5939451298        3.8887502585       -0.1433892341
 C         -0.7814932620        2.9721526747        0.5034057226
 C         -1.3288675483        1.7597958807        0.8820156077
 F         -1.0672923102        5.0633133928       -0.5246232387
 C         -1.5043465793       -0.8782578179       -1.1513319898
 O         -1.6473277654        0.2219678731       -1.6446059424
 N         -0.3382112794       -1.4226909414       -0.7340865273
 C          0.9189733771       -0.8453760293       -0.6695078873
 C          1.9451250090       -1.5821170102       -0.0729528107
 C          3.2158560855       -1.0507121229        0.0220044423
 C          3.4890378315        0.2304090321       -0.4749889398
 C          2.4577441306        0.9579690242       -1.0704951759
 C          1.1884467518        0.4291547700       -1.1709487707
 C          4.7828128166        0.7969209955       -0.3853113942
 N          5.8175725541        1.2839398155       -0.3263437240
 C          4.3278181721       -1.8397901628        0.6619843017
 F          5.3470633629       -2.0571419986       -0.1835797880
 F          3.9238275371       -3.0472627402        1.0829907579
 F          4.8396399498       -1.2170786988        1.7347337789
 O         -2.3892503239       -2.8648636377       -0.0554387048
 H         -3.1811361140       -1.6865609721       -3.0537002156
 H         -3.9501294547       -3.0506842025       -2.2134426373
 H         -2.2320339715       -3.1172082866       -2.6072014683
 H         -4.1415819800       -0.2158587492       -1.1715660040
 H         -4.7191543537       -1.5773380958       -0.1650682307
 H         -4.5058594826        2.1951096618       -0.1951341199
 H         -3.5277886776        4.3880438201       -0.9045745198
 H          0.2520118195        3.2105702384        0.6978983875
 H         -0.7414284775        1.0107724341        1.3890264244
 H         -0.4431920330       -2.3515230445       -0.3283461126
 H          1.7444849164       -2.5686406377        0.3171935508
 H          2.6669414869        1.9436280520       -1.4571155115
 H          0.3963776782        0.9944553524       -1.6330986161
 H         -2.3306213542       -2.4725918342        0.8372873951
  43
  -89.951092619999997        1.1160615866789739E-002 !
 C         -3.0641383933       -2.4614556086       -2.3107164251
 C         -2.7183512341       -1.8279562187       -0.9574505955
 C         -3.8760363459       -0.9702487982       -0.4450042348
 S         -3.3711141782       -0.0963349150        1.0865696430
 O         -4.5574542390        0.1671870272        1.8473806559
 O         -2.3416934066       -0.9030814143        1.7140609857
 C         -2.6316005554        1.4679059927        0.6154791357
 C         -3.4076719389        2.4121523183       -0.0290017577
 C         -2.8359758600        3.6122727138       -0.4107355831
 C         -1.4966014347        3.8279058482       -0.1273028389
 C         -0.7182642300        2.8942848291        0.5368554729
 C         -1.3024009883        1.6979728828        0.9117665110
 F         -0.9337491251        4.9862885905       -0.5060664162
 C         -1.5214220704       -0.8766533759       -1.1696358528
 O         -1.6654854239        0.2152420664       -1.6806024849
 N         -0.3557232248       -1.4106077391       -0.7378685252
 C          0.9007205478       -0.8308772785       -0.6805853064
 C          1.9255127487       -1.5549457944       -0.0664410176
 C          3.1951957388       -1.0200983302        0.0232545749
 C          3.4685069829        0.2518661238       -0.4967098660
 C          2.4386497656        0.9665571420       -1.1100658114
 C          1.1704493301        0.4340876191       -1.2054509400
 C          4.7611031991        0.8218555816       -0.4121297334
 N          5.7948358189        1.3112999316       -0.3568537799
 C          4.3056734465       -1.7954799394        0.6822680050
 F          5.3288958244       -2.0265765813       -0.1546797737
 F          3.9016970461       -2.9956140349        1.1236607878
 F          4.8117078578       -1.1522570644        1.7456742913
 O         -2.3971308891       -2.8636319988       -0.0650160734
 H         -3.9692440993       -3.0541455959       -2.2140158597
 H         -2.2533006817       -3.1167195645       -2.6176150006
 H         -3.2082295102       -1.6886023720       -3.0595279064
 H         -4.1547530477       -0.2136717246       -1.1715346249
 H         -4.7346126649       -1.5806124492       -0.1746672638
 H         -4.4496299444        2.2088429507       -0.2181668529
 H         -3.4046753030        4.3724934626       -0.9217547166
 H          0.3177218084        3.1073160798        0.7469458599
 H         -0.7424708353        0.9369856053        1.4319794935
 H         -0.4600771437       -2.3350181600       -0.3214983206
 H          1.7246688124       -2.5343527254        0.3411489898
 H          2.6479861635        1.9449698459       -1.5145833368
 H          0.3795398971        0.9890793576       -1.6818078534
 H         -2.3520189321       -2.4750934637        0.8305897452
  43
  -89.949080359999996        1.3271423065524537E-003 !
 C         -2.6671003982       -2.5347106476       -2.0413167780
 C         -2.3495285441       -1.6823435512       -0.8076358651
 C         -3.4618429190       -0.6715343211       -0.5341230191
 S         -2.9887477021        0.2644336849        0.9723615163
 O         -3.8780803297       -0.1168655451        2.0341334083
 O         -1.5804003163        0.0128802127        1.1946957200
 C         -3.2330761541        2.0024629207        0.6060921044
 C         -4.2147854086        2.6922166963        1.2926491366
 C         -4.4107225604        4.0364217744        1.0287376629
 C         -3.6078073149        4.6460481387        0.0778117479
 C         -2.6217207823        3.9593257496       -0.6134788503
 C         -2.4337629195        2.6155241365       -0.3414325684
 F         -3.7936039600        5.9495144999       -0.1853951891
 C         -1.0594625247       -0.8846468775       -1.1042838520
 O         -1.0853161611        0.1509389913       -1.7355262899
 N          0.0476960499       -1.5311590198       -0.6684043183
 C          1.3649629444       -1.1082360095       -0.6844204253
 C          2.3125040290       -1.9027426721       -0.0337736235
 C          3.6430037509       -1.5349280636       -0.0292309830
 C          4.0576725023       -0.3619803084       -0.6735351705
 C          3.1041361969        0.4261145379       -1.3195834337
 C          1.7755127681        0.0590133534       -1.3296927730
 C          5.4153875687        0.0350414195       -0.6836685108
 N          6.5063082923        0.3827683527       -0.7121493164
 C          4.6689144272       -2.3900391479        0.6656459681
 F          5.3084119700       -1.7293548150        1.6426038033
 F          5.6117359191       -2.8386467687       -0.1791787840
 F          4.1301601980       -3.4782198101        1.2365452094
 O         -2.1675552374       -2.5575423411        0.2792326187
 H         -3.5996331048       -3.0686551362       -1.8823138107
 H         -1.8741955765       -3.2622526834       -2.1929584872
 H         -2.7507147381       -1.9032588287       -2.9206310082
 H         -3.5548252122        0.0333655280       -1.3544698672
 H         -4.4080761955       -1.1589172884       -0.3188334792
 H         -4.8037091584        2.1660333838        2.0268780869
 H         -5.1641463872        4.6101819454        1.5440808750
 H         -2.0205132352        4.4758401877       -1.3443437251
 H         -1.6806112985        2.0414551166       -0.8578922096
 H         -0.1527591232       -2.3711690248       -0.1305526238
 H          2.0039810351       -2.8066199444        0.4698711740
 H          3.4220643975        1.3302452466       -1.8157772884
 H          1.0442664323        0.6696572743       -1.8319344385
 H         -2.0547863755       -2.0291719555        1.0834577100
  43
  -89.949080359999996        1.3271423065524537E-003 !
 C         -2.6953028901       -2.5175545881       -2.0262046946
 C         -2.3526224527       -1.6907370385       -0.7819016604
 C         -3.4680101812       -0.6998628124       -0.4534518330
 S         -2.9631864688        0.2058426936        1.0612074559
 O         -3.8180061300       -0.2108719096        2.1379118497
 O         -1.5464405675       -0.0343374223        1.2381532170
 C         -3.2368095920        1.9491253169        0.7437867415
 C         -2.4721938900        2.5934925519       -0.2115697191
 C         -2.6822740479        3.9411693032       -0.4456193331
 C         -3.6548783325        4.6001176398        0.2903639280
 C         -4.4229991505        3.9590742478        1.2493337361
 C         -4.2051614915        2.6112834387        1.4750323423
 F         -3.8620965085        5.9072886889        0.0641128574
 C         -1.0804040899       -0.8711062346       -1.0954161961
 O         -1.1356235048        0.1786207883       -1.7008921791
 N          0.0457588571       -1.5144184230       -0.7059863948
 C          1.3572583173       -1.0756924093       -0.7488090891
 C          2.3315516061       -1.8736621288       -0.1434925181
 C          3.6574802823       -1.4904198567       -0.1676019047
 C          4.0407283524       -0.2982299179       -0.7958399427
 C          3.0606503483        0.4931743551       -1.3965133972
 C          1.7364395305        0.1107739529       -1.3780266910
 C          5.3931120118        0.1148215256       -0.8348305800
 N          6.4788437890        0.4759003613       -0.8857942683
 C          4.7120100522       -2.3490105550        0.4784319296
 F          5.3715030106       -1.7032117032        1.4520429652
 F          5.6355032622       -2.7672378543       -0.4025569382
 F          4.2017041450       -3.4561099028        1.0389982527
 O         -2.1303259976       -2.5890530457        0.2782754452
 H         -2.8107424805       -1.8666888798       -2.8875761816
 H         -3.6169368398       -3.0661224691       -1.8540049991
 H         -1.8988618676       -3.2318688590       -2.2171400216
 H         -3.5919389521        0.0230433262       -1.2537944099
 H         -4.4022977606       -1.2033339821       -0.2235146626
 H         -1.7283814589        2.0404505762       -0.7633216086
 H         -2.1082532301        4.4816517715       -1.1809949231
 H         -5.1670165073        4.5118944441        1.8000223556
 H         -4.7666781450        2.0612117602        2.2132128075
 H         -0.1300674723       -2.3690350246       -0.1827247799
 H          2.0474141146       -2.7923290081        0.3475800371
 H          3.3543972308        1.4120079445       -1.8804553611
 H          0.9845635963        0.7241514963       -1.8452605591
 H         -2.0007656386       -2.0784419199        1.0913936960
  43
  -89.949080289999998        1.3270440039351698E-003 !
 C         -2.6288432811       -2.4362812199       -2.1981708924
 C         -2.3199475622       -1.6685516069       -0.9080060410
 C         -3.4515816441       -0.7049608232       -0.5549142745
 S         -2.9870011119        0.1298922321        1.0124112069
 O         -3.8596480412       -0.3465745865        2.0492942448
 O         -1.5718930350       -0.1061375178        1.2071731377
 C         -3.2712991339        1.8841395625        0.7747523951
 C         -2.4945934901        2.5810696606       -0.1327581061
 C         -2.7132024899        3.9366592664       -0.3051247582
 C         -3.7062291326        4.5503441249        0.4426132201
 C         -4.4865308382        3.8565404213        1.3538423533
 C         -4.2600371248        2.5012966357        1.5179790898
 F         -3.9216597409        5.8651529541        0.2761977611
 C         -1.0497493641       -0.8233244533       -1.1544480196
 O         -1.1028994813        0.2544591830       -1.7086586531
 N          0.0744916819       -1.4753869838       -0.7741721296
 C          1.3826014890       -1.0247008529       -0.7701542670
 C          2.3528609414       -1.8454169971       -0.1892519049
 C          3.6756668269       -1.4512675656       -0.1695247619
 C          4.0596829971       -0.2252202624       -0.7283000350
 C          3.0835754663        0.5887455184       -1.3048199056
 C          1.7625959380        0.1957290801       -1.3301125600
 C          5.4090416005        0.1994384678       -0.7217563329
 N          6.4924556950        0.5708687319       -0.7344014776
 C          4.7260476689       -2.3342349425        0.4498584063
 F          4.2154425864       -3.4727591428        0.9431774739
 F          5.3630327985       -1.7349319648        1.4671952304
 F          5.6682091618       -2.6991892340       -0.4350417074
 O         -2.1104708386       -2.6158611351        0.1113450714
 H         -1.8216726326       -3.1333075099       -2.4071260186
 H         -2.7329622368       -1.7448743221       -3.0288517149
 H         -3.5483995246       -3.0007209795       -2.0724028824
 H         -3.5663268526        0.0551694940       -1.3214186250
 H         -4.3852975252       -1.2274798713       -0.3694790680
 H         -1.7348300423        2.0621965221       -0.6958443276
 H         -2.1303108528        4.5173945040       -1.0018246600
 H         -5.2464106424        4.3752721373        1.9159126379
 H         -4.8304283661        1.9109231521        2.2171921684
 H         -0.1034786787       -2.3565621981       -0.2977901270
 H          2.0680301167       -2.7905125790        0.2483517677
 H          3.3778499608        1.5338125359       -1.7349190847
 H          1.0138494312        0.8266661275       -1.7786029113
 H         -2.0021822560       -2.1446213027        0.9509247901
  43
  -89.949080280000004        1.3270299613070914E-003 !
 C         -2.6002540979       -2.4504063764       -2.2214846215
 C         -2.3161452760       -1.6594259980       -0.9396782178
 C         -3.4439157057       -0.6740426919       -0.6379517569
 S         -3.0105958262        0.1879842579        0.9235832925
 O         -3.9170266051       -0.2552215896        1.9461427002
 O         -1.6045115890       -0.0618304669        1.1615991994
 C         -3.2649034716        1.9402780322        0.6416772442
 C         -4.2645215891        2.5858755321        1.3451411178
 C         -4.4682032973        3.9401619999        1.1467607719
 C         -3.6549018503        4.6042022508        0.2422460697
 C         -2.6508914793        3.9619331910       -0.4657740881
 C         -2.4552390191        2.6075876792       -0.2593029303
 F         -3.8483521786        5.9177653837        0.0423686257
 C         -1.0283977734       -0.8360789171       -1.1687513294
 O         -1.0519953917        0.2300873134       -1.7469716672
 N          0.0762472391       -1.4939719873       -0.7436828417
 C          1.3893215540       -1.0590159313       -0.7111179490
 C          2.3318728411       -1.8781670270       -0.0841651639
 C          3.6583789997       -1.4994441772       -0.0340724288
 C          4.0738398616       -0.2906317222       -0.6077476577
 C          3.1251761197        0.5221359099       -1.2299232145
 C          1.8006811207        0.1443472162       -1.2856176898
 C          5.4276226796        0.1180647198       -0.5703812974
 N          6.5151625585        0.4771299130       -0.5575494685
 C          4.6790819935       -2.3808975609        0.6351499610
 F          4.1401028168       -3.5021984874        1.1376498219
 F          5.2934081619       -1.7669769300        1.6577081296
 F          5.6421547363       -2.7763278116       -0.2134062387
 O         -2.1471611244       -2.5874241814        0.1046523295
 H         -1.7971824690       -3.1621003610       -2.3934763233
 H         -2.6723466390       -1.7756350665       -3.0690810587
 H         -3.5304263293       -3.0001073466       -2.1092743773
 H         -3.5275639700        0.0709912373       -1.4230845587
 H         -4.3893530975       -1.1802196582       -0.4671325952
 H         -4.8613630881        2.0178445080        2.0407743437
 H         -5.2355458776        4.4805615630        1.6774192311
 H         -2.0422680808        4.5200504258       -1.1589515637
 H         -1.6882017677        2.0669811435       -0.7912370437
 H         -0.1264518802       -2.3623568635       -0.2538774082
 H          2.0224807448       -2.8096823737        0.3656987612
 H          3.4436464661        1.4540227338       -1.6713923669
 H          1.0731767887        0.7743894610       -1.7689786677
 H         -2.0558268432       -2.0999170860        0.9369040064
  43
  -89.949080280000004        1.3270299613070914E-003 !
 C         -2.6700441690       -2.5363882190       -2.0414404554
 C         -2.3510906530       -1.6839396063       -0.8081829681
 C         -3.4626728295       -0.6724853735       -0.5340658010
 S         -2.9880448070        0.2636618965        0.9718316209
 O         -3.8769393714       -0.1168353770        2.0342561673
 O         -1.5797183004        0.0111668657        1.1933672526
 C         -3.2310684270        2.0019611991        0.6058075329
 C         -4.2087311973        2.6935918918        1.2962260194
 C         -4.4029794361        4.0382328199        1.0332675500
 C         -3.6024998627        4.6464123316        0.0793720702
 C         -2.6205254847        3.9577881657       -0.6158555622
 C         -2.4342003807        2.6135755546       -0.3447149754
 F         -3.7866099953        5.9503126579       -0.1828836687
 C         -1.0609835219       -0.8867687836       -1.1060173888
 O         -1.0870287706        0.1482756139       -1.7381543360
 N          0.0463302675       -1.5328718939       -0.6699907976
 C          1.3633854225       -1.1092668950       -0.6858996134
 C          2.3110146145       -1.9024883863       -0.0338367529
 C          3.6413023210       -1.5339167465       -0.0290570514
 C          4.0556429535       -0.3615267478       -0.6745877082
 C          3.1020321344        0.4252303326       -1.3221430933
 C          1.7736197588        0.0573772254       -1.3324760737
 C          5.4131612824        0.0361321139       -0.6845668462
 N          6.5038638872        0.3845429948       -0.7126050690
 C          4.6673341088       -2.3875061254        0.6674974415
 F          5.3061421850       -1.7250741881        1.6437241912
 F          5.6106949026       -2.8368902643       -0.1763123184
 F          4.1288934355       -3.4751067168        1.2397867933
 O         -2.1686690210       -2.5589599728        0.2787374740
 H         -2.7538269687       -1.9051158229       -2.9208743029
 H         -3.6028009581       -3.0697315925       -1.8817559912
 H         -1.8776180859       -3.2643871972       -2.1933195931
 H         -3.5559601761        0.0321268091       -1.3546177548
 H         -4.4089462336       -1.1593776312       -0.3178657134
 H         -4.7959089571        2.1684720642        2.0326208214
 H         -5.1532171071        4.6134374017        1.5516313927
 H         -2.0211443126        4.4731867327       -1.3489938752
 H         -1.6839125936        2.0382510851       -0.8639603349
 H         -0.1538854564       -2.3725169208       -0.1314785861
 H          2.0027350623       -2.8060167317        0.4706218113
 H          3.4196969905        1.3289300700       -1.8192698867
 H          1.0422872094        0.6670597384       -1.8357802291
 H         -2.0550974214       -2.0304178920        1.0827456330
  43
  -89.949080269999996        1.3270159188076547E-003 !
 C         -2.6590246074       -2.4898604318       -2.1069514586
 C         -2.3341524368       -1.6875551835       -0.8419877944
 C         -3.4585936825       -0.7101542879       -0.5042901553
 S         -2.9746624619        0.1659642613        1.0343813447
 O         -3.8374395513       -0.2790329077        2.0932801516
 O         -1.5582538024       -0.0691845514        1.2204399969
 C         -3.2561994332        1.9138986046        0.7514871638
 C         -2.4861815702        2.5832286309       -0.1821403556
 C         -2.7024087492        3.9343490772       -0.3894093834
 C         -3.6863142227        4.5714706952        0.3507794416
 C         -4.4598725985        3.9053623772        1.2880585416
 C         -4.2358896365        2.5543371766        1.4869742871
 F         -3.8993184535        5.8819575870        0.1506567192
 C         -1.0637539478       -0.8540455525       -1.1247589693
 O         -1.1191623422        0.2078585769       -1.7085908015
 N          0.0622337618       -1.4989500368       -0.7374623325
 C          1.3714169224       -1.0518094822       -0.7576481200
 C          2.3442455692       -1.8564598761       -0.1588466323
 C          3.6680274191       -1.4650864455       -0.1613645518
 C          4.0505398240       -0.2579876098       -0.7610005740
 C          3.0718688978        0.5399875955       -1.3553114040
 C          1.7498527886        0.1496591057       -1.3582634281
 C          5.4007631270        0.1635776778       -0.7775467536
 N          6.4846810172        0.5321662475       -0.8096927471
 C          4.7210847864       -2.3306154731        0.4777363378
 F          5.6564783488       -2.7245796657       -0.4018496570
 F          4.2118876232       -3.4523501280        1.0094523551
 F          5.3661299325       -1.7014248688        1.4716970854
 O         -2.1173935312       -2.6067777486        0.2012635386
 H         -1.8569760452       -3.1962131372       -2.3039334008
 H         -2.7682717865       -1.8216298130       -2.9557420994
 H         -3.5797303622       -3.0463254996       -1.9564998952
 H         -3.5784117411        0.0288300034       -1.2904609394
 H         -4.3922444724       -1.2236222316       -0.2948575234
 H         -1.7335130518        2.0466045428       -0.7380961601
 H         -2.1244543786        4.4940057734       -1.1071556441
 H         -5.2126800519        4.4417461435        1.8430430299
 H         -4.8012479682        1.9851227975        2.2074984377
 H         -0.1137736568       -2.3653660179       -0.2340218250
 H          2.0606571374       -2.7868092306        0.3101312911
 H          3.3649863280        1.4703426756       -1.8170590529
 H          0.9991346984        0.7680982441       -1.8206478044
 H         -1.9996412621       -2.1128491778        1.0263697640
  43
  -89.949080260000002        1.3270018764767700E-003 !
 C         -2.5977340270       -2.4484899105       -2.2218427294
 C         -2.3147640060       -1.6579077793       -0.9395586262
 C         -3.4428544383       -0.6728227472       -0.6383994878
 S         -3.0113915774        0.1884646426        0.9240547547
 O         -3.9188502236       -0.2553888467        1.9454067914
 O         -1.6054813278       -0.0610110780        1.1634494094
 C         -3.2664647871        1.9406208300        0.6421548175
 C         -4.2707888816        2.5842535072        1.3406925848
 C         -4.4759087525        3.9382112323        1.1415591446
 C         -3.6590517662        4.6039631398        0.2414991375
 C         -2.6502734074        3.9636468758       -0.4615112967
 C         -2.4533312783        2.6095830288       -0.2544198651
 F         -3.8536810185        5.9172764172        0.0410812672
 C         -1.0270807531       -0.8341369326       -1.1672822484
 O         -1.0504346992        0.2326441892       -1.7443288822
 N          0.0773511241       -1.4924950846       -0.7423566489
 C          1.3906271570       -1.0582487739       -0.7100862445
 C          2.3330177699       -1.8783741596       -0.0842072174
 C          3.6597155644       -1.5002738956       -0.0342620912
 C          4.0755554569       -0.2912406611       -0.6071765556
 C          3.1271790016        0.5221299533       -1.2290082138
 C          1.8024548838        0.1451024503       -1.2843558871
 C          5.4294578135        0.1170796961       -0.5696971303
 N          6.5174702711        0.4748125309       -0.5581386523
 C          4.6802451336       -2.3827383667        0.6338674986
 F          4.1409259192       -3.5041685271        1.1357542086
 F          5.2952359055       -1.7698118625        1.6566138258
 F          5.6428185398       -2.7779728682       -0.2153703638
 O         -2.1463980347       -2.5862396523        0.1045735172
 H         -2.6691448143       -1.7734201740       -3.0692456840
 H         -3.5280284198       -2.9981788766       -2.1105335093
 H         -1.7945745306       -3.1601792283       -2.3934239643
 H         -3.5257608943        0.0726056791       -1.4232451058
 H         -4.3883181704       -1.1793797370       -0.4689871089
 H         -4.8698115555        2.0151021633        2.0335440616
 H         -5.2469867866        4.4770824255        1.6683271791
 H         -2.0388959839        4.5230905609       -1.1511838432
 H         -1.6827303092        2.0703484379       -0.7825827320
 H         -0.1256036079       -2.3612540859       -0.2533103609
 H          2.0234357877       -2.8103220016        0.3646667098
 H          3.4460174367        1.4540003208       -1.6702503776
 H          1.0752365421        0.7754567571       -1.7677134491
 H         -2.0554077792       -2.0989320390        0.9370074709
  43
  -89.949080260000002        1.3270018764767700E-003 !
 C         -2.6322646420       -2.4353441023       -2.1992612996
 C         -2.3208763187       -1.6683104797       -0.9092904389
 C         -3.4512734140       -0.7040663734       -0.5541430295
 S         -2.9836231747        0.1295568464        1.0128666868
 O         -3.8541517817       -0.3477296027        2.0511380481
 O         -1.5681329749       -0.1063910650        1.2046683306
 C         -3.2688610398        1.8837431103        0.7764249842
 C         -2.4926681940        2.5816020308       -0.1308090014
 C         -2.7124767072        3.9370559631       -0.3027550253
 C         -3.7062135498        4.5495942933        0.4449941848
 C         -4.4860275301        3.8548190554        1.3559118549
 C         -4.2582841446        2.4997410206        1.5196930113
 F         -3.9228868727        5.8642271771        0.2788902933
 C         -1.0504795871       -0.8237533271       -1.1572522945
 O         -1.1037308199        0.2541470434       -1.7111963535
 N          0.0738438755       -1.4765377829       -0.7784056757
 C          1.3820004026       -1.0259813081       -0.7745173888
 C          2.3515801938       -1.8449912640       -0.1900984057
 C          3.6743361651       -1.4507285099       -0.1698720579
 C          4.0589803299       -0.2263632495       -0.7318521891
 C          3.0836028173        0.5857838403       -1.3121534716
 C          1.7626292107        0.1927189639       -1.3377902861
 C          5.4082919292        0.1984537587       -0.7246787985
 N          6.4916331485        0.5699960063       -0.7368947976
 C          4.7238865604       -2.3316914100        0.4538276943
 F          4.2126781186       -3.4687646308        0.9497731112
 F          5.3591855590       -1.7292274085        1.4703274364
 F          5.6674553884       -2.6991570520       -0.4284675805
 O         -2.1105420871       -2.6160705229        0.1094848632
 H         -2.7365592851       -1.7435914971       -3.0296347781
 H         -3.5523358202       -2.9987184878       -2.0725467974
 H         -1.8261993905       -3.1332781505       -2.4093687902
 H         -3.5663307318        0.0565885686       -1.3200931614
 H         -4.3852091423       -1.2258379430       -0.3677273196
 H         -1.7324538672        2.0634862845       -0.6939926927
 H         -2.1300485143        4.5185655592       -0.9991951357
 H         -5.2464414289        4.3726795766        1.9180521436
 H         -4.8282071917        1.9085947543        2.2186376686
 H         -0.1041964342       -2.3572888570       -0.3012616793
 H          2.0662029112       -2.7887828181        0.2499630601
 H          3.3784495951        1.5293879590       -1.7450554078
 H          1.0143720591        0.8223223338       -1.7889727957
 H         -2.0015155199       -2.1453013352        0.9492075649
  43
  -89.949080240000001        1.3269737922408269E-003 !
 C         -2.6244411421       -2.5029398387       -2.1256722117
 C         -2.3275610636       -1.6765102433       -0.8693919180
 C         -3.4503135078       -0.6800223947       -0.5863449515
 S         -3.0019029534        0.2245315559        0.9466040923
 O         -3.9002964597       -0.1878402803        1.9889590263
 O         -1.5942772318       -0.0213932355        1.1794626569
 C         -3.2558988947        1.9685294046        0.6171700804
 C         -4.2502006364        2.6350876790        1.3084572937
 C         -4.4540327363        3.9833365907        1.0726280146
 C         -3.6460536278        4.6203384525        0.1442317752
 C         -2.6473092297        3.9569537543       -0.5516263034
 C         -2.4515763041        2.6088583681       -0.3077815840
 F         -3.8394809249        5.9278982288       -0.0917785401
 C         -1.0398769403       -0.8633940511       -1.1326996873
 O         -1.0656967254        0.1863043706       -1.7401774395
 N          0.0666404119       -1.5126319364       -0.6992729107
 C          1.3814840370       -1.0820733696       -0.6922656984
 C          2.3273133526       -1.8868203793       -0.0517882419
 C          3.6556068394       -1.5121468299       -0.0258350277
 C          4.0697454629       -0.3219698520       -0.6380487053
 C          3.1178962650        0.4763535116       -1.2740080314
 C          1.7914865899        0.1024757578       -1.3055567452
 C          5.4253747322        0.0820524608       -0.6262165831
 N          6.5147330909        0.4356462991       -0.6364579617
 C          4.6796648023       -2.3781918968        0.6581472080
 F          5.6328007424       -2.8014951220       -0.1881532372
 F          4.1415602840       -3.4825416560        1.1977654724
 F          5.3063381446       -1.7377179614        1.6566383094
 O         -2.1519001018       -2.5748686576        0.1994852852
 H         -1.8242171801       -3.2208502786       -2.2846651749
 H         -2.7030332537       -1.8522560799       -2.9913227580
 H         -3.5545335986       -3.0473583866       -1.9895501354
 H         -3.5387006425        0.0428214413       -1.3914497164
 H         -4.3954272811       -1.1788453479       -0.3935795139
 H         -4.8428131031        2.0879241559        2.0241022403
 H         -5.2174265023        4.5395182048        1.5925052361
 H         -2.0424777214        4.4944240205       -1.2641257284
 H         -1.6883416711        2.0524034571       -0.8286799765
 H         -0.1341929525       -2.3661533341       -0.1832721348
 H          2.0191440850       -2.8041219885        0.4271979445
 H          3.4354292549        1.3937194581       -1.7455416320
 H          1.0614747830        0.7212009794       -1.7996714254
 H         -2.0521803005       -2.0641192101        1.0167099318
  43
  -89.949080219999999        1.3269457085992493E-003 !
 C         -2.6526882937       -2.4902296338       -2.1046460929
 C         -2.3315434045       -1.6867866397       -0.8394491182
 C         -3.4581208885       -0.7107407531       -0.5048482299
 S         -2.9791192200        0.1670066018        1.0344423310
 O         -3.8448272949       -0.2774135388        2.0911775609
 O         -1.5631151556       -0.0673026698        1.2247914774
 C         -3.2607835526        1.9146215756        0.7494124512
 C         -2.4887077707        2.5837271346       -0.1826482193
 C         -2.7050185629        3.9345786623       -0.3913744958
 C         -3.6911728492        4.5717041902        0.3457830937
 C         -4.4668857735        3.9058156921        1.2814278274
 C         -4.2427376750        2.5550641787        1.4818676415
 F         -3.9044215099        5.8819281603        0.1441000791
 C         -1.0614912473       -0.8521313949       -1.1201793564
 O         -1.1167262656        0.2098395857       -1.7039244700
 N          0.0643626638       -1.4962117781       -0.7311645057
 C          1.3736687080       -1.0494349070       -0.7516168385
 C          2.3471161847       -1.8567863808       -0.1574596247
 C          3.6711081494       -1.4661497807       -0.1608196459
 C          4.0531539832       -0.2569874829       -0.7564916768
 C          3.0738884133        0.5438211366       -1.3459304324
 C          1.7516714598        0.1541317871       -1.3482233996
 C          5.4035959940        0.1638683806       -0.7738800362
 N          6.4877508833        0.5317482514       -0.8066473401
 C          4.7248924997       -2.3350539398        0.4725411278
 F          5.6572526792       -2.7271914491       -0.4111219207
 F          4.2157941045       -3.4579483304        1.0019267512
 F          5.3735803082       -1.7100780568        1.4667649101
 O         -2.1157864407       -2.6051263846        0.2047836027
 H         -2.7623318723       -1.8225445259       -2.9538146984
 H         -3.5723042140       -3.0487666853       -1.9552297569
 H         -1.8487313532       -3.1947714954       -2.3003407648
 H         -3.5772584274        0.0276193688       -1.2916917504
 H         -4.3915114524       -1.2254437429       -0.2972439190
 H         -1.7343395951        2.0471515632       -0.7363071644
 H         -2.1255865477        4.4939603523       -1.1081431380
 H         -5.2214317757        4.4421966586        1.8340484864
 H         -4.8095458919        1.9861329201        2.2014811111
 H         -0.1116248300       -2.3632463455       -0.2288198449
 H          2.0638645612       -2.7887800945        0.3083753700
 H          3.3666770564        1.4758526788       -1.8045300090
 H          1.0004636197        0.7747241522       -1.8069164997
 H         -1.9992488417       -2.1103047128        1.0295690382
  43
  -89.949080190000004        1.3269035842612676E-003 !
 C         -2.6296620861       -2.5032388424       -2.1268904194
 C         -2.3300810961       -1.6778453512       -0.8705979243
 C         -3.4515376523       -0.6805136414       -0.5852638460
 S         -2.9996976066        0.2234235149        0.9470903619
 O         -3.8972819402       -0.1875765375        1.9906813022
 O         -1.5920965276       -0.0244886520        1.1780172962
 C         -3.2516443714        1.9677368921        0.6178514985
 C         -4.2464017575        2.6349316227        1.3079306546
 C         -4.4488365355        3.9834066461        1.0720966396
 C         -3.6390269798        4.6199969669        0.1449537300
 C         -2.6398365781        3.9559627519       -0.5497117865
 C         -2.4455799361        2.6076197219       -0.3059410168
 F         -3.8311147849        5.9277575296       -0.0910291015
 C         -1.0421891389       -0.8655903288       -1.1354295448
 O         -1.0682857329        0.1842353609       -1.7426162721
 N          0.0646120435       -1.5151723738       -0.7032063340
 C          1.3791616982       -1.0836210902       -0.6952865713
 C          2.3249358340       -1.8869439406       -0.0529397779
 C          3.6528853349       -1.5109541627       -0.0256636439
 C          4.0666541861       -0.3208572431       -0.6383367805
 C          3.1148978278        0.4758946926       -1.2763320864
 C          1.7888758048        0.1008003799       -1.3090638092
 C          5.4217935144        0.0847250530       -0.6250279174
 N          6.5106098669        0.4399961651       -0.6339906896
 C          4.6769460466       -2.3754861207        0.6602161321
 F          5.6303544372       -2.8001346398       -0.1851489134
 F          4.1390365608       -3.4789474055        1.2018262064
 F          5.3033138343       -1.7330008745        1.6575686491
 O         -2.1535146822       -2.5770078606        0.1974417593
 H         -2.7081839167       -1.8520072633       -2.9921230963
 H         -3.5604128922       -3.0463493124       -1.9900426677
 H         -1.8306879370       -3.2222270362       -2.2871296847
 H         -3.5407965955        0.0425511406       -1.3900826039
 H         -4.3967160193       -1.1786179635       -0.3909545463
 H         -4.8402184097        2.0881896128        2.0229582575
 H         -5.2123883242        4.5401348748        1.5912165771
 H         -2.0337241677        4.4930470434       -1.2614544066
 H         -1.6821920409        2.0505982298       -0.8260409268
 H         -0.1359467846       -2.3686907767       -0.1870933794
 H          2.0170013624       -2.8041169347        0.4264415427
 H          3.4322044060        1.3930250215       -1.7485088590
 H          1.0590263700        0.7181881949       -1.8050722359
 H         -2.0522314034       -2.0668250521        1.0148219537
  43
  -89.949080190000004        1.3269035842612676E-003 !
 C         -2.6607335231       -2.5332551158       -2.0405283350
 C         -2.3466816122       -1.6804401015       -0.8062529820
 C         -3.4607099083       -0.6709226780       -0.5351399378
 S         -2.9920368146        0.2654576930        0.9724348803
 O         -3.8833417848       -0.1168773006        2.0321753568
 O         -1.5839079921        0.0154990240        1.1978841496
 C         -3.2377294179        2.0031546663        0.6055011022
 C         -4.2231940793        2.6912314541        1.2883757174
 C         -4.4205143177        4.0350780040        1.0236428490
 C         -3.6151725110        4.6460506199        0.0756258481
 C         -2.6252732053        3.9610325927       -0.6119142312
 C         -2.4359674344        2.6175737012       -0.3390823324
 F         -3.8022101116        5.9492074882       -0.1882709253
 C         -1.0568184928       -0.8815290206       -1.1004255507
 O         -1.0823683956        0.1544447886       -1.7310257210
 N          0.0500683926       -1.5278099944       -0.6635130149
 C          1.3676131877       -1.1058342632       -0.6800782527
 C          2.3152966733       -1.9026398621       -0.0324302923
 C          3.6462194445       -1.5363174533       -0.0292708550
 C          4.0611290606       -0.3624544296       -0.6717505759
 C          3.1073995591        0.4281622168       -1.3144395314
 C          1.7783740689        0.0624444974       -1.3233546669
 C          5.4193017319        0.0329209503       -0.6834540883
 N          6.5105579478        0.3794314594       -0.7129726849
 C          4.6723574795       -2.3941392262        0.6619292353
 F          5.3142811248       -1.7364146088        1.6392873933
 F          5.6132017437       -2.8418942695       -0.1855473962
 F          4.1333416244       -3.4830043200        1.2312718668
 O         -2.1658910261       -2.5554034109        0.2810060291
 H         -1.8666557323       -3.2598712645       -2.1904753465
 H         -2.7432874377       -1.9019614399       -2.9200632206
 H         -3.5929678073       -3.0682846929       -1.8833943315
 H         -3.5526293683        0.0339618936       -1.3556253419
 H         -4.4068558893       -1.1593913399       -0.3219460658
 H         -4.8139567321        2.1640483362        2.0204102080
 H         -5.1769444670        4.6075163269        1.5360478595
 H         -2.0223156255        4.4785442125       -1.3406234623
 H         -1.6802204378        2.0446502149       -0.8530142250
 H         -0.1506414560       -2.3683946745       -0.1266597052
 H          2.0065992666       -2.8073139683        0.4696722257
 H          3.4255244958        1.3330123761       -1.8091969002
 H          1.0469567980        0.6750161442       -1.8230040036
 H         -2.0547952226       -2.0268271275        1.0853352223
  43
  -89.949080179999996        1.3268895430991407E-003 !
 C         -2.6048447880       -2.4515713221       -2.2221979308
 C         -2.3181565537       -1.6608527398       -0.9408326410
 C         -3.4446108655       -0.6744899096       -0.6374205558
 S         -3.0081220947        0.1871495539        0.9234843022
 O         -3.9131959628       -0.2555012353        1.9474795671
 O         -1.6018163426       -0.0636853030        1.1591953944
 C         -3.2614542517        1.9396890864        0.6423073789
 C         -4.2598132630        2.5858356890        1.3470184678
 C         -4.4625668953        3.9403511437        1.1493510924
 C         -3.6494309790        4.6041323048        0.2444961127
 C         -2.6466732076        3.9612657212       -0.4647618487
 C         -2.4520074861        2.6066747173       -0.2590608075
 F         -3.8417580448        5.9180022793        0.0455335678
 C         -1.0302764359       -0.8381939303       -1.1716113621
 O         -1.0540687633        0.2277526373       -1.7502239808
 N          0.0745835952       -1.4963506468       -0.7474824441
 C          1.3874209916       -1.0607897414       -0.7147543609
 C          2.3297950782       -1.8781958911       -0.0853541426
 C          3.6559154352       -1.4983165147       -0.0341546811
 C          4.0712257571       -0.2902110926       -0.6093801639
 C          3.1228348067        0.5204867093       -1.2346738102
 C          1.7987033718        0.1415730766       -1.2914339793
 C          5.4245339624        0.1198056270       -0.5707366344
 N          6.5119637859        0.4791881918       -0.5580755291
 C          4.6763514685       -2.3777121536        0.6381040170
 F          4.1375550058       -3.4985632210        1.1418442381
 F          5.2886803363       -1.7613778275        1.6604359028
 F          5.6409863408       -2.7739024407       -0.2083330202
 O         -2.1484447304       -2.5889478428        0.1032955631
 H         -3.5357295913       -2.9998429812       -2.1088797969
 H         -1.8030433831       -3.1645033892       -2.3949290727
 H         -2.6768438916       -1.7767900622       -3.0697872912
 H         -3.5288244948        0.0705427306       -1.4224871052
 H         -4.3901833465       -1.1799553511       -0.4652081392
 H         -4.8561696908        2.0181404471        2.0433315259
 H         -5.2289685760        4.4811476890        1.6808997200
 H         -2.0380848735        4.5191880209       -1.1581060778
 H         -1.6857331919        2.0656784618       -0.7916656475
 H         -0.1279194942       -2.3642754709       -0.2567997218
 H          2.0206104809       -2.8092874661        0.3654848329
 H          3.4412258767        1.4516313208       -1.6777193032
 H          1.0714416613        0.7699637498       -1.7773214075
 H         -2.0558347614       -2.1015624366        0.9354865840
  43
  -89.949080129999999        1.3268193395770634E-003 !
 C         -2.6378396401       -2.4368562422       -2.2006298474
 C         -2.3238580923       -1.6703241371       -0.9109683033
 C         -3.4529784292       -0.7052228540       -0.5538338785
 S         -2.9821731958        0.1279130998        1.0125646908
 O         -3.8520902828       -0.3480505562        2.0519775254
 O         -1.5667653163       -0.1101457594        1.2026085746
 C         -3.2646138230        1.8827005318        0.7768808405
 C         -2.4891070390        2.5791271028       -0.1320333882
 C         -2.7060031871        3.9351841263       -0.3027249238
 C         -3.6961783665        4.5498020455        0.4480097719
 C         -4.4753594462        3.8564957848        1.3605496963
 C         -4.2505969117        2.5007711716        1.5230175325
 F         -3.9101134885        5.8650202880        0.2830430184
 C         -1.0533242205       -0.8264856032       -1.1605382380
 O         -1.1067660594        0.2511528930       -1.7150147030
 N          0.0712199593       -1.4792346104       -0.7823324758
 C          1.3790388291       -1.0276992440       -0.7779643573
 C          2.3487244735       -1.8447474791       -0.1909981659
 C          3.6710572115       -1.4491101138       -0.1698423588
 C          4.0551934285       -0.2253909341       -0.7335819451
 C          3.0797170076        0.5847347547       -1.3165486834
 C          1.7591815235        0.1902703872       -1.3431181332
 C          5.4040454020        0.2008418650       -0.7254857804
 N          6.4870777844        0.5733928615       -0.7373146076
 C          4.7207080690       -2.3277541445        0.4568972512
 F          4.2099492079       -3.4638680430        0.9555764947
 F          5.3550762080       -1.7221790737        1.4721451052
 F          5.6650661640       -2.6970002645       -0.4238790094
 O         -2.1127317588       -2.6184683346        0.1072686773
 H         -3.5580203190       -2.9997588140       -2.0725612253
 H         -1.8325314048       -3.1351893544       -2.4122504577
 H         -2.7430966979       -1.7448718919       -3.0306786674
 H         -3.5689298114        0.0554894852       -1.3195947085
 H         -4.3869281814       -1.2263602381       -0.3657264005
 H         -1.7315278235        2.0595343129       -0.6973936397
 H         -2.1238982877        4.5155871694       -1.0003572160
 H         -5.2330057742        4.3759834685        1.9249526164
 H         -4.8201327671        1.9107440401        2.2232313195
 H         -0.1065183784       -2.3596590655       -0.3044739176
 H          2.0637510349       -2.7879312588        0.2506172985
 H          3.3741574439        1.5278119766       -1.7508773487
 H          1.0108786790        0.8183446862       -1.7963708131
 H         -2.0022929226       -2.1479597100        0.9469650614
  43
  -89.949080019999997        1.3266649048907654E-003 !
 C         -2.6936491165       -2.5160243894       -2.0265246237
 C         -2.3513461739       -1.6893804248       -0.7820063750
 C         -3.4668151339       -0.6986726135       -0.4535715804
 S         -2.9626547393        0.2062586139        1.0617340495
 O         -3.8173481371       -0.2116105121        2.1380936628
 O         -1.5457835634       -0.0329879947        1.2386304497
 C         -3.2379881742        1.9492429039        0.7446212364
 C         -2.4704911069        2.5956982020       -0.2070047586
 C         -2.6826020476        3.9429870014       -0.4414859769
 C         -3.6601323944        4.5993794083        0.2902586144
 C         -4.4311698280        3.9562076582        1.2454701326
 C         -4.2112583452        2.6088441019        1.4716394944
 F         -3.8692498654        5.9061822494        0.0636655062
 C         -1.0791233568       -0.8695601584       -1.0949808183
 O         -1.1341989599        0.1806193836       -1.6996368811
 N          0.0469299163       -1.5134598482       -0.7061139601
 C          1.3586246459       -1.0754020215       -0.7493604030
 C          2.3324429631       -1.8730676147       -0.1428867863
 C          3.6585945681       -1.4906535318       -0.1675545024
 C          4.0425479237       -0.2997154441       -0.7976926545
 C          3.0629347641        0.4914295631       -1.3994796267
 C          1.7384746560        0.1099201970       -1.3803089239
 C          5.3952530437        0.1122164625       -0.8375727507
 N          6.4813222284        0.4722701922       -0.8890883437
 C          4.7126219425       -2.3489655173        0.4797202557
 F          5.3724366429       -1.7022691794        1.4524713198
 F          5.6358798706       -2.7689594079       -0.4006910715
 F          4.2015870076       -3.4549952707        1.0417253587
 O         -2.1291475632       -2.5879038619        0.2780474347
 H         -3.6148595880       -3.0652842705       -1.8542595361
 H         -1.8967825658       -3.2297211895       -2.2179754417
 H         -2.8097753912       -1.8648864002       -2.8875932732
 H         -3.5900762636        0.0247078996       -1.2535978058
 H         -4.4013072638       -1.2021521333       -0.2245315926
 H         -1.7232504103        2.0443511359       -0.7558142222
 H         -2.1064698444        4.4851177718       -1.1739944120
 H         -5.1788789621        4.5071120965        1.7930722554
 H         -4.7745868329        2.0572172614        2.2072875095
 H         -0.1291060159       -2.3680463259       -0.1828602421
 H          2.0477605152       -2.7908841952        0.3494626112
 H          3.3572153292        1.4094223946       -1.8847100391
 H          0.9869354301        0.7229982873       -1.8484685025
 H         -2.0001342281       -2.0775140157        1.0913767718
  43
  -89.949079979999993        1.3266087512762076E-003 !
 C         -2.6509624026       -2.4866306198       -2.1062068262
 C         -2.3298050935       -1.6842731172       -0.8403079474
 C         -3.4563349443       -0.7086234860       -0.5047230973
 S         -2.9771113409        0.1675219815        1.0353570047
 O         -3.8413336570       -0.2793570223        2.0922816624
 O         -1.5606808472       -0.0650786852        1.2242352442
 C         -3.2620861478        1.9147200355        0.7515709990
 C         -2.4896755352        2.5862243377       -0.1784953626
 C         -2.7097146765        3.9363906609       -0.3877701245
 C         -3.6998942945        4.5703312528        0.3467413508
 C         -4.4758641169        3.9020328861        1.2804625208
 C         -4.2479330246        2.5520089389        1.4815151946
 F         -3.9168305608        5.8798406740        0.1444355722
 C         -1.0596589632       -0.8494550674       -1.1204003167
 O         -1.1146829934        0.2131151029       -1.7030265062
 N          0.0660017750       -1.4945771648       -0.7324310913
 C          1.3756872565       -1.0490156612       -0.7534610019
 C          2.3481600932       -1.8559111228       -0.1571031924
 C          3.6725459985       -1.4666753994       -0.1611369129
 C          4.0560230648       -0.2594916476       -0.7599236312
 C          3.0777083340        0.5408824607       -1.3515489899
 C          1.7550489934        0.1526730858       -1.3529898463
 C          5.4069872718        0.1595895157       -0.7784828968
 N          6.4915860659        0.5260890124       -0.8120597790
 C          4.7251778923       -2.3349032327        0.4750620009
 F          5.6576806085       -2.7303652386       -0.4069658849
 F          4.2147088432       -3.4558739185        1.0072231763
 F          5.3738760756       -1.7077812621        1.4679493951
 O         -2.1139738926       -2.6035359732        0.2031394251
 H         -3.5704586393       -3.0454746787       -1.9571746601
 H         -1.8469209889       -3.1908559373       -2.3027400438
 H         -2.7608884455       -1.8181623473       -2.9547262870
 H         -3.5753526873        0.0306327303       -1.2907516958
 H         -4.3897562969       -1.2234897954       -0.2977045208
 H         -1.7323770012        2.0518673232       -0.7303095247
 H         -2.1301854910        4.4976610671       -1.1029746195
 H         -5.2336442526        4.4359821757        1.8309993379
 H         -4.8150122143        1.9811885996        2.1994122661
 H         -0.1104836980       -2.3615052738       -0.2300570998
 H          2.0637874185       -2.7863376380        0.3111734056
 H          3.3716438485        1.4712859714       -1.8127272498
 H          1.0045653090        0.7728444157       -1.8134472078
 H         -1.9983179635       -2.1096075451        1.0285747410
  43
  -89.949079819999994        1.3263841606050016E-003 !
 C         -2.6358332277       -2.5055856866       -2.1298137065
 C         -2.3337027912       -1.6806684309       -0.8738107072
 C         -3.4538339133       -0.6823546907       -0.5864820309
 S         -2.9990849684        0.2204529358        0.9457279245
 O         -3.8966571921       -0.1893149479        1.9898203910
 O         -1.5917393431       -0.0302113462        1.1754931667
 C         -3.2469547589        1.9657991032        0.6186277490
 C         -4.2374321737        2.6352698331        1.3126206782
 C         -4.4353335152        3.9849921357        1.0802207308
 C         -3.6253433944        4.6205526563        0.1525563296
 C         -2.6304439633        3.9542509342       -0.5460341470
 C         -2.4406664740        2.6046748556       -0.3056528504
 F         -3.8127528993        5.9296386347       -0.0798028552
 C         -1.0456615972       -0.8691659012       -1.1400996805
 O         -1.0719797272        0.1802242089       -1.7480802271
 N          0.0613983304       -1.5185458102       -0.7083119101
 C          1.3756732358       -1.0861069686       -0.7008326886
 C          2.3211905923       -1.8853915673       -0.0531277612
 C          3.6487724733       -1.5081106677       -0.0258216329
 C          4.0624327122       -0.3208211873       -0.6440383058
 C          3.1109495221        0.4718428800       -1.2874554943
 C          1.7852732333        0.0955264515       -1.3200468401
 C          5.4172478692        0.0858064619       -0.6310128381
 N          6.5060442045        0.4410361858       -0.6407014035
 C          4.6725472697       -2.3680018152        0.6662607910
 F          5.6276348204       -2.7964501972       -0.1752554091
 F          4.1348467776       -3.4689274831        1.2131537509
 F          5.2968271162       -1.7195032594        1.6609925588
 O         -2.1564833826       -2.5801503927        0.1937820438
 H         -3.5669315903       -3.0477940910       -1.9917551420
 H         -1.8377496769       -3.2253411255       -2.2910995583
 H         -2.7148805112       -1.8542010116       -2.9948764959
 H         -3.5434701929        0.0410619438       -1.3909373620
 H         -4.3992440150       -1.1795975622       -0.3909882914
 H         -4.8316556956        2.0891686131        2.0277838988
 H         -5.1955245472        4.5434441931        1.6023768408
 H         -2.0239714975        4.4906025579       -1.2579930229
 H         -1.6807652753        2.0459882027       -0.8289981199
 H         -0.1388354226       -2.3710668475       -0.1904500068
 H          2.0133105048       -2.8002599637        0.4306529773
 H          3.4281352453        1.3868221224       -1.7638023113
 H          1.0555885479        0.7100573599       -1.8197948678
 H         -2.0537746375       -2.0701979633        1.0111424973
  43
  -89.949079729999994        1.3262578450607167E-003 !
 C         -2.6847920015       -2.5159977696       -2.0239963473
 C         -2.3476276118       -1.6879394040       -0.7789910975
 C         -3.4658341597       -0.6989654383       -0.4546769672
 S         -2.9678695732        0.2079289312        1.0614923712
 O         -3.8252927357       -0.2104801850        2.1355008534
 O         -1.5512149556       -0.0291026978        1.2430180598
 C         -3.2447293638        1.9503986172        0.7425217152
 C         -2.4778739183        2.5964814865       -0.2098926564
 C         -2.6909651890        3.9433798142       -0.4456735659
 C         -3.6687170188        4.5998476559        0.2856935438
 C         -4.4390816371        3.9570858376        1.2417176444
 C         -4.2182309023        2.6100756403        1.4691480327
 F         -3.8788263070        5.9062659182        0.0577928385
 C         -1.0756871812       -0.8665612274       -1.0889863247
 O         -1.1304940231        0.1834911932       -1.6939156398
 N          0.0501079498       -1.5093713082       -0.6977191868
 C          1.3620306489       -1.0721553578       -0.7416700293
 C          2.3364427462       -1.8735076381       -0.1410024559
 C          3.6629670311       -1.4924542147       -0.1672617624
 C          4.0466669657       -0.2990744895       -0.7929606100
 C          3.0664346411        0.4959426602       -1.3885844590
 C          1.7416125144        0.1157475580       -1.3679406181
 C          5.3997639973        0.1113820603       -0.8346364219
 N          6.4861233353        0.4703593862       -0.8876550730
 C          4.7177114604       -2.3551735377        0.4728890973
 F          5.3823859784       -1.7134774635        1.4456634659
 F          5.6369018453       -2.7735071822       -0.4125662215
 F          4.2066979249       -3.4624077665        1.0325486755
 O         -2.1270840826       -2.5853587014        0.2823169726
 H         -1.8864001132       -3.2288578135       -2.2121962723
 H         -2.7987960992       -1.8656752613       -2.8859733362
 H         -3.6058990122       -3.0662792352       -1.8544691265
 H         -3.5881133353        0.0235630749       -1.2556194739
 H         -4.4000644962       -1.2040196146       -0.2280136654
 H         -1.7301480949        2.0452445312       -0.7581362508
 H         -2.1154077105        4.4851380799       -1.1788956453
 H         -5.1872168119        4.5079902500        1.7887438649
 H         -4.7814919199        2.0586788192        2.2050119810
 H         -0.1261446590       -2.3646114105       -0.1756088905
 H          2.0519858617       -2.7932414171        0.3478753616
 H          3.3605177581        1.4157902824       -1.8703756273
 H          0.9896069503        0.7317393118       -1.8315228524
 H         -2.0003984362       -2.0740646407        1.0954707135
  43
  -89.949072060000006        1.3155370321474595E-003 !
 C         -2.7709410966       -2.1105933502       -2.7430407505
 C         -2.5270811401       -1.6599067403       -1.2987832310
 C         -3.4108838958       -0.4676768973       -0.9353002319
 S         -3.0492614385       -0.0301700582        0.8112888985
 O         -4.2068824928       -0.3538092601        1.5987398864
 O         -1.8237371659       -0.7159120564        1.1665170759
 C         -2.7826537599        1.7413383523        0.8718805959
 C         -3.7115850012        2.5247651413        1.5312626216
 C         -3.5189402984        3.8932252284        1.5994942477
 C         -2.3911805588        4.4320790295        1.0002744263
 C         -1.4561450137        3.6514840598        0.3384780160
 C         -1.6588035655        2.2838967415        0.2759546375
 F         -2.2002270270        5.7594804638        1.0618874802
 C         -1.0588949991       -1.1916472134       -1.1876934362
 O         -0.7237022808       -0.0770559977       -1.5266992497
 N         -0.2355829494       -2.1846462140       -0.7721437828
 C          1.1091378337       -2.1195686051       -0.4540890276
 C          1.8702230584       -0.9701245830       -0.6719590022
 C          3.2098212678       -0.9599952786       -0.3352271990
 C          3.8225073543       -2.0939174693        0.2129359599
 C          3.0541942814       -3.2403339984        0.4242315701
 C          1.7165288117       -3.2506593328        0.0970617081
 C          5.1956919230       -2.1047764766        0.5526019364
 N          6.3049333502       -2.1486556392        0.8345372507
 C          4.0374461790        0.2781094358       -0.5570473703
 F          5.0426573838        0.0675057178       -1.4238001974
 F          4.5975643610        0.7261258613        0.5783692222
 F          3.3239224121        1.2990615508       -1.0506895721
 O         -2.7733072888       -2.7627094680       -0.4592889822
 H         -2.5255056930       -1.3074459864       -3.4311865406
 H         -3.8130661603       -2.3923824085       -2.8638793574
 H         -2.1512261577       -2.9760300475       -2.9622346401
 H         -3.1732506242        0.3922775065       -1.5538133311
 H         -4.4670041666       -0.7152802804       -0.9862316742
 H         -4.5650712648        2.0482936891        1.9865915445
 H         -4.2188499240        4.5382955297        2.1059413766
 H         -0.5919744122        4.1126095293       -0.1119671462
 H         -0.9591444327        1.6414751805       -0.2344403164
 H         -0.7219447490       -3.0391656573       -0.5118018662
 H          1.4066053042       -0.0954635097       -1.0974234541
 H          3.5219683045       -4.1153172098        0.8488755392
 H          1.1284821221       -4.1397708134        0.2700400234
 H         -2.7068899678       -2.4648554163        0.4605315484
  43
  -89.949072040000004        1.3155091905497508E-003 !
 C         -2.7765600033       -2.2783598111       -2.6004283966
 C         -2.5289132905       -1.7388037107       -1.1876320535
 C         -3.4128094310       -0.5270134879       -0.8961159611
 S         -3.0467286708        0.0178057521        0.8190802765
 O         -4.2016237280       -0.2579839550        1.6284396299
 O         -1.8193148989       -0.6434284923        1.2122697289
 C         -2.7821745049        1.7900098387        0.7698317437
 C         -3.7074184690        2.6111910858        1.3870933107
 C         -3.5158890295        3.9814205489        1.3711658750
 C         -2.3929692843        4.4838965848        0.7325858493
 C         -1.4617175393        3.6654159229        0.1125634432
 C         -1.6631717381        2.2963952309        0.1342756335
 F         -2.2032359847        5.8127478108        0.7122698096
 C         -1.0607882037       -1.2636545613       -1.1101258563
 O         -0.7274865511       -0.1719805239       -1.5184621862
 N         -0.2355113077       -2.2284970195       -0.6363118597
 C          1.1100651899       -2.1431654912       -0.3267619643
 C          1.8692141975       -1.0081320126       -0.6154110593
 C          3.2097342560       -0.9765158725       -0.2837039452
 C          3.8251987181       -2.0748708180        0.3298277455
 C          3.0588953103       -3.2074167668        0.6113840357
 C          1.7203448789       -3.2386825066        0.2892435005
 C          5.1992692142       -2.0638936280        0.6659308281
 N          6.3095584839       -2.0898803659        0.9461891383
 C          4.0352852519        0.2469986430       -0.5813519275
 F          3.3198463305        1.2350535484       -1.1354567333
 F          5.0400816319       -0.0144052563       -1.4346218225
 F          4.5957370844        0.7639598234        0.5242444846
 O         -2.7717764321       -2.7877018792       -0.2807846313
 H         -2.5346587893       -1.5190369321       -3.3378049011
 H         -3.8185852841       -2.5686259698       -2.7001387342
 H         -2.1561087395       -3.1547889150       -2.7676812886
 H         -3.1776927123        0.2932017551       -1.5673104788
 H         -4.4688522870       -0.7780571719       -0.9285734354
 H         -4.5570517185        2.1624467624        1.8765230101
 H         -4.2129502479        4.6553997594        1.8426855212
 H         -0.6012926191        4.0991127826       -0.3710731671
 H         -0.9661507801        1.6248689044       -0.3410956926
 H         -0.7203848936       -3.0658268078       -0.3227668251
 H          1.4034090272       -0.1610771743       -1.0913271114
 H          3.5289458222       -4.0550222645        1.0861082171
 H          1.1339169979       -4.1165836823        0.5164807710
 H         -2.7027107093       -2.4335190067        0.6186536262
  43
  -89.949072029999996        1.3154952699619682E-003 !
 C         -2.8257936265       -2.1568501911       -2.6501159621
 C         -2.5331555586       -1.7147576431       -1.2122816360
 C         -3.4326361693       -0.5512143967       -0.7979072955
 S         -3.0090004640       -0.1225934128        0.9368752280
 O         -4.1222073186       -0.4878950113        1.7688880462
 O         -1.7505933130       -0.7767900227        1.2314118445
 C         -2.7901671986        1.6551136366        1.0072570428
 C         -1.7120945980        2.2367013744        0.3653080743
 C         -1.5455649031        3.6087896946        0.4354855449
 C         -2.4694836214        4.3544369088        1.1510177223
 C         -3.5513469003        3.7763956409        1.7965306069
 C         -3.7082135756        2.4038036530        1.7200620923
 F         -2.3136150771        5.6860486594        1.2201268245
 C         -1.0746886903       -1.2076733084       -1.1576277372
 O         -0.7842583097       -0.0809369027       -1.4978125541
 N         -0.2081560469       -2.1820759483       -0.7886059594
 C          1.1465399203       -2.0837403322       -0.5263228011
 C          1.8661841300       -0.9108903934       -0.7597332907
 C          3.2180219605       -0.8678446617       -0.4791194299
 C          3.8838979326       -1.9912749544        0.0270352371
 C          3.1566958235       -3.1612701219        0.2540379675
 C          1.8072032713       -3.2045418217       -0.0170145614
 C          5.2699633467       -1.9684527142        0.3086865015
 N          6.3908705068       -1.9852146950        0.5433610235
 C          4.0015939245        0.3955579327       -0.7177520819
 F          4.5963399859        0.8442827408        0.3996323417
 F          3.2405275316        1.4025562398       -1.1670212196
 F          4.9750505779        0.2242107268       -1.6283092673
 O         -2.7137268368       -2.8326808346       -0.3761041776
 H         -2.6313986599       -1.3401782561       -3.3386520521
 H         -3.8641678628       -2.4656889267       -2.7302364506
 H         -2.1929503502       -3.0027385578       -2.9051910605
 H         -3.2449276797        0.3214847842       -1.4157256357
 H         -4.4828515029       -0.8273252143       -0.8071014499
 H         -1.0193194075        1.6206138370       -0.1854073343
 H         -0.7173228124        4.0998014476       -0.0495474034
 H         -4.2441316238        4.3951428220        2.3439622918
 H         -4.5250427888        1.8976730036        2.2093620371
 H         -0.6599168408       -3.0524779007       -0.5187092597
 H          1.3613597276       -0.0440761954       -1.1531482173
 H          3.6657212392       -4.0284909398        0.6459045550
 H          1.2514133569       -4.1118420216        0.1678419261
 H         -2.6165881240       -2.5428997294        0.5435466225
  43
  -89.949072020000003        1.3154813495412732E-003 !
 C         -2.8243934843       -2.2254788645       -2.5926680567
 C         -2.5390446783       -1.7348096907       -1.1691993928
 C         -3.4314101117       -0.5495141908       -0.8039925432
 S         -3.0179062410       -0.0627275816        0.9178467676
 O         -4.1410829705       -0.3880596721        1.7530397082
 O         -1.7679438384       -0.7170681734        1.2460994357
 C         -2.7833957610        1.7143319813        0.9265100156
 C         -1.6938809338        2.2628486329        0.2748482851
 C         -1.5154861576        3.6350553109        0.2972639522
 C         -2.4394367971        4.4141394217        0.9761941837
 C         -3.5327633271        3.8693266556        1.6312342608
 C         -3.7013998772        2.4962973899        1.6027134737
 F         -2.2719343951        5.7459361280        0.9990705138
 C         -1.0766651092       -1.2384745549       -1.1208447574
 O         -0.7736466155       -0.1270930538       -1.4985184784
 N         -0.2216880720       -2.2064477214       -0.7102944513
 C          1.1318313446       -2.1104667590       -0.4411537680
 C          1.8642126975       -0.9539772506       -0.7133696226
 C          3.2142875528       -0.9126632645       -0.4241052321
 C          3.8657144911       -2.0219852906        0.1296994215
 C          3.1258677318       -3.1757945317        0.3953697938
 C          1.7780970837       -3.2170687003        0.1154876101
 C          5.2497329047       -2.0009385318        0.4215977327
 N          6.3687017291       -2.0189475776        0.6654866290
 C          4.0115408076        0.3334347631       -0.7046815327
 F          3.2635909425        1.3290654885       -1.1990560286
 F          4.9907871822        0.1181549475       -1.5995644161
 F          4.6012509391        0.8197790117        0.3995785411
 O         -2.7360627524       -2.8205731424       -0.2951983984
 H         -2.1966660355       -3.0849781039       -2.8124537167
 H         -2.6178639860       -1.4354450670       -3.3082084573
 H         -3.8646953224       -2.5285400203       -2.6700250402
 H         -3.2310370703        0.2989027046       -1.4509675414
 H         -4.4839418384       -0.8167240414       -0.8120234783
 H         -1.0018029343        1.6212413374       -0.2468379465
 H         -0.6783288922        4.1009708722       -0.1971220734
 H         -4.2249213891        4.5134768582        2.1493872150
 H         -4.5273959766        2.0153399053        2.1019170444
 H         -0.6832869504       -3.0624415730       -0.4123982412
 H          1.3705995745       -0.0982819143       -1.1436424854
 H          3.6236979527       -4.0319925955        0.8241027833
 H          1.2124523546       -4.1116367837        0.3300886361
 H         -2.6436323816       -2.4989139624        0.6142954560
  43
  -89.949071889999999        1.3153003973576901E-003 !
 C         -2.7754060808       -2.2212751592       -2.6537438701
 C         -2.5223125284       -1.7249234779       -1.2261498231
 C         -3.4147656616       -0.5311108630       -0.8897751316
 S         -3.0410110780       -0.0379345579        0.8393649786
 O         -4.1876571022       -0.3494806211        1.6474793949
 O         -1.8052215082       -0.7006575547        1.2027721087
 C         -2.7913736664        1.7371233535        0.8457568493
 C         -3.7166441423        2.5296785280        1.4993559175
 C         -3.5358627193        3.9011689294        1.5276037991
 C         -2.4233388117        4.4337976125        0.8952733682
 C         -1.4920947312        3.6440758173        0.2389794728
 C         -1.6827235263        2.2735189242        0.2166753111
 F         -2.2439104882        5.7640379089        0.9180222898
 C         -1.0580890264       -1.2387537269       -1.1437486684
 O         -0.7378010279       -0.1319072446       -1.5205312846
 N         -0.2205435775       -2.2096824836       -0.7052724225
 C          1.1259745816       -2.1202242818       -0.4010085404
 C          1.8728223788       -0.9705436676       -0.6625451925
 C          3.2149377355       -0.9353608401       -0.3376949350
 C          3.8442322279       -2.0443526407        0.2417601157
 C          3.0900876745       -3.1913299916        0.4965782431
 C          1.7500088383       -3.2263967000        0.1812165909
 C          5.2201913944       -2.0297542628        0.5698929537
 N          6.3321318339       -2.0528095553        0.8436322202
 C          4.0273995050        0.3034092577       -0.6068781682
 F          4.5924825376        0.7938535828        0.5083470699
 F          3.2988602469        1.3003344518       -1.1269553563
 F          5.0273084312        0.0751829334       -1.4753225736
 O         -2.7491525419       -2.8044115121       -0.3516529731
 H         -2.5446787650       -1.4368696730       -3.3680907657
 H         -3.8157391598       -2.5167814921       -2.7557441465
 H         -2.1490980234       -3.0868047439       -2.8529388899
 H         -3.1920128039        0.3121929925       -1.5361212204
 H         -4.4687235579       -0.7906818390       -0.9227322872
 H         -4.5578430217        2.0579458755        1.9816949841
 H         -4.2332650081        4.5533113747        2.0284247704
 H         -0.6399041538        4.1006339474       -0.2381520762
 H         -0.9852079096        1.6240122661       -0.2876973275
 H         -0.6953900386       -3.0606289967       -0.4138240020
 H          1.3964043207       -0.1151608967       -1.1123578425
 H          3.5706850905       -4.0470372946        0.9455087219
 H          1.1728907843       -4.1153980759        0.3883718341
 H         -2.6770801756       -2.4784170246        0.5581541215
  43
  -89.949071889999999        1.3153003973576901E-003 !
 C         -2.7762298045       -2.2174481024       -2.6547443350
 C         -2.5220869061       -1.7228492788       -1.2267349090
 C         -3.4142705890       -0.5295041183       -0.8882609166
 S         -3.0388768344       -0.0381966542        0.8410346638
 O         -4.1844834004       -0.3512087849        1.6500634127
 O         -1.8023192527       -0.7004938714        1.2024265457
 C         -2.7909691103        1.7370305349        0.8475660044
 C         -3.7209402282        2.5293031516        1.4947865508
 C         -3.5426152580        3.9011439249        1.5212132703
 C         -2.4277383618        4.4343813136        0.8935611761
 C         -1.4917275626        3.6449333585        0.2437495113
 C         -1.6800099478        2.2740163943        0.2231109534
 F         -2.2508678070        5.7649980134        0.9142843949
 C         -1.0577119592       -1.2369410231       -1.1445082509
 O         -0.7373783139       -0.1295571564       -1.5195494858
 N         -0.2201890736       -2.2089634378       -0.7082639673
 C          1.1262457661       -2.1202980437       -0.4034653147
 C          1.8737157831       -0.9707849720       -0.6639280520
 C          3.2156369816       -0.9363545141       -0.3381675686
 C          3.8440839122       -2.0458769455        0.2411777844
 C          3.0894363497       -3.1928688762        0.4944084599
 C          1.7495470485       -3.2271814017        0.1782130020
 C          5.2197126968       -2.0318617106        0.5707527256
 N          6.3311372118       -2.0551308492        0.8465861748
 C          4.0287671908        0.3023352188       -0.6056597064
 F          4.5902335638        0.7935144358        0.5111194370
 F          3.3017478617        1.2988662618       -1.1286289781
 F          5.0314538625        0.0737412008       -1.4707401012
 O         -2.7484615339       -2.8033386324       -0.3533082103
 H         -3.8165643781       -2.5131403141       -2.7561951115
 H         -2.1498309489       -3.0825073507       -2.8556526550
 H         -2.5464119689       -1.4320247914       -3.3682681062
 H         -3.1920207205        0.3145830178       -1.5337582291
 H         -4.4682498549       -0.7890294295       -0.9206458638
 H         -4.5638535275        2.0571233882        1.9736718278
 H         -4.2438068580        4.5531338570        2.0169062472
 H         -0.6379039270        4.1020190325       -0.2299577082
 H         -0.9790105985        1.6245396112       -0.2764349015
 H         -0.6952609238       -3.0602144305       -0.4180528054
 H          1.3978987704       -0.1149798881       -1.1135950572
 H          3.5694909794       -4.0491459107        0.9428333077
 H          1.1721098979       -4.1163245392        0.3837647730
 H         -2.6761955559       -2.4784024257        0.5568386679
  43
  -89.949071880000005        1.3152864789991153E-003 !
 C         -2.8340855575       -2.2264401256       -2.5937373999
 C         -2.5436517457       -1.7370985843       -1.1708540137
 C         -3.4339070687       -0.5513271581       -0.8017746364
 S         -3.0135259113       -0.0653298238        0.9186900967
 O         -4.1345859900       -0.3883736988        1.7575948275
 O         -1.7638088599       -0.7223257698        1.2426880966
 C         -2.7748888405        1.7112109423        0.9273748686
 C         -1.6850416630        2.2575090588        0.2744216315
 C         -1.5030710737        3.6292312338        0.2975689170
 C         -2.4239433173        4.4101490249        0.9785543900
 C         -3.5175620135        3.8675831895        1.6349820438
 C         -3.6897211193        2.4950042739        1.6057604193
 F         -2.2530853476        5.7415008074        1.0021085752
 C         -1.0809059075       -1.2415741752       -1.1265722937
 O         -0.7786290170       -0.1302287495       -1.5050118526
 N         -0.2249056270       -2.2094977707       -0.7179378925
 C          1.1282760321       -2.1116825760       -0.4476184533
 C          1.8583931665       -0.9527948057       -0.7156589641
 C          3.2079048321       -0.9090393332       -0.4242214387
 C          3.8612745372       -2.0185963673        0.1268637172
 C          3.1237744366       -3.1749459626        0.3879917975
 C          1.7763964914       -3.2184206593        0.1065919531
 C          5.2448134886       -1.9950939776        0.4207762889
 N          6.3634368705       -2.0110978653        0.6661123221
 C          4.0022858320        0.3400607080       -0.6995974429
 F          3.2519174007        1.3362275320       -1.1892795817
 F          4.9816745797        0.1309605174       -1.5957797728
 F          4.5912985004        0.8228550809        0.4065566821
 O         -2.7385786038       -2.8233123885       -0.2969849257
 H         -2.6285800160       -1.4362706077       -3.3094260380
 H         -3.8750360215       -2.5279821582       -2.6681246233
 H         -2.2083022995       -3.0867195235       -2.8159588651
 H         -3.2354890975        0.2971742636       -1.4492476778
 H         -4.4866403131       -0.8178414719       -0.8058046082
 H         -0.9954378974        1.6146044205       -0.2488676618
 H         -0.6653302756        4.0932972103       -0.1975766006
 H         -4.2074951151        4.5131334641        2.1543437918
 H         -4.5167107037        2.0158854915        2.1050912618
 H         -0.6855637643       -3.0661140033       -0.4204088534
 H          1.3635573315       -0.0972419838       -1.1447863189
 H          3.6229114696       -4.0310259769        0.8154663023
 H          1.2126687912       -4.1150678005        0.3175249327
 H         -2.6425887192       -2.5023664224        0.6123994225
  43
  -89.949071810000007        1.3151890545535796E-003 !
 C         -2.8239068839       -2.2291728559       -2.5904614273
 C         -2.5395122023       -1.7368501324       -1.1673615946
 C         -3.4321502812       -0.5511087705       -0.8041141291
 S         -3.0197484526       -0.0622090485        0.9174299802
 O         -4.1442159045       -0.3848518877        1.7519179309
 O         -1.7708708741       -0.7175324120        1.2479393843
 C         -2.7828115909        1.7145215136        0.9240767990
 C         -1.6890081362        2.2603621170        0.2774091477
 C         -1.5084452475        3.6322937131        0.2988897944
 C         -2.4346236637        4.4138141679        0.9719428928
 C         -3.5323569110        3.8717043751        1.6218292096
 C         -3.7031297282        2.4989316695        1.5942725031
 F         -2.2650476263        5.7453551447        0.9939232103
 C         -1.0772410308       -1.2403001946       -1.1187851259
 O         -0.7742707337       -0.1293153955       -1.4976485777
 N         -0.2222116080       -2.2073259300       -0.7060637896
 C          1.1310624126       -2.1100895141       -0.4361043994
 C          1.8637809145       -0.9551073779       -0.7137748770
 C          3.2136072214       -0.9123638759       -0.4235972792
 C          3.8644672275       -2.0187769257        0.1366410075
 C          3.1242913911       -3.1711210393        0.4076848474
 C          1.7767765331       -3.2137967404        0.1268479600
 C          5.2483461462       -1.9964271906        0.4290602015
 N          6.3670501294       -2.0131039178        0.6741189312
 C          4.0112334781        0.3320727256       -0.7104167998
 F          3.2636645221        1.3252807630       -1.2102101354
 F          4.9906638629        0.1118786679       -1.6038882258
 F          4.6007374079        0.8240382503        0.3914413577
 O         -2.7369504006       -2.8215927693       -0.2922167019
 H         -3.8641537307       -2.5323313946       -2.6680340842
 H         -2.1960960766       -3.0889703887       -2.8088689182
 H         -2.6169345086       -1.4400062308       -3.3068583402
 H         -3.2312279293        0.2964967928       -1.4520062828
 H         -4.4847247424       -0.8181877640       -0.8125221834
 H         -0.9953344454        1.6168732403       -0.2397621303
 H         -0.6677976206        4.0961033825       -0.1915001220
 H         -4.2262033101        4.5177031724        2.1353771325
 H         -4.5322231592        2.0200025748        2.0902695177
 H         -0.6837277849       -3.0627656994       -0.4064673997
 H          1.3706047550       -0.1015891016       -1.1488471093
 H          3.6216986357       -4.0250853963        0.8413293792
 H          1.2109291716       -4.1072292236        0.3454954315
 H         -2.6448724326       -2.4988303254        0.6169368951
  43
  -89.949071669999995        1.3149942272911452E-003 !
 C         -2.7729764105       -2.1115556485       -2.7428871845
 C         -2.5284365727       -1.6610842930       -1.2986795007
 C         -3.4119798622       -0.4687534928       -0.9347778964
 S         -3.0494312475       -0.0309313720        0.8115566328
 O         -4.2074954789       -0.3524913355        1.5991894046
 O         -1.8248312635       -0.7183078008        1.1669056428
 C         -2.7802218525        1.7402115447        0.8715425447
 C         -3.7112455780        2.5258671380        1.5253488545
 C         -3.5165559530        3.8940576759        1.5933862638
 C         -2.3847461463        4.4304265589        0.9995829511
 C         -1.4476514884        3.6476280473        0.3433401048
 C         -1.6523942034        2.2803430154        0.2809602154
 F         -2.1917683835        5.7575357917        1.0611078932
 C         -1.0603143123       -1.1926744411       -1.1880203159
 O         -0.7254127559       -0.0779431641       -1.5268923256
 N         -0.2366516053       -2.1854573645       -0.7726383282
 C          1.1079390324       -2.1195560228       -0.4541540982
 C          1.8685229048       -0.9698847430       -0.6726625333
 C          3.2079400632       -0.9586783349       -0.3351709106
 C          3.8209298386       -2.0917824660        0.2142409713
 C          3.0532241640       -3.2385577944        0.4257996731
 C          1.7157219020       -3.2499267804        0.0979871025
 C          5.1939949107       -2.1016488702        0.5544829297
 N          6.3032157524       -2.1447164461        0.8366529219
 C          4.0349906875        0.2797174956       -0.5577046336
 F          5.0400232859        0.0692800054       -1.4247524769
 F          4.5952789790        0.7283033658        0.5774044862
 F          3.3208630098        1.3002649799       -1.0513871610
 O         -2.7742251304       -2.7639530278       -0.4591665766
 H         -3.8151688776       -2.3933295686       -2.8632603612
 H         -2.1533723083       -2.9770107191       -2.9623173211
 H         -2.5278488354       -1.3084065332       -3.4311665247
 H         -3.1746120870        0.3911532903       -1.5534728953
 H         -4.4681443769       -0.7163206451       -0.9850055806
 H         -4.5677485410        2.0512833080        1.9769496465
 H         -4.2179483485        4.5408134910        2.0956305300
 H         -0.5802591969        4.1067998248       -0.1029016028
 H         -0.9512782473        1.6362626065       -0.2252784453
 H         -0.7226323290       -3.0401952597       -0.5123327566
 H          1.4047169421       -0.0958914608       -1.0993372281
 H          3.5213210105       -4.1129625175        0.8512996069
 H          1.1280782033       -4.1391730332        0.2715224241
 H         -2.7069802731       -2.4661529166        0.4606056701
  43
  -89.949071599999996        1.3148968244929540E-003 !
 C         -2.8378207500       -2.0628643168       -2.7243792996
 C         -2.5468854545       -1.6595286585       -1.2748806818
 C         -3.4345026006       -0.4955829420       -0.8364566564
 S         -3.0134720707       -0.1130182305        0.9097782187
 O         -4.1358815163       -0.4816397651        1.7278226984
 O         -1.7657863456       -0.7915510499        1.1948802644
 C         -2.7699660741        1.6592675440        1.0228514913
 C         -1.6758097599        2.2393864922        0.4073778052
 C         -1.4903906456        3.6069374622        0.5107231644
 C         -2.4123515020        4.3497252166        1.2317184367
 C         -3.5103696883        3.7731713703        1.8507661023
 C         -3.6858897850        2.4050758843        1.7414179129
 F         -2.2382374770        5.6770015294        1.3330284140
 C         -1.0830053603       -1.1710100030       -1.2006562533
 O         -0.7779237737       -0.0398332892       -1.5120865467
 N         -0.2294580602       -2.1635403374       -0.8499552894
 C          1.1234944131       -2.0847731560       -0.5723492044
 C          1.8560007201       -0.9130775778       -0.7685071539
 C          3.2049667121       -0.8892530431       -0.4723190192
 C          3.8554380608       -2.0311274888        0.0120345086
 C          3.1156596164       -3.1999603232        0.2011418956
 C          1.7687914362       -3.2241212709       -0.0850089111
 C          5.2384327398       -2.0277485939        0.3093959870
 N          6.3565197803       -2.0603166653        0.5558165757
 C          4.0017507228        0.3729989676       -0.6696558571
 F          4.9833686040        0.2170310451       -1.5741557834
 F          4.5882601398        0.7872527895        0.4652616486
 F          3.2539992337        1.3980077022       -1.1002669383
 O         -2.7448324189       -2.7951898287       -0.4670331685
 H         -2.6303733332       -1.2320544349       -3.3918703704
 H         -3.8794072346       -2.3571552645       -2.8166993572
 H         -2.2138546351       -2.9098108537       -2.9971845696
 H         -3.2338704705        0.3892672533       -1.4325559494
 H         -4.4878660243       -0.7588867825       -0.8564322159
 H         -0.9855706906        1.6258755952       -0.1492519314
 H         -0.6492395301        4.0965001172        0.0469107460
 H         -4.2009581223        4.3895241785        2.4036484151
 H         -4.5159624472        1.9001180022        2.2091702684
 H         -0.6922278806       -3.0354224255       -0.6046305980
 H          1.3632199769       -0.0321065032       -1.1453449824
 H          3.6127916583       -4.0814119612        0.5761521537
 H          1.2031150558       -4.1307528532        0.0708375196
 H         -2.6482240220       -2.5290132129        0.4598037125
  43
  -89.949071450000005        1.3146881285133439E-003 !
 C         -2.7792500255       -2.2190646073       -2.6550228808
 C         -2.5242619787       -1.7248157913       -1.2270530605
 C         -3.4161310596       -0.5313273418       -0.8879265225
 S         -3.0396061764       -0.0396183446        0.8410663224
 O         -4.1861232972       -0.3493112867        1.6500542582
 O         -1.8046231831       -0.7046952363        1.2029084208
 C         -2.7870624454        1.7349821321        0.8474012823
 C         -3.7188015600        2.5302190068        1.4884566666
 C         -3.5367664469        3.9015610254        1.5153081042
 C         -2.4165262914        4.4313694023        0.8943048048
 C         -1.4787883423        3.6389813969        0.2506100079
 C         -1.6708407226        2.2686071425        0.2295003859
 F         -2.2358568750        5.7614586187        0.9158607899
 C         -1.0599340022       -1.2388426038       -1.1455729462
 O         -0.7400960234       -0.1311830014       -1.5202930706
 N         -0.2217945011       -2.2104534910       -0.7095261692
 C          1.1245316847       -2.1204753158       -0.4044671657
 C          1.8707618528       -0.9700690069       -0.6645721104
 C          3.2124953120       -0.9339445223       -0.3382536956
 C          3.8421123107       -2.0427838490        0.2411220494
 C          3.0887413327       -3.1907011818        0.4939889111
 C          1.7490002943       -3.2266606102        0.1772710755
 C          5.2176496627       -2.0270929587        0.5709436877
 N          6.3291032120       -2.0489649180        0.8467013342
 C          4.0239930045        0.3059147342       -0.6052998509
 F          4.5860420430        0.7966203591        0.5113722480
 F          3.2952506149        1.3021601692       -1.1264607007
 F          5.0260236825        0.0793889658       -1.4716934302
 O         -2.7501674989       -2.8055042941       -0.3537964925
 H         -2.1532890531       -3.0843762350       -2.8562511142
 H         -2.5493963985       -1.4336668236       -3.3685676712
 H         -3.8197501573       -2.5143297738       -2.7560690080
 H         -3.1942861906        0.3126919355       -1.5336677604
 H         -4.4701691741       -0.7907579404       -0.9194936145
 H         -4.5657982402        2.0606798418        1.9627182652
 H         -4.2390247584        4.5557560551        2.0065828022
 H         -0.6207200564        4.0933497987       -0.2179959473
 H         -0.9689937891        1.6169954718       -0.2659341526
 H         -0.6962017122       -3.0620387611       -0.4192523461
 H          1.3941592289       -0.1148077896       -1.1144215553
 H          3.5696958188       -4.0464866241        0.9423740302
 H          1.1726274314       -4.1165662046        0.3824711231
 H         -2.6763833381       -2.4808102588        0.5563497918
  43
  -89.949071380000007        1.3145907483881631E-003 !
 C         -2.8249273653       -2.0631375466       -2.7234949856
 C         -2.5417195892       -1.6582008005       -1.2728677482
 C         -3.4325460282       -0.4946719652       -0.8401149930
 S         -3.0216966944       -0.1106174609        0.9081846620
 O         -4.1488536702       -0.4786156563        1.7199505952
 O         -1.7755224679       -0.7885742151        1.2011133123
 C         -2.7793788501        1.6618137169        1.0208317400
 C         -1.6777696011        2.2405813803        0.4175509808
 C         -1.4935825138        3.6083389553        0.5202378865
 C         -2.4242961964        4.3526527765        1.2282935542
 C         -3.5298868419        3.7774535772        1.8350002663
 C         -3.7041107051        2.4091560671        1.7263927871
 F         -2.2512542568        5.6801099566        1.3291427314
 C         -1.0786119221       -1.1684600475       -1.1921350750
 O         -0.7729015226       -0.0369130130       -1.5015963995
 N         -0.2260288536       -2.1607976626       -0.8385600649
 C          1.1272500503       -2.0833206149       -0.5623197758
 C          1.8618848630       -0.9139684707       -0.7645340008
 C          3.2115964859       -0.8920849746       -0.4716003674
 C          3.8605830863       -2.0334895898        0.0158672551
 C          3.1184452512       -3.1996870249        0.2119890469
 C          1.7709822682       -3.2220259056       -0.0714188910
 C          5.2444412397       -2.0322569792        0.3092278918
 N          6.3626277722       -2.0662020777        0.5546883368
 C          4.0110436301        0.3672821935       -0.6765563926
 F          4.9899201143        0.2046106634       -1.5828470405
 F          4.6015551269        0.7851459814        0.4549497159
 F          3.2648709494        1.3922606463       -1.1099399761
 O         -2.7425623965       -2.7933415290       -0.4650123139
 H         -3.8656559586       -2.3588959055       -2.8207341220
 H         -2.1985084735       -2.9095107232       -2.9924269727
 H         -2.6152691627       -1.2326495349       -3.3907155711
 H         -3.2290663191        0.3899511192       -1.4355938162
 H         -4.4855858126       -0.7587051024       -0.8659996681
 H         -0.9813399000        1.6258542772       -0.1299166777
 H         -0.6468997898        4.0969593044        0.0655880073
 H         -4.2269837650        4.3949447963        2.3783754757
 H         -4.5394514174        1.9051148100        2.1857051007
 H         -0.6894835708       -3.0323210852       -0.5932760518
 H          1.3702901356       -0.0334277153       -1.1439659107
 H          3.6143130904       -4.0806096184        0.5898974290
 H          1.2035629886       -4.1266730913        0.0894341850
 H         -2.6502826442       -2.5262569382        0.4620359264
  43
  -89.947807019999999        3.4492998293878348E-004 !
 C         -2.7264116619       -2.4252632878       -2.1121915237
 C         -2.2576337952       -1.5735664480       -0.9254838468
 C         -3.2481269430       -0.4572054433       -0.6141956908
 S         -2.6059499211        0.3634347495        0.8882853290
 O         -3.0888039875       -0.4026956805        2.0122468948
 O         -1.1785571956        0.4833352008        0.7622072773
 C         -3.3400355114        1.9955229623        0.8910394823
 C         -2.8226243006        2.9386848571        0.0213184433
 C         -3.3868027343        4.2010067697       -0.0189152802
 C         -4.4573385852        4.4743281206        0.8195060989
 C         -4.9775244178        3.5336584469        1.6946788692
 C         -4.4057035001        2.2735793191        1.7254750484
 F         -5.0102857190        5.6960377458        0.7824709773
 C         -0.9337226581       -0.8824788857       -1.3482514604
 O         -0.9389342145        0.0443502049       -2.1277856591
 N          0.1507867775       -1.5039249081       -0.8290767377
 C          1.4789675770       -1.1283761987       -0.9002724850
 C          2.4040891511       -1.8492457612       -0.1405397555
 C          3.7448124718       -1.5237769354       -0.1859641273
 C          4.1924333476       -0.4677255996       -0.9907549304
 C          3.2605686034        0.2484136372       -1.7440107113
 C          1.9219442570       -0.0770432610       -1.7044202937
 C          5.5607641786       -0.1163661386       -1.0550495689
 N          6.6614172106        0.1924884560       -1.1303817885
 C          4.7466085947       -2.2992542494        0.6266662379
 F          4.1789483813       -3.2784645341        1.3475361969
 F          5.4078031637       -1.5243472000        1.5004799549
 F          5.6754174750       -2.8921659698       -0.1419816001
 O         -2.0647443469       -2.4307766208        0.1791161103
 H         -3.7003179212       -2.8550770766       -1.8943893053
 H         -2.0186540677       -3.2341864780       -2.2718982238
 H         -2.7851650115       -1.8146535983       -3.0080596357
 H         -3.2708115682        0.2661425505       -1.4237119814
 H         -4.2407227212       -0.8316121393       -0.3805498385
 H         -1.9804218499        2.6761767943       -0.5995567708
 H         -3.0132648353        4.9673614522       -0.6789007067
 H         -5.8070943879        3.7944458407        2.3320555234
 H         -4.7621739966        1.5057186696        2.3934873893
 H         -0.0845161786       -2.2407775469       -0.1672294633
 H          2.0691272291       -2.6614495299        0.4870251072
 H          3.6040914004        1.0634119704       -2.3625901846
 H          1.2049275050        0.4788817030       -2.2848920214
 H         -2.2892571884       -1.9766109108        1.0046849981
  43
  -89.946273189999999        6.8050525730515993E-005 !
 C         -2.3077136731       -1.9348717032       -0.9421818057
 C         -1.5516927221       -0.7528858173       -0.3188682999
 C         -2.3817154178        0.5299411242       -0.4250491831
 S         -3.9879347170        0.3243891437        0.4271771196
 O         -4.9712374923       -0.1624944258       -0.4955587155
 O         -3.7527590476       -0.4559376543        1.6230736067
 C         -4.4232519693        1.9953900362        0.9171879906
 C         -5.2201786801        2.7541138601        0.0801703236
 C         -5.5395314892        4.0518796849        0.4383848596
 C         -5.0435465636        4.5489449728        1.6336295944
 C         -4.2480173205        3.7928293896        2.4805256752
 C         -3.9358616230        2.4967423547        2.1101198286
 F         -5.3472456947        5.8074514058        1.9861622153
 C         -0.2570057389       -0.5596207098       -1.1420039638
 O         -0.2703907744       -0.0488571476       -2.2378964073
 N          0.8307167177       -1.0558980793       -0.5016420708
 C          2.1475356284       -1.1014993457       -0.9272339317
 C          3.0982761783       -1.6204773120       -0.0440092804
 C          4.4254614588       -1.6950946304       -0.4162828298
 C          4.8337149248       -1.2531077815       -1.6816376879
 C          3.8772927295       -0.7376694096       -2.5576653781
 C          2.5509454793       -0.6613498612       -2.1892064868
 C          6.1883501614       -1.3183516046       -2.0844344268
 N          7.2767647510       -1.3573348929       -2.4387018608
 C          5.4539465760       -2.2511775503        0.5323056014
 F          6.4072332341       -1.3547235096        0.8316028722
 F          6.0784911363       -3.3286916592        0.0324461522
 F          4.9196608298       -2.6353362007        1.7018252027
 O         -1.1978700001       -1.0113209900        1.0191790484
 H         -1.7282383194       -2.8470136070       -0.8142418863
 H         -2.4654753411       -1.7578014660       -2.0024348137
 H         -3.2725100163       -2.0565606874       -0.4565335167
 H         -1.8748168979        1.3526180090        0.0757174669
 H         -2.5820149842        0.7786913089       -1.4624182370
 H         -5.5924967031        2.3115229742       -0.8297838561
 H         -6.1617596458        4.6743418975       -0.1843345250
 H         -3.8923030315        4.2188275466        3.4049244865
 H         -3.3354571524        1.8623708623        2.7427892983
 H          0.6379824777       -1.3963715625        0.4361981692
 H          2.7937689291       -1.9635873467        0.9334335899
 H          4.1898415365       -0.3975979587       -3.5329571173
 H          1.8171335720       -0.2613575510       -2.8691324037
 H         -2.0282895676       -1.0489005781        1.5314490353
  43
  -89.946273110000007        6.8044765117677061E-005 !
 C         -2.2997733471       -1.9310609364       -0.9380556071
 C         -1.5470652122       -0.7464587273       -0.3156118623
 C         -2.3801837389        0.5341478646       -0.4237064676
 S         -3.9867149567        0.3249303059        0.4270072169
 O         -4.9676356541       -0.1655306744       -0.4963828181
 O         -3.7505568344       -0.4537832454        1.6237726634
 C         -4.4277781682        1.9948790416        0.9154832803
 C         -5.2275629131        2.7500085701        0.0779523440
 C         -5.5519801416        4.0467472569        0.4353736048
 C         -5.0580214219        4.5464460356        1.6303562947
 C         -4.2596183939        3.7939284917        2.4777486972
 C         -3.9424889185        2.4988097307        2.1081819262
 F         -5.3666162300        5.8039815567        1.9821155831
 C         -0.2522859247       -0.5517884027       -1.1382131602
 O         -0.2653325919       -0.0394420001       -2.2333501068
 N          0.8351246780       -1.0495775059       -0.4984668380
 C          2.1516287513       -1.0971166532       -0.9247928015
 C          3.1017760652       -1.6194266336       -0.0428951203
 C          4.4284800776       -1.6969313111       -0.4163019270
 C          4.8368638559       -1.2543843546       -1.6814173113
 C          3.8810617601       -0.7354151879       -2.5560355190
 C          2.5551962677       -0.6562340700       -2.1864532818
 C          6.1909556715       -1.3229876160       -2.0855311431
 N          7.2790658979       -1.3644347084       -2.4407599050
 C          5.4562728177       -2.2569206999        0.5307391008
 F          6.4119831708       -1.3632506305        0.8306258404
 F          6.0777998323       -3.3352604796        0.0288952181
 F          4.9218792516       -2.6414331154        1.7000932756
 O         -1.1934698434       -1.0026418668        1.0229304301
 H         -2.4580373296       -1.7552907052       -1.9984528428
 H         -3.2642323167       -2.0550399162       -0.4523139843
 H         -1.7177818272       -2.8414953015       -0.8093764056
 H         -1.8758904820        1.3585192350        0.0768933200
 H         -2.5800342578        0.7815180277       -1.4614892924
 H         -5.5981183242        2.3054083317       -0.8317414315
 H         -6.1765348165        4.6664345690       -0.1877841459
 H         -3.9055692899        4.2218776997        3.4018857054
 H         -3.3394364461        1.8672596419        2.7411517948
 H          0.6422910081       -1.3906060194        0.4391423352
 H          2.7971260490       -1.9632811934        0.9342425382
 H          4.1937280653       -0.3947837754       -3.5310924701
 H          1.8218908005       -0.2534093309       -2.8652474345
 H         -2.0241383237       -1.0417060261        1.5346880572
  43
  -89.946272969999995        6.8034685216795149E-005 !
 C         -2.2512725250       -1.9543424973       -0.9979471277
 C         -1.5284366426       -0.7656377283       -0.3484755518
 C         -2.3808840941        0.5023973772       -0.4539777149
 S         -3.9970690949        0.2560673174        0.3679697068
 O         -4.9545520600       -0.2402568028       -0.5766554509
 O         -3.7667370744       -0.5323889658        1.5594737701
 C         -4.4745905129        1.9125197996        0.8679429018
 C         -4.0131949017        2.4127690260        2.0716308373
 C         -4.3585273220        3.6979794852        2.4503825092
 C         -5.1602103920        4.4445983209        1.6008564348
 C         -5.6303143948        3.9484391894        0.3948371351
 C         -5.2778325950        2.6616088765        0.0283129247
 F         -5.4960590955        5.6925838999        1.9615359341
 C         -0.2239535226       -0.5391776001       -1.1472760669
 O         -0.2275701169       -0.0116571640       -2.2352577276
 N          0.8607719720       -1.0292610268       -0.4970934277
 C          2.1845432861       -1.0500857840       -0.9025523057
 C          3.1284148512       -1.5709625014       -0.0131025699
 C          4.4620337699       -1.6222278976       -0.3658138835
 C          4.8837789545       -1.1542285702       -1.6173147617
 C          3.9341910836       -0.6368890711       -2.4996375852
 C          2.6014370004       -0.5839244222       -2.1507229550
 C          6.2451987917       -1.1951535648       -1.9998940532
 N          7.3393938471       -1.2139554721       -2.3375831765
 C          5.4830793277       -2.1805260848        0.5895017503
 F          6.1293423498       -3.2415155234        0.0819459581
 F          4.9360087048       -2.5907896420        1.7441484104
 F          6.4197876622       -1.2769125979        0.9181497186
 O         -1.1921185599       -1.0332274493        0.9922826537
 H         -1.6562936205       -2.8566652865       -0.8715651186
 H         -2.3956379132       -1.7674264583       -2.0584162785
 H         -3.2211146546       -2.1005547825       -0.5294050647
 H         -1.8983295834        1.3284393816        0.0649497545
 H         -2.5682061435        0.7597344039       -1.4916689764
 H         -3.4067883135        1.7856740394        2.7058298654
 H         -4.0237755617        4.1226571981        3.3831783861
 H         -6.2584294565        4.5631010054       -0.2297185397
 H         -5.6287631665        2.2198455078       -0.8905016745
 H          0.6584148465       -1.3864219316        0.4324663470
 H          2.8134944968       -1.9339687051        0.9537982624
 H          4.2571623123       -0.2767115832       -3.4642572559
 H          1.8729158994       -0.1824302813       -2.8354351436
 H         -2.0300411519       -1.0918458161        1.4901629386
  43
  -89.946272840000006        6.8025326647395452E-005 !
 C         -2.2877502824       -1.9941067276       -0.8442460327
 C         -1.5427752580       -0.7771374432       -0.2774839114
 C         -2.3869632303        0.4906189455       -0.4384922297
 S         -3.9889267497        0.3055023766        0.4263746277
 O         -4.9687069276       -0.2325784988       -0.4713322394
 O         -3.7424425776       -0.4183915935        1.6550409834
 C         -4.4419465169        1.9915974432        0.8431749740
 C         -3.9653833022        2.5475813324        2.0160577433
 C         -4.2916374310        3.8550927838        2.3298429986
 C         -5.0898343054        4.5670718066        1.4479436612
 C         -5.5749039797        4.0152074406        0.2724050249
 C         -5.2416319166        2.7065618220       -0.0290071427
 F         -5.4070753914        5.8364607495        1.7453895102
 C         -0.2527456284       -0.6080596345       -1.1131077938
 O         -0.2748436760       -0.1477790862       -2.2310035928
 N          0.8419967716       -1.0639226126       -0.4549010495
 C          2.1573025464       -1.1187643155       -0.8840312131
 C          3.1161071554       -1.5880481870        0.0180556248
 C          4.4421139220       -1.6702063648       -0.3568631515
 C          4.8410499885       -1.2855218861       -1.6436952341
 C          3.8767222724       -0.8191630740       -2.5382952566
 C          2.5515459881       -0.7354355295       -2.1672529434
 C          6.1942928767       -1.3593627636       -2.0496203889
 N          7.2810969311       -1.4075174019       -2.4072569383
 C          5.4793201493       -2.1724292571        0.6120470803
 F          6.4237947291       -1.2532193051        0.8673994637
 F          6.1139584581       -3.2645634101        0.1590079270
 F          4.9527347625       -2.5092297504        1.7995301062
 O         -1.1823679727       -0.9711731482        1.0696496361
 H         -1.6974068393       -2.8930882663       -0.6784484681
 H         -2.4517094709       -1.8661809193       -1.9106091595
 H         -3.2491514523       -2.1048916813       -0.3493514274
 H         -1.8880831195        1.3402205082        0.0239180695
 H         -2.5921870078        0.6907183911       -1.4853807862
 H         -3.3622736953        1.9462200426        2.6777154557
 H         -3.9447616261        4.3231372360        3.2371075453
 H         -6.1996185602        4.6048569978       -0.3790953425
 H         -5.6053868341        2.2223750301       -0.9210658941
 H          0.6558823325       -1.3627076617        0.4983458932
 H          2.8187633606       -1.8868417584        1.0121285172
 H          4.1821156277       -0.5233879834       -3.5301495046
 H          1.8114926907       -0.3738408527       -2.8617627675
 H         -2.0109405537       -0.9950931475        1.5857000201
  43
  -89.946272800000003        6.8022447346104950E-005 !
 C         -2.2532267221       -1.9551076044       -0.9993851027
 C         -1.5294697213       -0.7675524834       -0.3488731345
 C         -2.3809963778        0.5012036946       -0.4531216095
 S         -3.9970469566        0.2557086733        0.3692476575
 O         -4.9549944752       -0.2407888472       -0.5748185755
 O         -3.7666350641       -0.5322245374        1.5610695812
 C         -4.4736045377        1.9127066222        0.8682328192
 C         -4.0100740812        2.4143652189        2.0705166911
 C         -4.3544149906        3.7001546480        2.4481555066
 C         -5.1573030931        4.4458961504        1.5990002549
 C         -5.6296330470        3.9482904653        0.3944511183
 C         -5.2780957333        2.6608898588        0.0289981206
 F         -5.4920713898        5.6944904943        1.9585469726
 C         -0.2249765507       -0.5408744001       -1.1476135307
 O         -0.2286497612       -0.0129032807       -2.2353747636
 N          0.8598038435       -1.0309924819       -0.4975914344
 C          2.1837094267       -1.0506076740       -0.9026063621
 C          3.1275139617       -1.5720383566       -0.0134222834
 C          4.4612720691       -1.6222586984       -0.3657275145
 C          4.8832448808       -1.1526615273       -1.6165529746
 C          3.9337549342       -0.6344224168       -2.4984694961
 C          2.6008561621       -0.5824956777       -2.1499537122
 C          6.2449134439       -1.1918477035       -1.9984094774
 N          7.3392571648       -1.2095816668       -2.3356873687
 C          5.4822618017       -2.1810858397        0.5893409582
 F          6.1288620138       -3.2414439038        0.0808703375
 F          4.9350377474       -2.5925329978        1.7434929633
 F          6.4187060972       -1.2776128205        0.9191067321
 O         -1.1930752511       -1.0365683072        0.9915919078
 H         -2.3973248306       -1.7671941464       -2.0597204903
 H         -3.2232248312       -2.1008321997       -0.5310274286
 H         -1.6590202822       -2.8580270831       -0.8736748351
 H         -1.8976532419        1.3264811311        0.0662895292
 H         -2.5684989061        0.7594974622       -1.4905421579
 H         -3.4028059701        1.7879364381        2.7045512886
 H         -4.0179136875        4.1259906382        3.3797895878
 H         -6.2586609106        4.5622987570       -0.2298365976
 H         -5.6306725297        2.2179849468       -0.8886322849
 H          0.6573712564       -1.3890233613        0.4316126318
 H          2.8123884610       -1.9366417352        0.9528159390
 H          4.2569703391       -0.2725315998       -3.4623651024
 H          1.8724015590       -0.1803332062       -2.8343621466
 H         -2.0308644274       -1.0943938816        1.4897949321
  43
  -89.946272789999995        6.8021727539313548E-005 !
 C         -2.2637615667       -1.9599788030       -1.0066398930
 C         -1.5358035520       -0.7743691487       -0.3573577219
 C         -2.3840847532        0.4966767711       -0.4607767557
 S         -3.9995194458        0.2558316702        0.3645948860
 O         -4.9620823681       -0.2309231982       -0.5798184412
 O         -3.7710032821       -0.5389196520        1.5522589691
 C         -4.4660849438        1.9127328729        0.8733838602
 C         -4.0016862536        2.4030201294        2.0800404122
 C         -4.3384116287        3.6883298620        2.4660476120
 C         -5.1347388496        4.4452022502        1.6205727982
 C         -5.6077819592        3.9591339638        0.4115868413
 C         -5.2639694525        2.6720503287        0.0378039444
 F         -5.4622759167        5.6933379198        1.9882875051
 C         -0.2316715801       -0.5513563132       -1.1577636033
 O         -0.2359839041       -0.0285930209       -2.2480919929
 N          0.8535980840       -1.0375320819       -0.5056677548
 C          2.1775195007       -1.0579166354       -0.9105830332
 C          3.1227911501       -1.5670173495       -0.0158091843
 C          4.4567100942       -1.6169924411       -0.3674154401
 C          4.8773581687       -1.1599161003       -1.6233125407
 C          3.9263590528       -0.6544446433       -2.5110118325
 C          2.5932984171       -0.6024131160       -2.1630366733
 C          6.2389767732       -1.2003974747       -2.0052747819
 N          7.3331691418       -1.2194653112       -2.3428764946
 C          5.4793304105       -2.1617005495        0.5940385669
 F          6.1302899845       -3.2250540831        0.0976058283
 F          4.9330816358       -2.5625848262        1.7523699372
 F          6.4120902835       -1.2509925853        0.9142759705
 O         -1.1987334010       -1.0437794074        0.9828444381
 H         -3.2342772325       -2.1019203379       -0.5381647974
 H         -1.6726455351       -2.8648068015       -0.8800119549
 H         -2.4071002925       -1.7726077661       -2.0671720010
 H         -1.8976629693        1.3210353379        0.0572315114
 H         -2.5729285755        0.7547962461       -1.4980101963
 H         -3.3996921177        1.7681776377        2.7107242522
 H         -4.0010180886        4.1053999370        3.4013243923
 H         -6.2315751957        4.5815854640       -0.2095705425
 H         -5.6178939890        2.2378742716       -0.8834684434
 H          0.6516066442       -1.3905813646        0.4255579840
 H          2.8086553509       -1.9217738995        0.9544157452
 H          4.2484918830       -0.3027720500       -3.4790385825
 H          1.8637281556       -0.2097340988       -2.8517294121
 H         -2.0364207744       -1.1016745448        1.4812159796
  43
  -89.946272789999995        6.8021727539313548E-005 !
 C         -2.2690811272       -1.9710208744       -0.9736198002
 C         -1.5382751614       -0.7776790727       -0.3419684569
 C         -2.3858471177        0.4926181899       -0.4594460227
 S         -3.9990574817        0.2642795070        0.3737227511
 O         -4.9651746249       -0.2328197137       -0.5616102425
 O         -3.7680181861       -0.5159259667        1.5705264793
 C         -4.4613708082        1.9281953446        0.8631547079
 C         -3.9899813923        2.4335910575        2.0608144927
 C         -4.3227835565        3.7244040489        2.4316076509
 C         -5.1223755988        4.4713033755        1.5803674307
 C         -5.6023886380        3.9700987698        0.3803481583
 C         -5.2623973830        2.6776679596        0.0217597970
 F         -5.4461140379        5.7246920437        1.9332903117
 C         -0.2363853524       -0.5655687893       -1.1489470018
 O         -0.2437510293       -0.0567452936       -2.2457928905
 N          0.8506595180       -1.0439733793       -0.4940126971
 C          2.1733554015       -1.0696615617       -0.9026544422
 C          3.1206054096       -1.5725984757       -0.0065028038
 C          4.4534674501       -1.6269691789       -0.3615646576
 C          4.8710702527       -1.1801971628       -1.6221895491
 C          3.9180408686       -0.6811574949       -2.5113219883
 C          2.5860326560       -0.6250751880       -2.1600598405
 C          6.2317252318       -1.2243586933       -2.0070782389
 N          7.3251923217       -1.2468254488       -2.3470017570
 C          5.4781732567       -2.1655786694        0.6010880763
 F          4.9347955209       -2.5568212069        1.7640614730
 F          6.4130986155       -1.2537304113        0.9116022254
 F          6.1262201722       -3.2335978277        0.1108969305
 O         -1.1974832736       -1.0299487437        1.0006239387
 H         -2.4155546042       -1.7973038739       -2.0360459957
 H         -3.2382417498       -2.1060561055       -0.5003200102
 H         -1.6782761505       -2.8746044003       -0.8370779034
 H         -1.8971322794        1.3232250653        0.0462742156
 H         -2.5774981944        0.7373317000       -1.4994053911
 H         -3.3856599302        1.8062035528        2.6967109299
 H         -3.9798990119        4.1532247285        3.3595427411
 H         -6.2282975820        4.5853663094       -0.2458225916
 H         -5.6213339157        2.2321141704       -0.8921162935
 H          0.6512544989       -1.3862059700        0.4417921614
 H          2.8089095443       -1.9191964554        0.9674426961
 H          4.2377791325       -0.3375295982       -3.4830291932
 H          1.8548746628       -0.2374296637       -2.8499228598
 H         -2.0338082219       -1.0808756834        1.5020619537
  43
  -89.946272649999997        6.8011651052156383E-005 !
 C         -2.2966810355       -2.0004829165       -0.8472170463
 C         -1.5481851195       -0.7852689464       -0.2814708441
 C         -2.3899051293        0.4842788790       -0.4416287080
 S         -3.9902098186        0.3044120090        0.4275120726
 O         -4.9743944301       -0.2299946939       -0.4675552166
 O         -3.7431135934       -0.4206752290        1.6553586041
 C         -4.4360287795        1.9919581428        0.8462367853
 C         -3.9360064254        2.5526064534        2.0071458420
 C         -4.2563184823        3.8612034578        2.3224489550
 C         -5.0727004394        4.5694880811        1.4542842872
 C         -5.5814837456        4.0129032988        0.2911030318
 C         -5.2537281885        2.7032390386       -0.0120798398
 F         -5.3843245149        5.8398462491        1.7533183520
 C         -0.2586908999       -0.6180942113       -1.1184063671
 O         -0.2815991756       -0.1603021966       -2.2373081482
 N          0.8366370027       -1.0718177086       -0.4597361394
 C          2.1523106073       -1.1238169505       -0.8880995731
 C          3.1118763504       -1.5888390898        0.0154030554
 C          4.4385051229       -1.6668143449       -0.3581731655
 C          4.8373316099       -1.2824002002       -1.6451481950
 C          3.8721242701       -0.8207825861       -2.5412987338
 C          2.5463298272       -0.7410770732       -2.1715690312
 C          6.1910785623       -1.3530501678       -2.0500009972
 N          7.2786006776       -1.3979833759       -2.4063101092
 C          5.4764095723       -2.1647663580        0.6121704390
 F          6.4209676717       -1.2445468935        0.8631352946
 F          6.1107955117       -3.2587795895        0.1631704205
 F          4.9505882842       -2.4967028100        1.8013558554
 O         -1.1865895992       -0.9797363535        1.0652813765
 H         -2.4595525796       -1.8732124898       -1.9138335047
 H         -3.2587308265       -2.1076535827       -0.3527653457
 H         -1.7092358911       -2.9011030697       -0.6800595297
 H         -1.8877352453        1.3332892525        0.0182772274
 H         -2.5975557464        0.6836075825       -1.4881820415
 H         -3.3192523472        1.9542753240        2.6589175425
 H         -3.8909711616        4.3329890655        3.2204813399
 H         -6.2196279323        4.5997770295       -0.3497994238
 H         -5.6343254988        2.2155798776       -0.8951846680
 H          0.6509437450       -1.3694343563        0.4939775289
 H          2.8145684779       -1.8877704992        1.0094338769
 H          4.1775158051       -0.5245609202       -3.5330266054
 H          1.8058498116       -0.3817313376       -2.8667794614
 H         -2.0145916142       -1.0018425530        1.5823856634
  43
  -89.946272649999997        6.8011651052156383E-005 !
 C         -2.2708658272       -1.8934190396       -1.0890601423
 C         -1.5371879343       -0.7406635486       -0.3889287091
 C         -2.3763398215        0.5394832048       -0.4426372163
 S         -3.9966789313        0.2754990699        0.3657921302
 O         -4.9580629363       -0.1674495973       -0.6011175600
 O         -3.7775840376       -0.5675266059        1.5215442132
 C         -4.4564657853        1.9132617495        0.9387310769
 C         -5.2553764301        2.7059031166        0.1357768568
 C         -5.5946367415        3.9785537684        0.5598121926
 C         -5.1158504554        4.4169243410        1.7846499544
 C         -4.3182224952        3.6264148180        2.5975068848
 C         -3.9863466553        2.3559179707        2.1614704553
 F         -5.4388051620        5.6508789078        2.2010620200
 C         -0.2287409022       -0.4944251538       -1.1753247947
 O         -0.2253127104        0.0741046742       -2.2424396791
 N          0.8504045080       -1.0171819751       -0.5415366769
 C          2.1749790938       -1.0336340475       -0.9445073798
 C          3.1129266188       -1.5913829890       -0.0712973873
 C          4.4469689232       -1.6403767319       -0.4227146311
 C          4.8750000968       -1.1336256850       -1.6568748843
 C          3.9313190833       -0.5794260651       -2.5230052753
 C          2.5982073288       -0.5283120699       -2.1751806397
 C          6.2368265657       -1.1725447308       -2.0382209777
 N          7.3314777495       -1.1888465221       -2.3744803263
 C          5.4616965896       -2.2380284091        0.5153497779
 F          6.1001958118       -3.2870831490       -0.0257481352
 F          4.9092036042       -2.6814040051        1.6550846783
 F          6.4051419355       -1.3534027465        0.8749002773
 O         -1.2066935120       -1.0675295245        0.9400937942
 H         -3.2434595097       -2.0486547223       -0.6292181081
 H         -1.6858038077       -2.8065313304       -0.9991207393
 H         -2.4103390210       -1.6609178130       -2.1411446590
 H         -1.8864830042        1.3381392443        0.1111489786
 H         -2.5591380298        0.8418891046       -1.4689247608
 H         -5.6136879239        2.3080180490       -0.8000828016
 H         -6.2191048619        4.6257935951       -0.0347674719
 H         -3.9764406488        4.0065732644        3.5468104341
 H         -3.3839749853        1.6959731986        2.7654621990
 H          0.6426835054       -1.4076750665        0.3733380532
 H          2.7930845907       -1.9848710914        0.8819689876
 H          4.2591498661       -0.1892997046       -3.4742431702
 H          1.8742794730       -0.0981940594       -2.8472449792
 H         -2.0464893160       -1.1397131498        1.4330598400
  43
  -89.946272640000004        6.8010931360633088E-005 !
 C         -2.2835556902       -1.9042119942       -1.0691401990
 C         -1.5437105412       -0.7488831046       -0.3799517427
 C         -2.3784321988        0.5338683184       -0.4405463390
 S         -3.9973907479        0.2822726173        0.3744195419
 O         -4.9630493877       -0.1644604229       -0.5864545427
 O         -3.7783552700       -0.5523829659        1.5362029016
 C         -4.4481158554        1.9268664915        0.9347459849
 C         -5.2222524541        2.7263267217        0.1143810880
 C         -5.5524965082        4.0049983388        0.5271876461
 C         -5.0904486015        4.4421754696        1.7589065648
 C         -4.3181880307        3.6447628487        2.5892650662
 C         -3.9945407931        2.3684630116        2.1640313162
 F         -5.4049735135        5.6818965723        2.1645196996
 C         -0.2370206008       -0.5119485315       -1.1720997303
 O         -0.2360256491        0.0467142571       -2.2444463749
 N          0.8435064272       -1.0293329317       -0.5363233332
 C          2.1673214248       -1.0478922751       -0.9417685082
 C          3.1074273002       -1.5983949294       -0.0662944523
 C          4.4409252494       -1.6482705676       -0.4196762298
 C          4.8662753665       -1.1494467586       -1.6579803483
 C          3.9204125341       -0.6026714221       -2.5264366811
 C          2.5878256050       -0.5508255541       -2.1767342219
 C          6.2275822684       -1.1887805810       -2.0411522733
 N          7.3217371751       -1.2056546075       -2.3790715143
 C          5.4580218066       -2.2379862774        0.5208382112
 F          4.9078725754       -2.6752351248        1.6640644823
 F          6.4001273640       -1.3491790345        0.8735706950
 F          6.0979672165       -3.2891439572       -0.0144108505
 O         -1.2103099282       -1.0670788695        0.9504182128
 H         -2.4248751380       -1.6792497512       -2.1226000561
 H         -3.2555014261       -2.0523102669       -0.6055787917
 H         -1.7016228161       -2.8187512473       -0.9736679119
 H         -1.8840848264        1.3346579409        0.1061543588
 H         -2.5627751250        0.8294683738       -1.4685415145
 H         -5.5691490791        2.3294377624       -0.8261849394
 H         -6.1579102265        4.6576919675       -0.0809868673
 H         -3.9881594561        4.0246108102        3.5428489099
 H         -3.4108890679        1.7033816410        2.7806101257
 H          0.6378892152       -1.4122730254        0.3821998485
 H          2.7897163841       -1.9854038838        0.8903296677
 H          4.2460345072       -0.2194058937       -3.4812133170
 H          1.8621152593       -0.1270772569       -2.8509349323
 H         -2.0487746180       -1.1322634623        1.4465426603
  43
  -89.946272579999999        6.8006613368351728E-005 !
 C         -2.2864414950       -1.9072996365       -1.0690581481
 C         -1.5457925295       -0.7517729267       -0.3811390592
 C         -2.3800441697        0.5312484603       -0.4425873969
 S         -3.9981569930        0.2819743217        0.3747374135
 O         -4.9656649446       -0.1646806146       -0.5843131184
 O         -3.7784622324       -0.5518338523        1.5370065713
 C         -4.4459938956        1.9276735337        0.9341381457
 C         -5.2318900669        2.7224735718        0.1204896092
 C         -5.5597960161        4.0019747457        0.5326634389
 C         -5.0832360547        4.4447514198        1.7568163934
 C         -4.2988644172        3.6521104131        2.5804120735
 C         -3.9780366130        2.3748166192        2.1560609259
 F         -5.3952928812        5.6853081220        2.1617471548
 C         -0.2392117803       -0.5154365872       -1.1736972141
 O         -0.2383239296        0.0426246538       -2.2463629005
 N          0.8413701053       -1.0324572024       -0.5377064385
 C          2.1655538554       -1.0491890474       -0.9420524193
 C          3.1052072522       -1.6013431373       -0.0671104998
 C          4.4391779401       -1.6487876284       -0.4190386017
 C          4.8655024883       -1.1456624598       -1.6552711282
 C          3.9200320782       -0.5976804993       -2.5233995324
 C          2.5869395610       -0.5484620777       -2.1752359076
 C          6.2274304675       -1.1815678273       -2.0365074952
 N          7.3222034771       -1.1954020579       -2.3725962456
 C          5.4557523348       -2.2403598424        0.5208908725
 F          4.9044005609       -2.6834068552        1.6613040280
 F          6.3954417850       -1.3511210516        0.8790129804
 F          6.0987687791       -3.2880128056       -0.0174976648
 O         -1.2119636675       -1.0689336270        0.9493877027
 H         -1.7053352939       -2.8222121784       -0.9721202037
 H         -2.4272880438       -1.6837153778       -2.1228907557
 H         -3.2586397238       -2.0537675963       -0.6054904153
 H         -1.8845981795        1.3326950572        0.1021500705
 H         -2.5657286782        0.8253555786       -1.4707683305
 H         -5.5891849719        2.3213053777       -0.8143509969
 H         -6.1738605237        4.6512360216       -0.0705060349
 H         -3.9584841697        4.0359394351        3.5287601667
 H         -3.3857465176        1.7132277738        2.7681910159
 H          0.6355744507       -1.4159658172        0.3805420044
 H          2.7867261620       -1.9917973812        0.8878566334
 H          4.2465340293       -0.2103010943       -3.4762193601
 H          1.8616454448       -0.1230614695       -2.8488522932
 H         -2.0502129380       -1.1331206139        1.4460366108
  43
  -89.946272420000000        6.7995100063522289E-005 !
 C         -2.2796663146       -1.8978990877       -1.0924409386
 C         -1.5422960264       -0.7478724115       -0.3918411217
 C         -2.3780688621        0.5346023476       -0.4433654162
 S         -3.9987542194        0.2741744722        0.3655108915
 O         -4.9620566331       -0.1632045177       -0.6020020090
 O         -3.7819445030       -0.5720922421        1.5192970733
 C         -4.4518358027        1.9125580093        0.9419684567
 C         -5.2277202021        2.7188664578        0.1300074756
 C         -5.5605824148        3.9925087223        0.5560710161
 C         -5.0992076853        4.4179154618        1.7921485936
 C         -4.3249727979        3.6136484419        2.6140255897
 C         -3.9988716994        2.3424324376        2.1756475121
 F         -5.4161726447        5.6527496328        2.2105629788
 C         -0.2341422843       -0.5033901036       -1.1792722817
 O         -0.2315666549        0.0626135936       -2.2477655365
 N          0.8457282048       -1.0235872258       -0.5446526814
 C          2.1703050956       -1.0384064048       -0.9477695295
 C          3.1097980659       -1.5905478464       -0.0726609994
 C          4.4440063064       -1.6368397196       -0.4238570758
 C          4.8706405460       -1.1329829651       -1.6596760198
 C          3.9253468729       -0.5848790303       -2.5279148171
 C          2.5920932681       -0.5363946909       -2.1802909995
 C          6.2326279119       -1.1688788357       -2.0407669078
 N          7.3272853947       -1.1828126841       -2.3772129492
 C          5.4604853049       -2.2280734898        0.5163796512
 F          6.1022878966       -3.2770517311       -0.0209314151
 F          4.9092747761       -2.6690877385        1.6576409204
 F          6.4011518830       -1.3392426295        0.8728471353
 O         -1.2116127455       -1.0769427639        0.9365593797
 H         -2.4190763687       -1.6639912908       -2.1442130086
 H         -3.2523960651       -2.0508509638       -0.6321145553
 H         -1.6970400763       -2.8126811952       -1.0036628395
 H         -1.8857916474        1.3311019821        0.1114088238
 H         -2.5603568213        0.8388851548       -1.4691915565
 H         -5.5737807398        2.3310331723       -0.8146339945
 H         -6.1671026138        4.6503413314       -0.0454220498
 H         -3.9961180592        3.9840713208        3.5717096706
 H         -3.4143498051        1.6720112122        2.7855791888
 H          0.6387312554       -1.4125012173        0.3710519876
 H          2.7910624670       -1.9815694706        0.8819914289
 H          4.2520672559       -0.1971155360       -3.4804982323
 H          1.8670150083       -0.1103038381       -2.8536998262
 H         -2.0512564299       -1.1480739988        1.4298631685
  43
  -89.946272399999998        6.7993661037348352E-005 !
 C         -2.3015116727       -1.9317943522       -0.9392090115
 C         -1.5477970254       -0.7477554003       -0.3169367693
 C         -2.3801874298        0.5333838798       -0.4247130048
 S         -3.9861131313        0.3257463044        0.4275643672
 O         -4.9682123677       -0.1653601502       -0.4942301012
 O         -3.7491326395       -0.4517757222        1.6249466685
 C         -4.4263411149        1.9962675285        0.9148464669
 C         -5.2404094689        2.7451885087        0.0855751456
 C         -5.5648468018        4.0420577481        0.4425416114
 C         -5.0563587025        4.5481625421        1.6286876934
 C         -4.2433689601        3.8019171336        2.4677838769
 C         -3.9264959753        2.5065914016        2.0988204079
 F         -5.3648420057        5.8058533611        1.9799631568
 C         -0.2529750591       -0.5534378790       -1.1396320116
 O         -0.2659559216       -0.0417105587       -2.2350582308
 N          0.8343498563       -1.0509627509       -0.4995524084
 C          2.1510708908       -1.0980424897       -0.9251913130
 C          3.1006572758       -1.6212298367       -0.0432066709
 C          4.4277020388       -1.6976416645       -0.4155469576
 C          4.8369913084       -1.2532803718       -1.6797489807
 C          3.8817426777       -0.7333996057       -2.5544391178
 C          2.5555497290       -0.6551445876       -2.1858597019
 C          6.1913953033       -1.3205375857       -2.0826275639
 N          7.2796846092       -1.3615200043       -2.4370670860
 C          5.4548286905       -2.2588127286        0.5315125316
 F          6.4107088607       -1.3657731256        0.8326489527
 F          6.0762022206       -3.3369633000        0.0290261973
 F          4.9196998492       -2.6441843930        1.7002496406
 O         -1.1940083848       -1.0043080016        1.0214886452
 H         -3.2662246016       -2.0547744204       -0.4537139219
 H         -1.7204496176       -2.8427613114       -0.8101905542
 H         -2.4593008670       -1.7561372238       -1.9996918708
 H         -1.8748161699        1.3576169755        0.0750204625
 H         -2.5809064792        0.7805146905       -1.4623827431
 H         -5.6213548138        2.2956762905       -0.8174002191
 H         -6.2003634188        4.6569603976       -0.1742642147
 H         -3.8782360468        4.2347397826        3.3853302598
 H         -3.3127932142        1.8797383100        2.7262519798
 H          0.6411995445       -1.3921701136        0.4379360083
 H          2.7953571468       -1.9660966336        0.9333794884
 H          4.1951499378       -0.3912274924       -3.5287261633
 H          1.8226155597       -0.2518963412       -2.8648176386
 H         -2.0245045751       -1.0423614409        1.5336578229
  43
  -89.946272390000004        6.7992941536193258E-005 !
 C         -2.2615534481       -1.9661420502       -0.9716256619
 C         -1.5333297487       -0.7722334415       -0.3379771229
 C         -2.3831777217        0.4966674471       -0.4539454118
 S         -3.9959122752        0.2642604784        0.3787662896
 O         -4.9594136179       -0.2406342533       -0.5551343654
 O         -3.7618383522       -0.5107022593        1.5783647000
 C         -4.4664013156        1.9278325300        0.8614037804
 C         -3.9912240499        2.4439228766        2.0529984762
 C         -4.3307540899        3.7347129568        2.4177469993
 C         -5.1408898886        4.4706538232        1.5669063133
 C         -5.6248852605        3.9586080415        0.3731071350
 C         -5.2779191373        2.6664149646        0.0204527147
 F         -5.4712047116        5.7239325767        1.9140713273
 C         -0.2313229848       -0.5570326296       -1.1440213977
 O         -0.2380346684       -0.0426721363       -2.2382757545
 N          0.8551117150       -1.0398439039       -0.4912799647
 C          2.1779093098       -1.0652679357       -0.8995924188
 C          3.1237152150       -1.5767092791       -0.0067041533
 C          4.4567257410       -1.6307431477       -0.3612705996
 C          4.8758580062       -1.1755905838       -1.6183756056
 C          3.9243097067       -0.6680034324       -2.5042323327
 C          2.5920924418       -0.6125944482       -2.1535951449
 C          6.2365846991       -1.2199224140       -2.0030490365
 N          7.3301606911       -1.2419653155       -2.3425035457
 C          5.4798451820       -2.1780204160        0.5981785791
 F          4.9346387276       -2.5787451113        1.7570585034
 F          6.4147610801       -1.2692049420        0.9176352968
 F          6.1280983528       -3.2421844666        0.1000059112
 O         -1.1923192671       -1.0259709204        1.0043092162
 H         -3.2302406180       -2.1042811917       -0.4982717703
 H         -1.6686807333       -2.8686588520       -0.8370553920
 H         -2.4089012658       -1.7907927104       -2.0336642071
 H         -1.8960898011        1.3275628500        0.0529165119
 H         -2.5750667202        0.7422933199       -1.4936441553
 H         -3.3785943792        1.8249038818        2.6891470914
 H         -3.9850808974        4.1718253246        3.3407727923
 H         -6.2591140760        4.5654556429       -0.2529161482
 H         -5.6392935274        2.2124213964       -0.8883205366
 H          0.6551344048       -1.3863301566        0.4428351228
 H          2.8108851018       -1.9293394265        0.9646904859
 H          4.2451290158       -0.3187080780       -3.4735495082
 H          1.8618769883       -0.2197311455       -2.8414991084
 H         -2.0282394133       -1.0762421619        1.5064670455
  43
  -89.946272089999994        6.7971360027230105E-005 !
 C         -2.2756214003       -1.8958687209       -1.0890518654
 C         -1.5398490305       -0.7454963018       -0.3873109172
 C         -2.3764633303        0.5364104299       -0.4385392785
 S         -3.9977727417        0.2739365360        0.3681365403
 O         -4.9586257445       -0.1674149451       -0.6000328086
 O         -3.7807303675       -0.5696649053        1.5238052361
 C         -4.4551080220        1.9126900168        0.9400813729
 C         -5.2224875696        2.7191850887        0.1201513975
 C         -5.5581155134        3.9934875981        0.5421204534
 C         -5.1079915393        4.4193749224        1.7822195584
 C         -4.3425061198        3.6148885898        2.6120748065
 C         -4.0135098384        2.3429664149        2.1777394208
 F         -5.4278211324        5.6547934245        2.1967265489
 C         -0.2315215140       -0.4992623080       -1.1738107525
 O         -0.2285703223        0.0703014721       -2.2404155145
 N          0.8479477199       -1.0226511563       -0.5411176742
 C          2.1725801683       -1.0363126724       -0.9441736440
 C          3.1115461388       -1.5945988134       -0.0724049896
 C          4.4457432423       -1.6398825861       -0.4238054926
 C          4.8730037460       -1.1283958061       -1.6562695017
 C          3.9282885925       -0.5739317840       -2.5210861202
 C          2.5949992416       -0.5268104215       -2.1734256342
 C          6.2351102771       -1.1622928445       -2.0371127300
 N          7.3299368215       -1.1748051156       -2.3732325148
 C          5.4616666891       -2.2379608239        0.5126929175
 F          6.1048112010       -3.2820943003       -0.0323451482
 F          4.9096560565       -2.6885204810        1.6498348047
 F          6.4013208830       -1.3512933772        0.8772188970
 O         -1.2094268043       -1.0752619719        0.9409855197
 H         -1.6918500783       -2.8100374163       -1.0011275916
 H         -2.4153643005       -1.6610310654       -2.1405639882
 H         -3.2481696325       -2.0504341430       -0.6289006303
 H         -1.8854944684        1.3326735633        0.1177699804
 H         -2.5575757210        0.8416400831       -1.4642973504
 H         -5.5599266125        2.3311465051       -0.8275299425
 H         -6.1581974378        4.6515096522       -0.0656129258
 H         -4.0226303291        3.9855691997        3.5726992531
 H         -3.4348816237        1.6725171387        2.7932795214
 H          0.6407627570       -1.4147092604        0.3731893310
 H          2.7923885755       -1.9916283737        0.8796236030
 H          4.2554284824       -0.1804607695       -3.4711847483
 H          1.8702971692       -0.0965001193       -2.8445404749
 H         -2.0490419005       -1.1462774241        1.4342696465
  43
  -89.946271990000000        6.7964167713952333E-005 !
 C         -2.2775621236       -1.9913729190       -0.8349347949
 C         -1.5368582988       -0.7711394970       -0.2694513139
 C         -2.3852252328        0.4935445439       -0.4321668054
 S         -3.9861791094        0.3049855381        0.4334559754
 O         -4.9632021253       -0.2439550028       -0.4607298173
 O         -3.7355245279       -0.4102585898        1.6663134513
 C         -4.4484849859        1.9911641340        0.8394614099
 C         -3.9626936524        2.5627218387        2.0010733762
 C         -4.2959636786        3.8706474191        2.3056422298
 C         -5.1105694551        4.5671749758        1.4263863529
 C         -5.6050837021        3.9996011581        0.2623497198
 C         -5.2644274626        2.6908085234       -0.0300604477
 F         -5.4346260223        5.8368389816        1.7149627577
 C         -0.2470042360       -0.5986398775       -1.1046479095
 O         -0.2686273760       -0.1316919310       -2.2197723552
 N          0.8470767646       -1.0605846636       -0.4495626140
 C          2.1625931473       -1.1128085651       -0.8783993274
 C          3.1197358310       -1.5952615305        0.0185051664
 C          4.4459252561       -1.6750454859       -0.3562327498
 C          4.8468232368       -1.2745455359       -1.6376482439
 C          3.8840684775       -0.7952811701       -2.5271718758
 C          2.5586443617       -0.7142243304       -2.1564107915
 C          6.2003218322       -1.3456148573       -2.0432345253
 N          7.2876732337       -1.3900067187       -2.4001027139
 C          5.4811649325       -2.1925291096        0.6067398475
 F          6.4300779339       -1.2808502661        0.8719886672
 F          6.1104215060       -3.2825984934        0.1411712918
 F          4.9533988832       -2.5401490926        1.7905568621
 O         -1.1756678479       -0.9627149402        1.0778597832
 H         -3.2386161468       -2.1048441370       -0.3399616003
 H         -1.6842127958       -2.8881725373       -0.6680865418
 H         -2.4420732718       -1.8653779406       -1.9014471832
 H         -1.8888127104        1.3454616829        0.0285942106
 H         -2.5913036551        0.6913571814       -1.4793135351
 H         -3.3467561951        1.9731964821        2.6615636559
 H         -3.9419164208        4.3507578861        3.2037741999
 H         -6.2423316591        4.5775299793       -0.3875154080
 H         -5.6342386355        2.1946466178       -0.9130456783
 H          0.6606606591       -1.3652930440        0.5017386225
 H          2.8209191785       -1.9064174385        1.0083261316
 H          4.1909726646       -0.4870179030       -3.5147543290
 H          1.8198517014       -0.3427020247       -2.8470074070
 H         -2.0037231699       -0.9857271473        1.5947702541
  43
  -89.946271780000004        6.7949066332566267E-005 !
 C         -2.2826614677       -1.9751695862       -0.9840548425
 C         -1.5453743072       -0.7883834865       -0.3478311030
 C         -2.3867607088        0.4866874093       -0.4589923029
 S         -3.9998490735        0.2636836630        0.3757985327
 O         -4.9693236756       -0.2284735354       -0.5586767849
 O         -3.7702207679       -0.5187647229        1.5713793430
 C         -4.4541915511        1.9293095706        0.8668744995
 C         -3.9754104409        2.4338130447        2.0619767613
 C         -4.3012862331        3.7263054239        2.4330616129
 C         -5.1014894850        4.4757880451        1.5846422968
 C         -5.5890172811        3.9754240553        0.3873019151
 C         -5.2558509719        2.6813271379        0.0283870874
 F         -5.4179978360        5.7310301638        1.9375806380
 C         -0.2433081681       -0.5777227334       -1.1550347332
 O         -0.2507341197       -0.0690947152       -2.2520461698
 N          0.8438631793       -1.0555298771       -0.4998867863
 C          2.1671411932       -1.0772547521       -0.9069218588
 C          3.1150124853       -1.5759413100       -0.0090450255
 C          4.4487016949       -1.6248545497       -0.3619098748
 C          4.8664540308       -1.1769888067       -1.6220935235
 C          3.9127769921       -0.6824842206       -2.5130564097
 C          2.5799631881       -0.6318240503       -2.1639792117
 C          6.2279286651       -1.2152084256       -2.0047582947
 N          7.3219216261       -1.2328144566       -2.3430079374
 C          5.4741828597       -2.1580765781        0.6029287655
 F          4.9304642648       -2.5525418820        1.7646559900
 F          6.4033414803       -1.2410478498        0.9156421774
 F          6.1292729687       -3.2223299170        0.1139980200
 O         -1.2044735930       -1.0480836201        0.9933062573
 H         -1.6964880287       -2.8823417522       -0.8514739854
 H         -2.4284668687       -1.7961899207       -2.0457001828
 H         -3.2523700352       -2.1070497945       -0.5109934790
 H         -1.8930329455        1.3127618100        0.0493040229
 H         -2.5787348832        0.7365493630       -1.4976766071
 H         -3.3707463553        1.8045995397        2.6957692419
 H         -3.9528658884        4.1544324040        3.3592646108
 H         -6.2148325339        4.5928297001       -0.2368776054
 H         -5.6192156460        2.2369108686       -0.8843189254
 H          0.6442578558       -1.3987890148        0.4355014664
 H          2.8031807156       -1.9232942386        0.9645887683
 H          4.2326807750       -0.3378011355       -3.4843513478
 H          1.8483747583       -0.2471811447       -2.8550802427
 H         -2.0403044090       -1.0958315397        1.4958381752
  43
  -89.945426639999994        2.7783313638434734E-005 !
 C         -2.1909791991       -1.9652195655       -1.0023142013
 C         -1.5331116647       -0.9604942307       -0.0457641000
 C         -2.1631079856        0.4257699092       -0.2083012486
 S         -3.9582738261        0.3570270093        0.1366058905
 O         -4.6795698992        0.0757055612       -1.0699207153
 O         -4.1537531772       -0.5431280597        1.2534571005
 C         -4.3495117942        2.0236681019        0.6757317732
 C         -4.7726348225        2.9487099564       -0.2606289928
 C         -5.0519845094        4.2429526283        0.1410530662
 C         -4.8952598254        4.5682340107        1.4794683979
 C         -4.4759828414        3.6452143148        2.4249742620
 C         -4.1993105193        2.3546624367        2.0097644409
 F         -5.1626142583        5.8218605781        1.8759905212
 C         -0.0428173299       -0.8631201321       -0.4475577649
 O          0.3153806583       -0.2385469988       -1.4177575099
 N          0.7541527921       -1.5785827147        0.3859874550
 C          2.1248751025       -1.7658406397        0.3381216561
 C          2.9163473667       -1.2393954913       -0.6847911301
 C          4.2795588242       -1.4649374587       -0.6796931474
 C          4.8819145415       -2.2161923418        0.3374811569
 C          4.0820402263       -2.7400428169        1.3548005442
 C          2.7232536257       -2.5170917120        1.3534606864
 C          6.2763478737       -2.4544756151        0.3593315506
 N          7.4004129367       -2.6681903950        0.4084957167
 C          5.1479398869       -0.9019623118       -1.7741224630
 F          5.8021686645       -1.8641994280       -2.4458895439
 F          6.0838202990       -0.0646589328       -1.2949901071
 F          4.4550958115       -0.2100408645       -2.6858789438
 O         -1.6093511974       -1.3934354755        1.2925749648
 H         -2.0172855948       -1.6663275926       -2.0322786383
 H         -3.2620992070       -2.0042362648       -0.8214173840
 H         -1.7672259882       -2.9544759260       -0.8410523789
 H         -1.7417619837        1.1216236741        0.5147531375
 H         -2.0283748194        0.7970973610       -1.2192897423
 H         -4.8936695505        2.6372852862       -1.2857467026
 H         -5.3881923867        4.9924164548       -0.5572794014
 H         -4.3767424518        3.9416685597        3.4568650597
 H         -3.8873853067        1.5953864082        2.7092942336
 H          0.2627303492       -1.9881612309        1.1752195305
 H          2.4593807748       -0.6593969905       -1.4704067541
 H          4.5425600884       -3.3199590254        2.1398274687
 H          2.1103786976       -2.9246383569        2.1437672391
 H         -2.5507172446       -1.3572331276        1.5499051772
  43
  -89.945426549999993        2.7780667750095227E-005 !
 C         -2.1879073077       -1.9608874351       -1.0069367884
 C         -1.5316799765       -0.9569227569       -0.0484289547
 C         -2.1624911500        0.4290476227       -0.2100676642
 S         -3.9578932314        0.3587008989        0.1333357623
 O         -4.6781716267        0.0795240924       -1.0743008778
 O         -4.1537846139       -0.5439982447        1.2480875008
 C         -4.3509306186        2.0237579821        0.6760755577
 C         -4.7905644390        2.9462810086       -0.2550927375
 C         -5.0719804083        4.2390855342        0.1498328343
 C         -4.9004273294        4.5655106456        1.4861302652
 C         -4.4644909790        3.6449574923        2.4265432550
 C         -4.1861080718        2.3558084222        2.0081612682
 F         -5.1697729192        5.8177218317        1.8858176669
 C         -0.0409348161       -0.8586420387       -0.4483150487
 O          0.3187042550       -0.2307039805       -1.4158049387
 N          0.7546235524       -1.5778865177        0.3833527598
 C          2.1250098584       -1.7674844184        0.3353834221
 C          2.9184048432       -1.2358493892       -0.6833461143
 C          4.2810564863       -1.4647252993       -0.6789535665
 C          4.8809159567       -2.2247921242        0.3331653349
 C          4.0791695989       -2.7532923171        1.3466246646
 C          2.7209910067       -2.5267536375        1.3461677369
 C          6.2744844759       -2.4679937429        0.3533433026
 N          7.3980090906       -2.6848411580        0.4015939171
 C          5.1514953241       -0.8964306587       -1.7689893990
 F          5.7997693199       -1.8560996339       -2.4502019605
 F          6.0924276626       -0.0687330040       -1.2831850534
 F          4.4616120857       -0.1923309632       -2.6736479618
 O         -1.6090910470       -1.3915811100        1.2892872811
 H         -3.2592111594       -2.0006650336       -0.8272715583
 H         -1.7638464244       -2.9501209109       -0.8463374229
 H         -2.0132574086       -1.6607275872       -2.0363748215
 H         -1.7420592867        1.1245239542        0.5138514948
 H         -2.0273996294        0.8014435243       -1.2206141892
 H         -4.9221368002        2.6338979989       -1.2786263397
 H         -5.4209199322        4.9865402195       -0.5443926702
 H         -4.3540339371        3.9422191961        3.4570647256
 H         -3.8616175356        1.5984964513        2.7041426049
 H          0.2620515807       -1.9901335311        1.1704687996
 H          2.4633266663       -0.6493780513       -1.4652449939
 H          4.5377654588       -3.3398229728        2.1278502788
 H          2.1066791756       -2.9379235519        2.1334732921
 H         -2.5508414219       -1.3565762279        1.5454741296
  43
  -89.945426530000006        2.7780079809499780E-005 !
 C         -2.1779613752       -2.1172801932       -0.6658012001
 C         -1.5212517180       -0.9735437334        0.1202548024
 C         -2.1712487596        0.3657092051       -0.2386753211
 S         -3.9607761972        0.3301105355        0.1387800429
 O         -4.6938434105       -0.1370899306       -1.0011597089
 O         -4.1302607150       -0.3941638101        1.3807746745
 C         -4.3664591515        2.0544993067        0.4273146090
 C         -4.1968636652        2.5854181234        1.6926965078
 C         -4.4843791313        3.9207425880        1.9134333316
 C         -4.9340179666        4.6850231370        0.8478455632
 C         -5.1104631487        4.1589604225       -0.4225202138
 C         -4.8198299986        2.8221117068       -0.6294224847
 F         -5.2121107479        5.9810958214        1.0555301074
 C         -0.0374396688       -0.9209357990       -0.3126665037
 O          0.3008296880       -0.4428327458       -1.3694021200
 N          0.7786346800       -1.4973396743        0.6058244421
 C          2.1507911662       -1.6758763779        0.5664669032
 C          2.9237118038       -1.2923153387       -0.5314338594
 C          4.2893984055       -1.5016438488       -0.5129619824
 C          4.9125298883       -2.0956211877        0.5919083967
 C          4.1312216505       -2.4767569014        1.6843496003
 C          2.7701105264       -2.2689551550        1.6701164815
 C          6.3094451766       -2.3170925122        0.6273661667
 N          7.4364069951       -2.5109854472        0.6909020087
 C          5.1379064997       -1.0914190152       -1.6879337831
 F          4.4272353899       -0.5352681203       -2.6757334157
 F          5.7885043871       -2.1344451732       -2.2302791369
 F          6.0751946227       -0.1917600596       -1.3436979008
 O         -1.5750429171       -1.2021711306        1.5092161149
 H         -2.0210544800       -1.9741528340       -1.7312765344
 H         -3.2461501447       -2.1403887547       -0.4658331584
 H         -1.7395852929       -3.0665937778       -0.3644093625
 H         -1.7496374045        1.1666152108        0.3657292717
 H         -2.0543013572        0.5827176020       -1.2957161963
 H         -3.8611238768        1.9446059376        2.4925907820
 H         -4.3705599946        4.3712283348        2.8863855842
 H         -5.4699744665        4.7901089779       -1.2192614959
 H         -4.9547153469        2.3576167570       -1.5930323179
 H          0.3020845915       -1.7919086937        1.4533191044
 H          2.4505752112       -0.8343839643       -1.3851725251
 H          4.6078089985       -2.9351411666        2.5372231556
 H          2.1716480718       -2.5656158594        2.5187191309
 H         -2.5134301688       -1.1377120152        1.7718520168
  43
  -89.945426510000004        2.7779491880929592E-005 !
 C         -2.1875334355       -2.0742692874       -0.7522619201
 C         -1.5192438474       -0.9759975285        0.0870379937
 C         -2.1736097906        0.3810088776       -0.1874075897
 S         -3.9578428503        0.3232507517        0.2120371537
 O         -4.7066400350       -0.0773954526       -0.9428988052
 O         -4.1107244292       -0.4716572878        1.4122944289
 C         -4.3587481583        2.0279048040        0.6056582792
 C         -4.8219170818        2.8567077214       -0.3993632801
 C         -5.1092932843        4.1791065173       -0.1110137036
 C         -4.9198736484        4.6292035907        1.1863831588
 C         -4.4602970713        3.8032378860        2.2004436050
 C         -4.1760697100        2.4832034543        1.8983906931
 F         -5.1948683788        5.9108163196        1.4729743142
 C         -0.0416957422       -0.8991556838       -0.3633240932
 O          0.2816076955       -0.3643801673       -1.3973368288
 N          0.7872693883       -1.5237900950        0.5110351056
 C          2.1585397023       -1.7001242233        0.4420727167
 C          2.9150890002       -1.2622406840       -0.6468739156
 C          4.2806613238       -1.4726974865       -0.6597285229
 C          4.9199198425       -2.1212554815        0.4044903061
 C          4.1548807138       -2.5565559665        1.4881750281
 C          2.7939183738       -2.3480106584        1.5050320373
 C          6.3170554882       -2.3441240056        0.4077755528
 N          7.4447802646       -2.5404396934        0.4447260150
 C          5.1116127630       -1.0046894747       -1.8256057477
 F          6.0535193787       -0.1218532388       -1.4517001820
 F          4.3862469354       -0.4018600037       -2.7745690476
 F          5.7545478819       -2.0193143489       -2.4276625426
 O         -1.5536797605       -1.2817436109        1.4617071077
 H         -2.0455351272       -1.8718086029       -1.8101747071
 H         -3.2528024657       -2.1088642158       -0.5388265133
 H         -1.7453004299       -3.0387262080       -0.5104907695
 H         -1.7434588132        1.1469501031        0.4551150949
 H         -2.0712790409        0.6569881351       -1.2321550796
 H         -4.9668386143        2.4500464317       -1.3873490241
 H         -5.4759896565        4.8563439954       -0.8655203395
 H         -4.3366046072        4.1954296479        3.1971473601
 H         -3.8328354547        1.7961921914        2.6556132553
 H          0.3228817733       -1.8632553528        1.3484340365
 H          2.4295628152       -0.7618396425       -1.4692360648
 H          4.6439229686       -3.0570149977        2.3097708790
 H          2.2080626014       -2.6868224676        2.3466187065
 H         -2.4884431341       -1.2333666543        1.7402509323
  43
  -89.945426420000004        2.7776846356547498E-005 !
 C         -2.1745474486       -2.1555937450       -0.5547130178
 C         -1.5115032149       -0.9830773771        0.1819965200
 C         -2.1781558469        0.3397659662       -0.2063022714
 S         -3.9599260065        0.3036546931        0.2061740747
 O         -4.7107354151       -0.2059370783       -0.9036521954
 O         -4.1001533902       -0.3806272013        1.4742052142
 C         -4.3732904051        2.0337425379        0.4456139802
 C         -4.1891309631        2.6061642734        1.6906827966
 C         -4.4824531689        3.9460871979        1.8726006351
 C         -4.9523547291        4.6728671296        0.7896712314
 C         -5.1433628113        4.1051221915       -0.4604713442
 C         -4.8468195501        2.7641376034       -0.6285358379
 F         -5.2360979085        5.9731978131        0.9596555538
 C         -0.0368209485       -0.9337238671       -0.2814500408
 O          0.2764319713       -0.4906125138       -1.3609227550
 N          0.8023470045       -1.4696011792        0.6407454246
 C          2.1752229234       -1.6365152292        0.5808147493
 C          2.9220384620       -1.2906229204       -0.5472586661
 C          4.2899626838       -1.4855666123       -0.5480353669
 C          4.9413013285       -2.0272018210        0.5674096690
 C          4.1859016361       -2.3715091654        1.6898825373
 C          2.8225885647       -2.1781875266        1.6947331986
 C          6.3411336687       -2.2319348341        0.5839392172
 N          7.4713365849       -2.4102623720        0.6328696397
 C          5.1104344027       -1.1154113380       -1.7557601624
 F          6.0403082186       -0.1882820834       -1.4689546950
 F          4.3734199794       -0.6133241284       -2.7531691820
 F          5.7664993319       -2.1718422606       -2.2644139717
 O         -1.5368938443       -1.1678601049        1.5782678646
 H         -2.0392314043       -2.0449682486       -1.6269929471
 H         -3.2384669011       -2.1799103591       -0.3333395868
 H         -1.7231316504       -3.0917912252       -0.2322996425
 H         -1.7513058903        1.1620905483        0.3647804390
 H         -2.0827060267        0.5243558416       -1.2716413453
 H         -3.8375958761        1.9935066233        2.5057049811
 H         -4.3578703969        4.4283491997        2.8288618646
 H         -5.5185634696        4.7080138043       -1.2717283327
 H         -4.9926661834        2.2680344699       -1.5746381385
 H          0.3452072696       -1.7375414911        1.5075575441
 H          2.4272182864       -0.8724533839       -1.4090539766
 H          4.6842955585       -2.7894364837        2.5510432142
 H          2.2443116027       -2.4458264569        2.5666726520
 H         -2.4704702235       -1.1013897073        1.8569954489
  43
  -89.945426280000007        2.7772731597253642E-005 !
 C         -2.1973380915       -1.9686091164       -1.0069082871
 C         -1.5371810201       -0.9645007939       -0.0513312555
 C         -2.1654387983        0.4225269946       -0.2141295550
 S         -3.9600552511        0.3575097990        0.1344356895
 O         -4.6846318048        0.0799073738       -1.0709751003
 O         -4.1556440865       -0.5439116359        1.2502664061
 C         -4.3455987037        2.0242260386        0.6773903665
 C         -4.7871459858        2.9472741711       -0.2523349209
 C         -5.0615852578        4.2415489236        0.1526981434
 C         -4.8811504956        4.5689031752        1.4875887239
 C         -4.4431831056        3.6478580604        2.4265759614
 C         -4.1719359715        2.3572224330        2.0081258764
 F         -5.1433707877        5.8225998313        1.8872897357
 C         -0.0469394867       -0.8687732898       -0.4538030724
 O          0.3115374127       -0.2445165334       -1.4241161087
 N          0.7496594318       -1.5847237967        0.3796784811
 C          2.1205206542       -1.7712232363        0.3329030419
 C          2.9134253876       -1.2389113599       -0.6858528694
 C          4.2768075025       -1.4633701719       -0.6794112975
 C          4.8778418598       -2.2197804567        0.3347237581
 C          4.0765467830       -2.7494097627        1.3479329222
 C          2.7176601075       -2.5271311415        1.3455170580
 C          6.2722459840       -2.4579093051        0.3573569780
 N          7.3965626891       -2.6698987465        0.4080953305
 C          5.1468215966       -0.8933610400       -1.7688931981
 F          5.8016529106       -1.8512135774       -2.4462987002
 F          6.0823190825       -0.0596307233       -1.2828109182
 F          4.4554422323       -0.1949524475       -2.6768118184
 O         -1.6129439889       -1.3967166652        1.2872670858
 H         -1.7760515819       -2.9587351501       -0.8445509176
 H         -2.0228260183       -1.6712405991       -2.0371791881
 H         -3.2685705880       -2.0047750413       -0.8260071013
 H         -1.7413202735        1.1187162475        0.5069591383
 H         -2.0324036732        0.7923567195       -1.2258897266
 H         -4.9258016742        2.6341236213       -1.2746954333
 H         -5.4118276189        4.9894455919       -0.5403875511
 H         -4.3255477143        3.9459448198        3.4560599386
 H         -3.8460291502        1.5995985960        2.7031060372
 H          0.2578021509       -1.9952716096        1.1681283676
 H          2.4574174947       -0.6552384246       -1.4693049511
 H          4.5360378182       -3.3333466877        2.1305740644
 H          2.1036832378       -2.9391531548        2.1326421048
 H         -2.5541600582       -1.3594815212        1.5451346183
  43
  -89.945426260000005        2.7772143824198601E-005 !
 C         -2.1829009801       -2.0372542272       -0.8788698640
 C         -1.5300139784       -0.9709054027        0.0121567352
 C         -2.1661447358        0.3993333985       -0.2383290890
 S         -3.9608754663        0.3453818733        0.1111953311
 O         -4.6815013206       -0.0150268303       -1.0745279635
 O         -4.1524192603       -0.4827508886        1.2831098876
 C         -4.3584797166        2.0413524524        0.5435775551
 C         -4.1915785475        2.4614483236        1.8503137228
 C         -4.4725313772        3.7747901312        2.1829404046
 C         -4.9132327531        4.6297743150        1.1846337098
 C         -5.0869452602        4.2149833187       -0.1266364454
 C         -4.8026996475        2.8989564929       -0.4456564420
 F         -5.1849776415        5.9050514740        1.5010105722
 C         -0.0398125112       -0.8922233183       -0.3940709320
 O          0.3168649684       -0.3258665862       -1.3999076060
 N          0.7590297029       -1.5536300548        0.4812924161
 C          2.1305194864       -1.7380131940        0.4459452928
 C          2.9223375839       -1.2627373915       -0.6014560964
 C          4.2863962402       -1.4822435352       -0.5816182607
 C          4.8891753178       -2.1773727564        0.4744570437
 C          4.0890022821       -2.6501169872        1.5162749392
 C          2.7294694269       -2.4323506598        1.5007008251
 C          6.2842632955       -2.4099770079        0.5109628373
 N          7.4091509223       -2.6157518087        0.5738671431
 C          5.1552659290       -0.9730069780       -1.7016737173
 F          5.8122943241       -1.9662911224       -2.3236649969
 F          6.0888529806       -0.1109743156       -1.2636779772
 F          4.4624407569       -0.3287317459       -2.6477207317
 O         -1.6049636271       -1.3185344638        1.3752224591
 H         -2.0096204401       -1.8039776044       -1.9257218364
 H         -3.2540097439       -2.0690184580       -0.6964349396
 H         -1.7553033134       -3.0124791891       -0.6546085545
 H         -1.7474747456        1.1419470484        0.4382494518
 H         -2.0334300871        0.7057076748       -1.2711154950
 H         -3.8630636518        1.7529112461        2.5941260141
 H         -4.3604404091        4.1400614285        3.1911789640
 H         -5.4397498933        4.9137579456       -0.8680059965
 H         -4.9364641012        2.5188032734       -1.4457042992
 H          0.2682558517       -1.9181702566        1.2926871845
 H          2.4649747858       -0.7264756208       -1.4173367931
 H          4.5498516968       -3.1867178090        2.3313300408
 H          2.1163619889       -2.8002027355        2.3100677696
 H         -2.5465415579       -1.2697088371        1.6297672986
  43
  -89.945426229999995        2.7771262187731099E-005 !
 C         -2.1949786939       -2.0488598120       -0.8242984367
 C         -1.5302368686       -0.9719153739        0.0449049573
 C         -2.1691876923        0.3954843310       -0.2139036027
 S         -3.9594550801        0.3461238294        0.1585399853
 O         -4.6946022352       -0.0277025693       -1.0140286572
 O         -4.1366531374       -0.4682204182        1.3422939004
 C         -4.3508909342        2.0472997300        0.5758793577
 C         -4.7808015481        2.9002746006       -0.4237086729
 C         -5.0594563186        4.2204025020       -0.1170466197
 C         -4.8951884281        4.6438286586        1.1927090741
 C         -4.4691833935        3.7935406675        2.2012934323
 C         -4.1932574637        2.4760636679        1.8808859528
 F         -5.1618055022        5.9231123906        1.4970869861
 C         -0.0456099046       -0.8985424822       -0.3821611748
 O          0.2969561801       -0.3476346993       -1.4014134893
 N          0.7656860841       -1.5451136654        0.4928049813
 C          2.1368931703       -1.7281149602        0.4420878371
 C          2.9132475110       -1.2724017580       -0.6253937096
 C          4.2778413966       -1.4893856206       -0.6202347722
 C          4.8965115541       -2.1623543674        0.4409792469
 C          4.1117180829       -2.6157620013        1.5028886256
 C          2.7516583929       -2.4007221757        1.5018020447
 C          6.2924411938       -2.3917648246        0.4627706118
 N          7.4185938462       -2.5942543360        0.5141892096
 C          5.1300699407       -1.0015278809       -1.7623797188
 F          4.4227886835       -0.3784824631       -2.7119376600
 F          5.7809044691       -2.0060734119       -2.3727064905
 F          6.0674938676       -0.1286399139       -1.3551845964
 O         -1.5874055537       -1.3026219806        1.4130235112
 H         -2.0354347530       -1.8283906469       -1.8760956969
 H         -3.2635824808       -2.0780913185       -0.6273844488
 H         -1.7645749928       -3.0213919463       -0.5937848904
 H         -1.7421761882        1.1458103903        0.4488405774
 H         -2.0490455170        0.6896293964       -1.2517791183
 H         -4.9075486712        2.5140092510       -1.4223139457
 H         -5.4006721020        4.9159757230       -0.8668047873
 H         -4.3642185963        4.1654974882        3.2078477463
 H         -3.8755180589        1.7708517848        2.6324802867
 H          0.2863158671       -1.8969956048        1.3165178957
 H          2.4436626624       -0.7529872386       -1.4452108583
 H          4.5848531391       -3.1352040667        2.3220039977
 H          2.1505568615       -2.7532027270        2.3268581614
 H         -2.5256235109       -1.2509086424        1.6790019593
  43
  -89.945425189999995        2.7740716096479364E-005 !
 C         -2.1871711093       -2.1229723481       -0.6680141881
 C         -1.5269977198       -0.9811451894        0.1178351257
 C         -2.1734167802        0.3600083729       -0.2406474942
 S         -3.9628686062        0.3298049984        0.1375114787
 O         -4.6977457617       -0.1338123645       -1.0027005965
 O         -4.1345153309       -0.3948184980        1.3789798702
 C         -4.3611451483        2.0556926428        0.4272697276
 C         -4.2112063817        2.5795661115        1.6980138454
 C         -4.4913668114        3.9163876174        1.9193041868
 C         -4.9136121267        4.6892526084        0.8487439660
 C         -5.0702005103        4.1703052795       -0.4271791849
 C         -4.7874345777        2.8318654160       -0.6345342241
 F         -5.1841767722        5.9868651601        1.0568118115
 C         -0.0433083484       -0.9310927354       -0.3158401929
 O          0.2943974614       -0.4571019866       -1.3746315258
 N          0.7733517058       -1.5035910036        0.6045261826
 C          2.1459806074       -1.6788910106        0.5663809816
 C          2.9183734083       -1.2973302749       -0.5325884039
 C          4.2847565720       -1.5018023620       -0.5122760419
 C          4.9091671542       -2.0888133171        0.5955950228
 C          4.1282901782       -2.4686892607        1.6887893824
 C          2.7664754076       -2.2656558545        1.6727374968
 C          6.3070587988       -2.3036837255        0.6336179877
 N          7.4349433786       -2.4912530518        0.6995425929
 C          5.1327568777       -1.0926049627       -1.6879712360
 F          4.4201015676       -0.5479345988       -2.6807215878
 F          5.7925305078       -2.1338438304       -2.2224631157
 F          6.0623624723       -0.1836517882       -1.3471332775
 O         -1.5807961293       -1.2096987886        1.5068002633
 H         -3.2554681832       -2.1427070429       -0.4682840474
 H         -1.7518266567       -3.0735405160       -0.3662478767
 H         -2.0295206169       -1.9806455382       -1.7334778800
 H         -1.7494718699        1.1596453721        0.3638641197
 H         -2.0560828000        0.5768376702       -1.2977034291
 H         -3.8959737997        1.9321560563        2.5009227691
 H         -4.3924399277        4.3615364587        2.8963343493
 H         -5.4086812961        4.8081449868       -1.2278073156
 H         -4.9083645226        2.3729799717       -1.6027468348
 H          0.2971362937       -1.7960262426        1.4529427240
 H          2.4443325939       -0.8444670495       -1.3885111166
 H          4.6058443457       -2.9219188746        2.5438702298
 H          2.1684193299       -2.5609610584        2.5220959874
 H         -2.5189319821       -1.1431478031        1.7697368424
  43
  -89.945285909999996        2.3939165741059649E-005 !
 C         -1.9777528948        0.2924086789       -1.2875242462
 C         -1.2905875637       -0.0222558831        0.0488668521
 C         -1.9555094087        0.7316070529        1.2019856240
 S         -3.7159816804        0.2684254016        1.3907534044
 O         -3.8927588823       -1.0639180040        0.8542199253
 O         -4.0736349254        0.4834624076        2.7620346671
 C         -4.6617767630        1.4178665915        0.3821148648
 C         -4.6092549339        2.7653301964        0.6890321034
 C         -5.3439732351        3.6639236815       -0.0636892647
 C         -6.1209265407        3.1774009711       -1.1038960550
 C         -6.1936924228        1.8273445219       -1.4065507658
 C         -5.4514982167        0.9401869699       -0.6466263305
 F         -6.8326669719        4.0449333224       -1.8390605727
 C          0.1643077852        0.4948627383       -0.0551067251
 O          0.4026048514        1.6777568088       -0.1438968746
 N          1.0709342719       -0.5108606106       -0.0518748009
 C          2.4512361623       -0.4414989649       -0.1462058098
 C          3.1662389262       -1.6412982646       -0.1008820887
 C          4.5435308171       -1.6332078127       -0.1942404170
 C          5.2383899913       -0.4246594709       -0.3346642484
 C          4.5159893795        0.7685515697       -0.3787432981
 C          3.1403052088        0.7643037669       -0.2864983939
 C          6.6495056272       -0.3916850875       -0.4324394774
 N          7.7902649148       -0.3321939864       -0.5145307693
 C          5.3194302687       -2.9228356041       -0.1474759803
 F          4.5250166818       -3.9956068522       -0.0128547308
 F          6.1813899803       -2.9613122432        0.8803636875
 F          6.0375547054       -3.1246636880       -1.2634129186
 O         -1.2710111341       -1.4054670726        0.2984524287
 H         -1.9661496842        1.3625185545       -1.4747178242
 H         -3.0014295750       -0.0692934053       -1.2696823133
 H         -1.4462019887       -0.2112353306       -2.0925613527
 H         -1.4941777238        0.4671574707        2.1525205747
 H         -1.8991160265        1.8053715439        1.0515949780
 H         -4.0126833959        3.1003081822        1.5225573557
 H         -5.3284443855        4.7217432097        0.1442367362
 H         -6.8221779862        1.4908426441       -2.2153325844
 H         -5.4857489402       -0.1220225188       -0.8322263693
 H          0.6617070616       -1.4351640024        0.0559992640
 H          2.6397975686       -2.5777081367        0.0077793876
 H          5.0496951152        1.7002128571       -0.4868157468
 H          2.5875671378        1.6884531489       -0.3211395839
 H         -2.1951380111       -1.6806232520        0.4496440687
  43
  -89.945285859999998        2.3937899159557576E-005 !
 C         -1.9224998762        0.5581948341       -1.2897540104
 C         -1.2919201593        0.0125128507       -0.0006919735
 C         -1.9763736288        0.5943760319        1.2374973607
 S         -3.7544085740        0.1645379603        1.2958640015
 O         -3.9486191955       -1.0583456415        0.5468141273
 O         -4.1539176490        0.1690257804        2.6724308049
 C         -4.6321665692        1.4909192471        0.4572316753
 C         -5.3966718915        1.2106652588       -0.6595085279
 C         -6.0865544241        2.2320674296       -1.2889488088
 C         -5.9884530867        3.5128450883       -0.7697949308
 C         -5.2370653077        3.8003531959        0.3594355585
 C         -4.5545887795        2.7691014771        0.9796043689
 F         -6.6494414929        4.5098866695       -1.3769649116
 C          0.1793137411        0.4918282737        0.0243800862
 O          0.4527604785        1.6655370160        0.1317800269
 N          1.0575450170       -0.5308400805       -0.1033555507
 C          2.4417266410       -0.4925361918       -0.1415653730
 C          3.1218999070       -1.7074468967       -0.2607261368
 C          4.5013528529       -1.7296968295       -0.3075109023
 C          5.2335342373       -0.5371296014       -0.2359279399
 C          4.5456043338        0.6713244495       -0.1168947920
 C          3.1678863207        0.6974527702       -0.0703206572
 C          6.6473800589       -0.5352730423       -0.2819855681
 N          7.7916968612       -0.5010564304       -0.3174616857
 C          5.2398303419       -3.0355227135       -0.4371285459
 F          4.4122652395       -4.0899359324       -0.4953342587
 F          6.0630957566       -3.2598176363        0.5986291958
 F          5.9916766454       -3.0860949017       -1.5479601058
 O         -1.3190481073       -1.3926756866        0.0246436430
 H         -1.8751009018        1.6435089000       -1.3025716001
 H         -2.9556368462        0.2317653965       -1.3614036738
 H         -1.3766678239        0.1721462153       -2.1484251996
 H         -1.5563007367        0.1671200664        2.1470483991
 H         -1.8856469177        1.6759922600        1.2628938397
 H         -5.4526675296        0.1938218456       -1.0155955485
 H         -6.6940547573        2.0505244122       -2.1609237463
 H         -5.2006879871        4.8099132288        0.7361600271
 H         -3.9798298675        2.9461286946        1.8746945935
 H          0.6196961018       -1.4467917076       -0.1559765282
 H          2.5666857329       -2.6318338237       -0.3159660691
 H          5.1079773279        1.5906786106       -0.0617707245
 H          2.6419947432        1.6332756960        0.0215605821
 H         -2.2551667961       -1.6580565673        0.1010022069
  43
  -89.945285760000004        2.3935366197588034E-005 !
 C         -2.0392387412        0.1425162076       -1.2269348438
 C         -1.2875448174       -0.0165812663        0.1022120768
 C         -1.8993312129        0.8667838947        1.1910882159
 S         -3.6466467366        0.4308410895        1.5175055395
 O         -3.8441185036       -0.9538364206        1.1461506198
 O         -3.9376920889        0.8019044617        2.8710883024
 C         -4.6450004833        1.4590368343        0.4316384446
 C         -4.5840786401        2.8325660084        0.5811246756
 C         -5.3579934481        3.6406984894       -0.2324122513
 C         -6.1813834892        3.0400756532       -1.1724520657
 C         -6.2623761603        1.6644809309       -1.3163752832
 C         -5.4807346773        0.8685092556       -0.4973158442
 F         -6.9315484979        3.8192898900       -1.9660092011
 C          0.1587112230        0.4827779681       -0.1300925936
 O          0.3873299064        1.6463248323       -0.3705006208
 N          1.0691114632       -0.5161831720       -0.0481318913
 C          2.4433666240       -0.4599715291       -0.2131144376
 C          3.1654289464       -1.6458119808       -0.0542437292
 C          4.5370246980       -1.6502814806       -0.2104648484
 C          5.2190210872       -0.4685332193       -0.5290401351
 C          4.4896615663        0.7109142829       -0.6855413447
 C          3.1196161454        0.7191080668       -0.5307531411
 C          6.6240566964       -0.4489692452       -0.6944640574
 N          7.7595662531       -0.4012144937       -0.8352837408
 C          5.3203893331       -2.9251125371       -0.0416111454
 F          6.2288240349       -2.8377996241        0.9422696866
 F          5.9874430642       -3.2632252530       -1.1562777872
 F          4.5381080385       -3.9724735350        0.2602722054
 O         -1.2506573053       -1.3615768119        0.5091224863
 H         -2.0397835465        1.1836379261       -1.5373979764
 H         -3.0597806837       -0.2119704216       -1.1179308097
 H         -1.5454837366       -0.4525669214       -1.9926738896
 H         -1.3915345570        0.7139278934        2.1424332114
 H         -1.8552000739        1.9157714552        0.9146208003
 H         -3.9499576244        3.2592523570        1.3418479401
 H         -5.3375530081        4.7152459787       -0.1464844283
 H         -6.9271508271        1.2390404698       -2.0508313800
 H         -5.5187215369       -0.2078496521       -0.5598271440
 H          0.6693717204       -1.4205633096        0.1880053855
 H          2.6489388803       -2.5614932058        0.1918745938
 H          5.0134527191        1.6219241840       -0.9309439658
 H          2.5614731614        1.6325586266       -0.6526328898
 H         -2.1654956146       -1.6160183384        0.7347391357
  43
  -89.945285690000006        2.3933593283612443E-005 !
 C         -1.9832529803        0.2911040862       -1.2912836211
 C         -1.2908553026       -0.0219480416        0.0427180955
 C         -1.9507960699        0.7339191910        1.1974598820
 S         -3.7105644055        0.2713860400        1.3944254916
 O         -3.8896815360       -1.0621376616        0.8616225115
 O         -4.0624920035        0.4895199458        2.7667027716
 C         -4.6606229849        1.4185068345        0.3871688141
 C         -4.6058974108        2.7668521869        0.6897550073
 C         -5.3441335590        3.6635085213       -0.0618495811
 C         -6.1267574018        3.1742090783       -1.0964913914
 C         -6.2017074490        1.8232780123       -1.3946784264
 C         -5.4559359496        0.9380890086       -0.6359739151
 F         -6.8420143568        4.0398498729       -1.8304883364
 C          0.1638359537        0.4945901584       -0.0671499503
 O          0.4018261954        1.6769987005       -0.1629918704
 N          1.0706318727       -0.5109436019       -0.0591947581
 C          2.4508423053       -0.4419101742       -0.1549695862
 C          3.1662557957       -1.6410870624       -0.1004593655
 C          4.5435053289       -1.6332994382       -0.1944880551
 C          5.2379118033       -0.4256969309       -0.3449591213
 C          4.5150876041        0.7668763533       -0.3983453595
 C          3.1394550322        0.7629459487       -0.3052594986
 C          6.6490312134       -0.3930335836       -0.4434378352
 N          7.7896767022       -0.3338970175       -0.5266169223
 C          5.3198714879       -2.9222287520       -0.1373916101
 F          4.5258641042       -3.9941286101        0.0062562948
 F          6.1820662097       -2.9519373198        0.8905529957
 F          6.0378260478       -3.1329958256       -1.2517730797
 O         -1.2708343364       -1.4047604331        0.2944180590
 H         -3.0072331905       -0.0694756123       -1.2686285151
 H         -1.4554888565       -0.2144197888       -2.0976299534
 H         -1.9712438147        1.3608935544       -1.4802845394
 H         -1.4856531032        0.4708647540        2.1465304409
 H         -1.8948780665        1.8074373342        1.0451675711
 H         -4.0049392591        3.1041195184        1.5191945976
 H         -5.3270391648        4.7219436277        0.1427826863
 H         -6.8345859824        1.4846240957       -2.1991227855
 H         -5.4914057831       -0.1246447839       -0.8183139720
 H          0.6616168200       -1.4346906983        0.0541772294
 H          2.6401595714       -2.5767727296        0.0158299951
 H          5.0484449591        1.6977887908       -0.5143051118
 H          2.5863896870        1.6865978632       -0.3471332713
 H         -2.1944438091       -1.6793041442        0.4498935724
  43
  -89.945285560000002        2.3930301077328304E-005 !
 C         -1.9246216374        0.5554259227       -1.2929678117
 C         -1.2919725423        0.0119758125       -0.0040157159
 C         -1.9746089197        0.5958695395        1.2342627079
 S         -3.7524259646        0.1654016674        1.2964581116
 O         -3.9480223340       -1.0575576887        0.5479110462
 O         -4.1489228672        0.1698727154        2.6739010724
 C         -4.6321337547        1.4916965556        0.4597867208
 C         -5.3973369382        1.2121045532       -0.6566322942
 C         -6.0885308919        2.2337067064       -1.2843183339
 C         -5.9909960220        3.5139686456       -0.7637812126
 C         -5.2388392884        3.8007962290        0.3651085764
 C         -4.5550358703        2.7693590250        0.9834961634
 F         -6.6533033607        4.5111704092       -1.3692476209
 C          0.1792176221        0.4916126145        0.0179719893
 O          0.4524933141        1.6658045383        0.1203064900
 N          1.0575932256       -0.5314553962       -0.1055220429
 C          2.4417371498       -0.4929732684       -0.1454555412
 C          3.1220829664       -1.7083580634       -0.2585002697
 C          4.5015407505       -1.7304514421       -0.3068961200
 C          5.2332590756       -0.5372551911       -0.2433049789
 C          4.5452912574        0.6716456097       -0.1301042116
 C          3.1676055639        0.6976249463       -0.0818029334
 C          6.6472922518       -0.5351096175       -0.2922667801
 N          7.7914018036       -0.5004666440       -0.3299527632
 C          5.2402536100       -3.0367818985       -0.4298927908
 F          4.4130412826       -4.0919212780       -0.4793738460
 F          6.0660337659       -3.2540246485        0.6053605158
 F          5.9895347105       -3.0941828965       -1.5421391290
 O         -1.3188733502       -1.3931765086        0.0238393744
 H         -1.3804697482        0.1674574281       -2.1518402110
 H         -1.8766669627        1.6406868436       -1.3079346232
 H         -2.9580305144        0.2293752120       -1.3621618008
 H         -1.5527839334        0.1705542959        2.1439000451
 H         -1.8843999946        1.6775828758        1.2573709557
 H         -5.4529371235        0.1956233925       -1.0138076467
 H         -6.6966262670        2.0527112527       -2.1559929629
 H         -5.2029220038        4.8099488947        0.7429641561
 H         -3.9796780723        2.9457224197        1.8783334232
 H          0.6198763600       -1.4477002567       -0.1540208436
 H          2.5670746128       -2.6331960394       -0.3079328564
 H          5.1074034219        1.5914974368       -0.0808966794
 H          2.6415563738        1.6337885895        0.0056112330
 H         -2.2548853775       -1.6585300109        0.1013764165
  43
  -89.945285549999994        2.3930047849255692E-005 !
 C         -2.0420495235        0.1389917638       -1.2283463435
 C         -1.2884294219       -0.0187557612        0.0998338669
 C         -1.8982720669        0.8661526111        1.1885539028
 S         -3.6453407527        0.4314744603        1.5179269581
 O         -3.8444949994       -0.9530955715        1.1471102708
 O         -3.9339332876        0.8029591252        2.8719238211
 C         -4.6443155444        1.4605426562        0.4334750693
 C         -4.5816952084        2.8340135291        0.5829295289
 C         -5.3559041532        3.6430290812       -0.2294279127
 C         -6.1812991604        3.0433372479       -1.1682980357
 C         -6.2639104738        1.6678447739       -1.3122622554
 C         -5.4819752303        0.8709636911       -0.4943545569
 F         -6.9315707293        3.8234155031       -1.9608872117
 C          0.1575552703        0.4801471169       -0.1349378113
 O          0.3857421928        1.6431387428       -0.3784500569
 N          1.0682776759       -0.5183436026       -0.0509674256
 C          2.4425012048       -0.4618713055       -0.2162420812
 C          3.1652605999       -1.6468627370       -0.0543087889
 C          4.5368837158       -1.6508843407       -0.2104127845
 C          5.2181718749       -0.4696204400       -0.5322174698
 C          4.4881285258        0.7089837730       -0.6917493625
 C          3.1180778478        0.7167589796       -0.5370007452
 C          6.6232090342       -0.4495964665       -0.6977758150
 N          7.7587260792       -0.4011622525       -0.8386332376
 C          5.3210393552       -2.9247785011       -0.0383312322
 F          6.2310089956       -2.8337294921        0.9437593528
 F          5.9864603961       -3.2663656016       -1.1529424092
 F          4.5396950462       -3.9714355519        0.2683654354
 O         -1.2513359050       -1.3632447682        0.5083885497
 H         -1.5497391719       -0.4574059983       -1.9939885870
 H         -2.0425444146        1.1796832953       -1.5402391467
 H         -3.0625884674       -0.2148580467       -1.1172951369
 H         -1.3891679161        0.7141170650        2.1393254627
 H         -1.8540389088        1.9147907988        0.9107570293
 H         -3.9461954310        3.2599712326        1.3429090251
 H         -5.3341170241        4.7175541399       -0.1435061058
 H         -6.9301088021        1.2431814270       -2.0458797261
 H         -5.5212653344       -0.2053426232       -0.5568511001
 H          0.6689359629       -1.4223118724        0.1873793733
 H          2.6493179994       -2.5622160009        0.1941401622
 H          5.0114009596        1.6196905222       -0.9393731833
 H          2.5594239185        1.6295698014       -0.6612574570
 H         -2.1660317207       -1.6172744520        0.7349534548
  43
  -89.945285200000001        2.3921186561876079E-005 !
 C         -1.9726615868        0.4340126936       -1.2529328715
 C         -1.2896161369        0.0177317573        0.0575481704
 C         -1.9259842844        0.7198272405        1.2584720329
 S         -3.6989220454        0.2996249809        1.4296878230
 O         -3.9171138228       -0.9945827433        0.8199927479
 O         -4.0453968563        0.4475699330        2.8126596756
 C         -4.6142153566        1.5308272036        0.4918227851
 C         -5.4257005068        1.1331157532       -0.5539026580
 C         -6.1450087975        2.0818399694       -1.2594829876
 C         -6.0277774806        3.4110374287       -0.8866020394
 C         -5.2288076125        3.8173491561        0.1711941215
 C         -4.5174616101        2.8577841727        0.8691517122
 F         -6.7171864612        4.3379711127       -1.5686243843
 C          0.1801044872        0.4956545125       -0.0238363304
 O          0.4544211327        1.6739168313       -0.0425844364
 N          1.0551953552       -0.5357046388       -0.0866847800
 C          2.4365632536       -0.5033176021       -0.1850372118
 C          3.1140223447       -1.7251636262       -0.2157094206
 C          4.4904949431       -1.7540075557       -0.3166376457
 C          5.2220696639       -0.5612309659       -0.3889146792
 C          4.5370183723        0.6541940924       -0.3571991908
 C          3.1622632712        0.6868959598       -0.2570527381
 C          6.6330823293       -0.5660748424       -0.4934849616
 N          7.7747627054       -0.5371947803       -0.5788483149
 C          5.2259321002       -3.0674869223       -0.3519715869
 F          6.0919940060       -3.1935979759        0.6653218789
 F          5.9311250170       -3.2247591683       -1.4832392452
 F          4.3990923438       -4.1212903845       -0.2752049636
 O         -1.3114304041       -1.3780754296        0.2223699748
 H         -1.4600321408       -0.0351117516       -2.0904350221
 H         -1.9294247579        1.5127377549       -1.3745587653
 H         -3.0067720007        0.1028046227       -1.2510620508
 H         -1.4690300127        0.3839266514        2.1883523517
 H         -1.8371528335        1.7985379337        1.1734491103
 H         -5.4940212811        0.0838375093       -0.7952925851
 H         -6.7894726896        1.8082935834       -2.0793560549
 H         -5.1785414764        4.8616760975        0.4344560019
 H         -3.9047031325        3.1297064230        1.7138045852
 H          0.6179265100       -1.4518345818       -0.0322250122
 H          2.5590713190       -2.6496983676       -0.1603215018
 H          5.0990807035        1.5737405097       -0.4122830865
 H          2.6384657843        1.6280754762       -0.2325587398
 H         -2.2426735029       -1.6336256085        0.3643662952
  43
  -89.945284930000000        2.3914352953540765E-005 !
 C         -1.9728697546        0.4197250388       -1.2875568399
 C         -1.2908320614        0.0064635051        0.0242140073
 C         -1.9346035062        0.7039603846        1.2240318348
 S         -3.7048138670        0.2704735839        1.3929816159
 O         -3.9157515428       -1.0200792621        0.7731418858
 O         -4.0509078513        0.4051925850        2.7774280642
 C         -4.6276094677        1.5043297634        0.4662198703
 C         -5.4298225979        1.1134662781       -0.5891704095
 C         -6.1543650469        2.0651403951       -1.2853689604
 C         -6.0518639081        3.3900630664       -0.8934259443
 C         -5.2621903963        3.7892492573        0.1740487838
 C         -4.5452263838        2.8268611510        0.8621986438
 F         -6.7466459066        4.3197791411       -1.5661437551
 C          0.1762275841        0.4934351105       -0.0513822699
 O          0.4426627838        1.6733441355       -0.0777718936
 N          1.0588885428       -0.5322976668       -0.0982293464
 C          2.4408340995       -0.4910652449       -0.1842966092
 C          3.1273053793       -1.7082232982       -0.1943892235
 C          4.5048334892       -1.7282166009       -0.2817410219
 C          5.2285585857       -0.5310685542       -0.3609725556
 C          4.5345147779        0.6796188266       -0.3501201611
 C          3.1586625036        0.7034806483       -0.2632901692
 C          6.6405285302       -0.5268421263       -0.4517443938
 N          7.7826745846       -0.4905446219       -0.5267605139
 C          5.2500663415       -3.0365964968       -0.2938343316
 F          5.9682093778       -3.2021778142       -1.4157131060
 F          4.4300840520       -4.0954516227       -0.2130151106
 F          6.1062824835       -3.1441886302        0.7338744360
 O         -1.3048207633       -1.3895058243        0.1885049842
 H         -1.4573257906       -0.0485170485       -2.1237393384
 H         -1.9323767716        1.4984854495       -1.4097157766
 H         -3.0059845012        0.0855291040       -1.2871208227
 H         -1.4764968938        0.3721099436        2.1547889281
 H         -1.8544635914        1.7833432079        1.1385637172
 H         -5.4874547382        0.0670283912       -0.8451978351
 H         -6.7918435563        1.7970049342       -2.1124664822
 H         -5.2234553159        4.8302151486        0.4521660469
 H         -3.9395477524        3.0923349948        1.7139999029
 H          0.6274051440       -1.4509917519       -0.0406546791
 H          2.5785165403       -2.6360801017       -0.1330589174
 H          5.0904453737        1.6025166253       -0.4109995246
 H          2.6279414322        1.6410298734       -0.2548028066
 H         -2.2352727016       -1.6509416223        0.3245532937
  43
  -89.945284819999998        2.3911569450552663E-005 !
 C         -2.0227314275        0.1586015645       -1.2142130998
 C         -1.2855239188       -0.0104816199        0.1219557700
 C         -1.9108054212        0.8623677737        1.2114133486
 S         -3.6613489180        0.4222639131        1.5127202304
 O         -3.8504175871       -0.9617143592        1.1342874516
 O         -3.9717254074        0.7884175323        2.8633343217
 C         -4.6478630337        1.4509833741        0.4164311648
 C         -4.5895877645        2.8245170762        0.5666905457
 C         -5.3549616206        3.6321356471       -0.2554295246
 C         -6.1673749408        3.0310453440       -1.2046621275
 C         -6.2458690124        1.6553991525       -1.3495341685
 C         -5.4729104678        0.8599781537       -0.5217719283
 F         -6.9090074336        3.8098311865       -2.0066333491
 C          0.1622963860        0.4925133059       -0.0917595903
 O          0.3931195064        1.6601589184       -0.3088131873
 N          1.0711810073       -0.5089752837       -0.0255252395
 C          2.4459549894       -0.4516404197       -0.1855945796
 C          3.1649110637       -1.6428902367       -0.0559086902
 C          4.5367830195       -1.6466076240       -0.2097522299
 C          5.2222124685       -0.4586027857       -0.4960704003
 C          4.4959834733        0.7263016657       -0.6230707775
 C          3.1256294899        0.7337074028       -0.4710247357
 C          6.6276025680       -0.4382429536       -0.6587121292
 N          7.7634864761       -0.3894668101       -0.7966813279
 C          5.3166896834       -2.9274601193       -0.0738294751
 F          6.2246521203       -2.8684291331        0.9125676499
 F          5.9835797422       -3.2379801667       -1.1966595692
 F          4.5313902329       -3.9803131678        0.1998574395
 O         -1.2507578391       -1.3590382863        0.5170341897
 H         -3.0428175086       -0.2015925463       -1.1203645364
 H         -1.5177023322       -0.4266791782       -1.9801765972
 H         -2.0246816942        1.2027200297       -1.5144299711
 H         -1.4142467410        0.7008411694        2.1672626856
 H         -1.8637003249        1.9138970447        0.9453425271
 H         -3.9644438404        3.2517980385        1.3344797147
 H         -5.3361466574        4.7067019543       -0.1692907873
 H         -6.9021388141        1.2294993009       -2.0913434759
 H         -5.5092796198       -0.2164212332       -0.5847492132
 H          0.6694614135       -1.4171968116        0.1917176824
 H          2.6457915398       -2.5634129507        0.1654092684
 H          5.0223920305        1.6421162080       -0.8437401458
 H          2.5699084873        1.6513768943       -0.5702196566
 H         -2.1672233272       -1.6162342673        0.7329305407
  43
  -89.945053029999997        1.8710473306201427E-005 !
 C         -2.6955629446       -1.2809806464       -2.5129134749
 C         -2.6858534037       -1.7311184747       -1.0503889628
 C         -3.0358683449       -0.5604404509       -0.1024358761
 S         -1.7214348125        0.6780006320        0.1421853559
 O         -0.8063569618        0.1924977109        1.1368763613
 O         -1.1545617088        1.0173072433       -1.1469724767
 C         -2.5947170411        2.1078629413        0.7793599984
 C         -3.1798691952        2.9878952512       -0.1125378723
 C         -3.8758887018        4.0810397203        0.3714841180
 C         -3.9632241377        4.2546276065        1.7444281916
 C         -3.3736184397        3.3796622261        2.6438050145
 C         -2.6798208453        2.2904660523        2.1471765082
 F         -4.6402556162        5.3101005183        2.2190497149
 C         -1.3273766902       -2.3420280906       -0.6278949968
 O         -1.3323949434       -3.3991812919       -0.0295459607
 N         -0.2344640731       -1.6451250156       -1.0044507428
 C          1.0789549589       -1.8570012421       -0.5987168990
 C          1.9899870869       -0.8267928536       -0.8421206930
 C          3.3109513691       -0.9674031765       -0.4691196844
 C          3.7509186918       -2.1435360781        0.1538668202
 C          2.8327474795       -3.1661672101        0.3918042846
 C          1.5114335899       -3.0292664978        0.0190657535
 C          5.0999465192       -2.3119529475        0.5453155560
 N          6.1845528852       -2.4801770503        0.8729321285
 C          4.2993118215        0.1392244275       -0.7224399336
 F          4.8511225057        0.6018636340        0.4103054650
 F          3.7472524223        1.1977154065       -1.3324399424
 F          5.3145529522       -0.2571955537       -1.5093226495
 O         -3.6587934830       -2.7262732349       -0.8716039394
 H         -3.7303384349       -1.1339867735       -2.8136483326
 H         -2.2670315438       -2.0567676000       -3.1425053609
 H         -2.1499157251       -0.3528731433       -2.6485469906
 H         -3.9022685498       -0.0293595866       -0.4904674473
 H         -3.2561796773       -0.9469803331        0.8905808789
 H         -3.0667827531        2.8187423842       -1.1715151124
 H         -4.3418610442        4.7936273237       -0.2899560043
 H         -3.4595831826        3.5605191348        3.7031766961
 H         -2.1874896078        1.5881229887        2.8006113478
 H         -0.3915684533       -0.7309983527       -1.4212966917
 H          1.6509776111        0.0869081561       -1.3068868045
 H          3.1697092697       -4.0714109879        0.8732736068
 H          0.8085499397       -3.8218353178        0.2138826574
 H         -3.2369409559       -3.4494237749       -0.3695566103
  43
  -89.945053000000001        1.8709879335931032E-005 !
 C         -2.6690907429       -1.1406668594       -2.6038696921
 C         -2.6861213408       -1.6541586130       -1.1624184410
 C         -3.0389185509       -0.5223562462       -0.1693886905
 S         -1.7167471037        0.6910459578        0.1481162450
 O         -0.8220801511        0.1541742246        1.1349309400
 O         -1.1264148855        1.0794270971       -1.1164428836
 C         -2.5866157684        2.1010565797        0.8324344052
 C         -3.1493329489        3.0240854513       -0.0299522605
 C         -3.8430470155        4.1023040337        0.4895466468
 C         -3.9507329788        4.2179671844        1.8671406177
 C         -3.3835355995        3.2996927484        2.7372808620
 C         -2.6918410408        2.2259524705        2.2053194354
 F         -4.6258526986        5.2586398764        2.3759375295
 C         -1.3403915386       -2.2975812316       -0.7474527804
 O         -1.3650204210       -3.3801613936       -0.1969312764
 N         -0.2350210754       -1.5961666534       -1.0761830214
 C          1.0701290468       -1.8405135716       -0.6621397949
 C          1.9953216107       -0.8106335402       -0.8463887898
 C          3.3093096451       -0.9825564457       -0.4620078620
 C          3.7280412451       -2.1904029281        0.1131079040
 C          2.7959338868       -3.2124739969        0.2918994300
 C          1.4814999140       -3.0441548192       -0.0921117595
 C          5.0695238786       -2.3913956329        0.5149418780
 N          6.1475927526       -2.5867867101        0.8489432132
 C          4.3127965690        0.1231981459       -0.6517163546
 F          5.3342073640       -0.2485539615       -1.4426692672
 F          4.8542808508        0.5275570158        0.5079869220
 F          3.7804003300        1.2145247399       -1.2199002761
 O         -3.6716065521       -2.6457050263       -1.0417373157
 H         -2.1118233462       -0.2136367193       -2.6907383920
 H         -3.6976040470       -0.9692503471       -2.9130284076
 H         -2.2391734108       -1.8929161867       -3.2605037948
 H         -3.8943884932        0.0338378220       -0.5463276662
 H         -3.2776219446       -0.9494203555        0.8025549885
 H         -3.0211166919        2.8990259849       -1.0933277241
 H         -4.2922017155        4.8467930931       -0.1479479765
 H         -3.4848294791        3.4359521178        3.8019604489
 H         -2.2165739597        1.4914792123        2.8356523424
 H         -0.3765750745       -0.6627688093       -1.4541025894
 H          1.6725508497        0.1267360568       -1.2740891234
 H          3.1164593986       -4.1420692279        0.7367887641
 H          0.7676636991       -3.8368601083        0.0569762237
 H         -3.2645037621       -3.3948354614       -0.5663033030
  43
  -89.945052980000000        1.8709483366132463E-005 !
 C         -2.6969061812       -1.3433575022       -2.4796520964
 C         -2.7000711894       -1.7388610523       -1.0013899515
 C         -3.0416687363       -0.5298809559       -0.0995265316
 S         -1.7140975185        0.7014567615        0.1069734858
 O         -0.8100142535        0.2422412442        1.1239547093
 O         -1.1365999151        0.9866949826       -1.1905325669
 C         -2.5739868912        2.1636017697        0.6864582329
 C         -3.1395606320        3.0199449999       -0.2404276360
 C         -3.8252978217        4.1379843889        0.1994140003
 C         -3.9223899831        4.3597722931        1.5647328717
 C         -3.3523162843        3.5087062420        2.4989700489
 C         -2.6685861971        2.3942597864        2.0463769325
 F         -4.5897942944        5.4394244412        1.9966803951
 C         -1.3509200448       -2.3488843959       -0.5487857750
 O         -1.3711866659       -3.3826976228        0.0887336440
 N         -0.2481394493       -1.6789410330       -0.9450287679
 C          1.0605540700       -1.8897562225       -0.5237456281
 C          1.9844832690       -0.8796489604       -0.8005407326
 C          3.3016757380       -1.0205385009       -0.4145340459
 C          3.7249630621       -2.1770939528        0.2549534236
 C          2.7940630935       -3.1798701933        0.5256976399
 C          1.4764187621       -3.0425350300        0.1403570574
 C          5.0698377889       -2.3455926249        0.6603498163
 N          6.1506875689       -2.5134328955        1.0001842528
 C          4.3037818486        0.0647736907       -0.7035769698
 F          3.7669176285        1.1056236288       -1.3560285252
 F          5.3185947873       -0.3721898706       -1.4692624202
 F          4.8548376738        0.5635600223        0.4140892721
 O         -3.6852609266       -2.7156806654       -0.7913671401
 H         -2.1401317067       -0.4270164774       -2.6464608164
 H         -3.7283373765       -1.1961538586       -2.7915519216
 H         -2.2738163353       -2.1466700234       -3.0776171119
 H         -3.8994843599       -0.0034682566       -0.5122052393
 H         -3.2721303660       -0.8767460557        0.9057627671
 H         -3.0196335699        2.8127952445       -1.2918738240
 H         -4.2763499315        4.8331368045       -0.4903168442
 H         -3.4452895964        3.7269077840        3.5506872613
 H         -2.1914239906        1.7084936045        2.7280575115
 H         -0.3926438074       -0.7794710927       -1.3968311289
 H          1.6583392828        0.0195460605       -1.3014021468
 H          3.1181047394       -4.0697798590        1.0432675546
 H          0.7635914551       -3.8193472892        0.3608182229
 H         -3.2744789171       -3.4242371209       -0.2601828529
  43
  -89.945052930000003        1.8708493478439550E-005 !
 C         -2.6665891834       -1.1454260331       -2.6023676824
 C         -2.6856139718       -1.6556220363       -1.1597901214
 C         -3.0400726374       -0.5215438935       -0.1699335870
 S         -1.7176530482        0.6916104992        0.1474244057
 O         -0.8241907528        0.1555237750        1.1357574883
 O         -1.1260500621        1.0782048748       -1.1170578575
 C         -2.5877900910        2.1025886323        0.8294066291
 C         -3.1451473412        3.0276123324       -0.0342960155
 C         -3.8393108765        4.1063824213        0.4834729757
 C         -3.9528898057        4.2205251234        1.8607098133
 C         -3.3911435934        3.3001829777        2.7322123042
 C         -2.6989034012        2.2259452416        2.2019781853
 F         -4.6285473029        5.2616763752        2.3678197923
 C         -1.3403300106       -2.2976629708       -0.7411785750
 O         -1.3656651688       -3.3783071290       -0.1868991196
 N         -0.2345598848       -1.5975359371       -1.0713244767
 C          1.0703266575       -1.8406145863       -0.6557376881
 C          1.9966550013       -0.8130054318       -0.8468880825
 C          3.3105736808       -0.9839082876       -0.4618024261
 C          3.7280183398       -2.1883150891        0.1213535973
 C          2.7947775678       -3.2080587042        0.3072387335
 C          1.4804773890       -3.0408572466       -0.0777077658
 C          5.0693656202       -2.3880986648        0.5241946591
 N          6.1474601800       -2.5822774772        0.8588433155
 C          4.3153326479        0.1193038638       -0.6594846095
 F          5.3360934559       -0.2592288279       -1.4480413511
 F          4.8575729803        0.5311951418        0.4972021368
 F          3.7840933368        1.2072345787       -1.2352366211
 O         -3.6709849945       -2.6471827334       -1.0383791745
 H         -3.6947564761       -0.9755858892       -2.9135483446
 H         -2.2349726842       -1.8987814271       -3.2566219980
 H         -2.1100103219       -0.2180777336       -2.6903606970
 H         -3.8944407979        0.0343371723       -0.5498136478
 H         -3.2810156251       -0.9464422061        0.8023980246
 H         -3.0125320185        2.9035030353       -1.0972383869
 H         -4.2844181461        4.8523913112       -0.1550839478
 H         -3.4969716015        3.4352755342        3.7965991938
 H         -2.2274899788        1.4900471135        2.8335459958
 H         -0.3757153060       -0.6655249456       -1.4527646512
 H          1.6748890935        0.1219356898       -1.2806486465
 H          3.1143509524       -4.1350747554        0.7581672230
 H          0.7658052578       -3.8317799206        0.0767300048
 H         -3.2646771154       -3.3947045937       -0.5597591812
  43
  -89.945052930000003        1.8708493478439550E-005 !
 C         -2.6414433724       -1.2460874281       -2.5892783145
 C         -2.6809416712       -1.6929124225       -1.1262376452
 C         -3.0403718116       -0.5148306698       -0.1910013957
 S         -1.7142079809        0.7031484809        0.0902026679
 O         -0.8358187757        0.2046754350        1.1112126292
 O         -1.1053800962        1.0317298445       -1.1824916218
 C         -2.5826643095        2.1474272329        0.7008819941
 C         -2.7077267290        2.3305944486        2.0655569237
 C         -3.3978346375        3.4313609631        2.5413497145
 C         -3.9433402763        4.3171148921        1.6248571879
 C         -3.8156994559        4.1429453517        0.2551531813
 C         -3.1238671617        3.0381446822       -0.2079822401
 F         -4.6167202070        5.3838028731        2.0791629579
 C         -1.3446943254       -2.3234451736       -0.6635521156
 O         -1.3831028115       -3.3787228226       -0.0631216672
 N         -0.2308608086       -1.6443072842       -1.0101338719
 C          1.0668018133       -1.8745055599       -0.5655004671
 C          1.9996780769       -0.8583111807       -0.7837915510
 C          3.3068271745       -1.0173541564       -0.3715665609
 C          3.7108888860       -2.1985022234        0.2660820855
 C          2.7712490171       -3.2071816652        0.4783171292
 C          1.4636107879       -3.0516950600        0.0666619119
 C          5.0451938639       -2.3858805204        0.6974711835
 N          6.1172221719       -2.5695182690        1.0566288300
 C          4.3183734932        0.0741453461       -0.5975607181
 F          5.3496085972       -0.3384038403       -1.3548300525
 F          4.8445421785        0.5300665810        0.5499979665
 F          3.7997798638        1.1399071294       -1.2240498219
 O         -3.6736980810       -2.6727613821       -0.9738842836
 H         -2.2064354505       -2.0295490425       -3.2047758851
 H         -2.0783055934       -0.3264929698       -2.7106434797
 H         -3.6647299155       -1.0843652000       -2.9202359304
 H         -3.8863215828        0.0291092436       -0.6054368401
 H         -3.2960877983       -0.8956822496        0.7957053456
 H         -2.2486503558        1.6193355466        2.7334005720
 H         -3.5141955857        3.6129048434        3.5976963545
 H         -4.2482809808        4.8638533680       -0.4198109902
 H         -2.9803618598        2.8676440664       -1.2630552673
 H         -0.3619888679       -0.7290128643       -1.4333256609
 H          1.6879698227        0.0592660420       -1.2598925327
 H          3.0804877491       -4.1161488037        0.9712404863
 H          0.7437006632       -3.8334445820        0.2420568096
 H         -3.2777373563       -3.4009507309       -0.4582223679
  43
  -89.945052899999993        1.8707899570738140E-005 !
 C         -2.6647216630       -1.4616825729       -2.4428720307
 C         -2.6917535935       -1.7793201051       -0.9461742555
 C         -3.0427795190       -0.5239005547       -0.1140982164
 S         -1.7141115987        0.7128636836        0.0481165915
 O         -0.8275291844        0.3051325696        1.1017750325
 O         -1.1156394673        0.9278835709       -1.2534206000
 C         -2.5774096778        2.2059998586        0.5363694620
 C         -2.6938637473        2.5073864883        1.8806991229
 C         -3.3802526676        3.6462335102        2.2630887171
 C         -3.9307864828        4.4495616810        1.2763237644
 C         -3.8116911738        4.1567523060       -0.0737948472
 C         -3.1235537257        3.0149724500       -0.4432318147
 F         -4.6005853280        5.5525613639        1.6401951139
 C         -1.3517557760       -2.3686167479       -0.4417982484
 O         -1.3853675619       -3.3677026805        0.2483729050
 N         -0.2407445474       -1.7234974704       -0.8557763639
 C          1.0611355883       -1.9168945552       -0.4060930659
 C          1.9936753333       -0.9271491544       -0.7244920226
 C          3.3050513635       -1.0528199924       -0.3141818746
 C          3.7137958642       -2.1735425754        0.4219784628
 C          2.7743662671       -3.1561544336        0.7340638854
 C          1.4625268193       -3.0340197440        0.3245426115
 C          5.0525128589       -2.3259458849        0.8532838402
 N          6.1282014028       -2.4801577987        1.2153347957
 C          4.3164203330        0.0107380460       -0.6483612527
 F          3.7928363416        1.0182405109       -1.3611674017
 F          5.3374037319       -0.4712448122       -1.3780249634
 F          4.8575226961        0.5652362054        0.4476823857
 O         -3.6834714428       -2.7411378382       -0.7006063207
 H         -2.1022771211       -0.5568154108       -2.6487017193
 H         -3.6907549027       -1.3281966265       -2.7778933317
 H         -2.2353760962       -2.2962752982       -2.9915068892
 H         -3.8923572736       -0.0175029930       -0.5669034147
 H         -3.2897521534       -0.8170572032        0.9042776743
 H         -2.2314713359        1.8562413224        2.6051511409
 H         -3.4901432653        3.9190491017        3.3003273251
 H         -4.2480100582        4.8166726346       -0.8063051485
 H         -2.9870126582        2.7528698830       -1.4803162333
 H         -0.3751338183       -0.8483960168       -1.3559863969
 H          1.6785878580       -0.0547706464       -1.2771702925
 H          3.0871948445       -4.0183984985        1.3028210125
 H          0.7430662634       -3.7949505610        0.5766067692
 H         -3.2832476179       -3.4221855226       -0.1270618464
  43
  -89.945052880000006        1.8707503643119982E-005 !
 C         -2.6644253300       -1.4628291329       -2.4429248509
 C         -2.6917691515       -1.7796338495       -0.9460545704
 C         -3.0433458513       -0.5237946396       -0.1148378847
 S         -1.7145976522        0.7128115979        0.0475888733
 O         -0.8280428813        0.3048767517        1.1011943218
 O         -1.1161443185        0.9278443344       -1.2539537964
 C         -2.5776528015        2.2059773680        0.5362027326
 C         -2.6935508088        2.5071783807        1.8805955676
 C         -3.3795150481        3.6461244741        2.2634349888
 C         -3.9303442542        4.4496803634        1.2770370735
 C         -3.8119410779        4.1569934133       -0.0731516039
 C         -3.1240889436        3.0151698461       -0.4430465292
 F         -4.5997065093        5.5528076577        1.6413373855
 C         -1.3517420523       -2.3684723044       -0.4412366620
 O         -1.3852813983       -3.3670750715        0.2496177841
 N         -0.2407691947       -1.7235243881       -0.8556109888
 C          1.0611495028       -1.9168203664       -0.4059835509
 C          1.9935770221       -0.9269197415       -0.7242278241
 C          3.3050576305       -1.0527027656       -0.3142785905
 C          3.7139860908       -2.1736569367        0.4213982148
 C          2.7746556564       -3.1563795392        0.7334032876
 C          1.4627210188       -3.0341312212        0.3242488748
 C          5.0528222189       -2.3261949162        0.8523069935
 N          6.1285294357       -2.4804119663        1.2143113121
 C          4.3163194220        0.0110054088       -0.6482947488
 F          3.7925198553        1.0189267573       -1.3603417823
 F          5.3369909428       -0.4706391512       -1.3786114802
 F          4.8579040145        0.5648926508        0.4478129023
 O         -3.6832761832       -2.7415789333       -0.7001466787
 H         -2.2345544569       -2.2975501544       -2.9909587503
 H         -2.1022991247       -0.5578435339       -2.6491048351
 H         -3.6904212827       -1.3299483180       -2.7782992303
 H         -3.8925455662       -0.0174977942       -0.5685002980
 H         -3.2910042836       -0.8164262870        0.9035296085
 H         -2.2306175232        1.8560528312        2.6047266979
 H         -3.4887486093        3.9189150113        3.3007514005
 H         -4.2484131742        4.8171241470       -0.8053591231
 H         -2.9880766718        2.7531954044       -1.4802061217
 H         -0.3752121683       -0.8485355144       -1.3559906297
 H          1.6783493880       -0.0543974114       -1.2766081930
 H          3.0876358716       -4.0188029235        1.3018083148
 H          0.7433220487       -3.7951140638        0.5763292021
 H         -3.2830392186       -3.4221529720       -0.1260588355
  43
  -89.945052750000002        1.8704930316151256E-005 !
 C         -2.6625680320       -1.4077483809       -2.4741141086
 C         -2.6774711464       -1.7757887723       -0.9888540277
 C         -3.0378333619       -0.5531269725       -0.1131373379
 S         -1.7220198477        0.6923501397        0.0834875071
 O         -0.8247160640        0.2593181249        1.1177979580
 O         -1.1337554963        0.9580289373       -1.2133193556
 C         -2.5992860517        2.1579970985        0.6270208436
 C         -2.7105447472        2.4125038255        1.9814091107
 C         -3.4079134784        3.5294232269        2.4062304038
 C         -3.9744838440        4.3587671701        1.4505796578
 C         -3.8607941995        4.1130338590        0.0906552020
 C         -3.1614888575        2.9927799001       -0.3213304974
 F         -4.6549778349        5.4406847269        1.8556167117
 C         -1.3280945616       -2.3662209745       -0.5115603421
 O         -1.3466550873       -3.3877419186        0.1455473083
 N         -0.2267382335       -1.6953053033       -0.9100294641
 C          1.0799203397       -1.8887937365       -0.4745268607
 C          2.0004157511       -0.8805428382       -0.7690564498
 C          3.3157598856       -1.0051955666       -0.3713054957
 C          3.7405320271       -2.1431070572        0.3284829212
 C          2.8130159336       -3.1440257309        0.6171188654
 C          1.4973366448       -3.0230856788        0.2197814910
 C          5.0835665627       -2.2946884188        0.7465432207
 N          6.1630173267       -2.4485811034        1.0972850475
 C          4.3143479246        0.0778390611       -0.6804114331
 F          4.8567236538        0.6057168868        0.4280758564
 F          3.7762791297        1.1002743418       -1.3604222603
 F          5.3355065005       -0.3723056228       -1.4298738149
 O         -3.6568193263       -2.7566594182       -0.7705363312
 H         -3.6919727976       -1.2751535236       -2.7989917732
 H         -2.2267274507       -2.2183558875       -3.0527659438
 H         -2.1118201422       -0.4899165196       -2.6523442960
 H         -3.8955580065       -0.0413934172       -0.5440714262
 H         -3.2756889866       -0.8830991810        0.8961083814
 H         -2.2354091318        1.7431689127        2.6806090642
 H         -3.5140553560        3.7659148841        3.4527311620
 H         -4.3097758145        4.7918951223       -0.6164332353
 H         -3.0286863198        2.7673879173       -1.3674628396
 H         -0.3737484663       -0.8059814589       -1.3807091985
 H          1.6730783859        0.0046127848       -1.2935924449
 H          3.1381217643       -4.0194558877        1.1581769269
 H          0.7871339996       -3.7983009667        0.4539179669
 H         -3.2458373460       -3.4516494230       -0.2218738605
  43
  -89.945052750000002        1.8704930316151256E-005 !
 C         -2.6402774986       -1.2392556053       -2.5900576267
 C         -2.6790324029       -1.6906656377       -1.1283930854
 C         -3.0387865917       -0.5158818130       -0.1892130353
 S         -1.7148140978        0.7042092070        0.0932665993
 O         -0.8358208737        0.2065318593        1.1141330436
 O         -1.1059343746        1.0348800805       -1.1788969155
 C         -2.5860184234        2.1466560227        0.7044044931
 C         -2.6992552683        2.3372081804        2.0690631521
 C         -3.3913372842        3.4367512553        2.5448874879
 C         -3.9508839292        4.3137014127        1.6284272930
 C         -3.8352450331        4.1320826016        0.2586024413
 C         -3.1411060168        3.0287579881       -0.2045408485
 F         -4.6263940153        5.3790307499        2.0827469042
 C         -1.3423474453       -2.3222357398       -0.6684288614
 O         -1.3800323178       -3.3804161402       -0.0730423849
 N         -0.2289825412       -1.6405119216       -1.0113148366
 C          1.0690164484       -1.8729345993       -0.5688290785
 C          2.0016022078       -0.8553651773       -0.7819643716
 C          3.3091123370       -1.0166640548       -0.3717735431
 C          3.7139225596       -2.2015152496        0.2585274058
 C          2.7745373070       -3.2114890201        0.4657497501
 C          1.4665153443       -3.0537014293        0.0562248931
 C          5.0486280092       -2.3913829989        0.6873555367
 N          6.1209282461       -2.5770104944        1.0446110425
 C          4.3203412850        0.0763035099       -0.5920459647
 F          5.3512542515       -0.3316910321       -1.3521979422
 F          4.8470142050        0.5256784791        0.5578715812
 F          3.8012246199        1.1455591551       -1.2120961311
 O         -3.6713537086       -2.6713940759       -0.9787672976
 H         -2.0767480727       -0.3195958571       -2.7089750118
 H         -3.6637022193       -1.0760893840       -2.9198817504
 H         -2.2060007488       -2.0210252687       -3.2082144201
 H         -3.8867232564        0.0273246311       -0.6005390764
 H         -3.2918551306       -0.8999069502        0.7969503033
 H         -2.2298201718        1.6324203140        2.7365683694
 H         -3.4987388454        3.6239009601        3.6012050481
 H         -4.2786438120        4.8463008399       -0.4164574160
 H         -3.0067349740        2.8530027403       -1.2599546211
 H         -0.3605307316       -0.7233253424       -1.4303281656
 H          1.6893765517        0.0649139974       -1.2524794197
 H          3.0842980460       -4.1232826617        0.9530924758
 H          0.7468912067       -3.8366116239        0.2275754102
 H         -3.2744967770       -3.4016387016       -0.4666960272
  43
  -89.945052750000002        1.8704930316151256E-005 !
 C         -2.6682141936       -1.3975155270       -2.4793368400
 C         -2.6783637204       -1.7736124993       -0.9960462567
 C         -3.0356355818       -0.5557726175       -0.1124154880
 S         -1.7204757870        0.6902200486        0.0854288173
 O         -0.8199889998        0.2541097372        1.1156719816
 O         -1.1356662057        0.9613031250       -1.2118739545
 C         -2.5970435096        2.1534786269        0.6364097029
 C         -2.6966433050        2.4086723302        1.9915536891
 C         -3.3927952730        3.5242605126        2.4218872471
 C         -3.9699658323        4.3515642602        1.4708285650
 C         -3.8680315312        4.1050835216        0.1100860939
 C         -3.1697416605        2.9862699512       -0.3074315404
 F         -4.6493162634        5.4322006378        1.8811758099
 C         -1.3275904505       -2.3673483768       -0.5269566806
 O         -1.3440744521       -3.3938631966        0.1223854334
 N         -0.2274349491       -1.6929442868       -0.9228518792
 C          1.0799696734       -1.8891568770       -0.4906585956
 C          1.9974279024       -0.8738238486       -0.7698453834
 C          3.3130350378       -1.0005098974       -0.3736876806
 C          3.7412362854       -2.1478234202        0.3084682398
 C          2.8168361184       -3.1560078597        0.5813326128
 C          1.5007389323       -3.0327774110        0.1860748629
 C          5.0846897442       -2.3017712153        0.7242751023
 N          6.1647013558       -2.4580347199        1.0722281829
 C          4.3081587742        0.0905862714       -0.6651404312
 F          4.8491064938        0.6017747768        0.4518375884
 F          3.7668284163        1.1224280962       -1.3281066687
 F          5.3306021511       -0.3440027751       -1.4220230292
 O         -3.6574191911       -2.7552356221       -0.7797637898
 H         -2.1166251053       -0.4796203288       -2.6546013965
 H         -3.6985563680       -1.2616552457       -2.7998682994
 H         -2.2356433931       -2.2056605297       -3.0638558014
 H         -3.8957167132       -0.0427211757       -0.5370209495
 H         -3.2688694231       -0.8911253313        0.8961344007
 H         -2.2137197238        1.7407737190        2.6867890433
 H         -3.4900220434        3.7612466171        3.4691437110
 H         -4.3250610310        4.7823261402       -0.5933883708
 H         -3.0457070047        2.7607541080       -1.3546165105
 H         -0.3757715990       -0.7997096185       -1.3857298704
 H          1.6673569310        0.0181660718       -1.2808983882
 H          3.1447028985       -4.0388871924        1.1084479617
 H          0.7928278841       -3.8135398315        0.4083930679
 H         -3.2443547293       -3.4542573132       -0.2377984811
  43
  -89.945052660000002        1.8703148989501065E-005 !
 C         -2.6706862041       -1.4027927155       -2.4764773369
 C         -2.6794852249       -1.7762333153       -0.9924957052
 C         -3.0356978282       -0.5567697598       -0.1106361164
 S         -1.7200164995        0.6892480259        0.0837224741
 O         -0.8181184903        0.2545054871        1.1133264261
 O         -1.1369977259        0.9583936611       -1.2147782807
 C         -2.5954648749        2.1534166136        0.6341063862
 C         -2.6858906235        2.4146654149        1.9887306423
 C         -3.3807879556        3.5311001570        2.4189159394
 C         -3.9660633869        4.3530630880        1.4682037581
 C         -3.8733176630        4.1005609675        0.1079002515
 C         -3.1761291393        2.9810098111       -0.3094676099
 F         -4.6442634034        5.4344695745        1.8783895499
 C         -1.3283510611       -2.3689645341       -0.5231890382
 O         -1.3443331346       -3.3940854813        0.1283470324
 N         -0.2284799548       -1.6955981357       -0.9217132948
 C          1.0790891442       -1.8901641888       -0.4891818990
 C          1.9961623394       -0.8752711371       -0.7712000446
 C          3.3117362852       -1.0001825464       -0.3743150738
 C          3.7402804139       -2.1452889957        0.3113135296
 C          2.8162734388       -3.1530784394        0.5869568342
 C          1.5002275562       -3.0316451726        0.1909332196
 C          5.0835998166       -2.2972501515        0.7282968691
 N          6.1635149487       -2.4518492021        1.0774131620
 C          4.3063658715        0.0906303565       -0.6684430502
 F          4.8453424636        0.6063730390        0.4474260057
 F          3.7650549746        1.1195619465       -1.3359238517
 F          5.3302108234       -0.3457981309       -1.4223267890
 O         -3.6583846795       -2.7574321939       -0.7735888358
 H         -2.2383775473       -2.2118587504       -3.0599079659
 H         -2.1195010220       -0.4850798253       -2.6538904829
 H         -3.7013241742       -1.2678002471       -2.7964252069
 H         -3.8961519836       -0.0443385313       -0.5352469105
 H         -3.2679617463       -0.8903838748        0.8987201305
 H         -2.1972207793        1.7504528847        2.6834895223
 H         -3.4709963640        3.7726795404        3.4657546120
 H         -4.3363472055        4.7739210968       -0.5953834311
 H         -3.0591651488        2.7510579809       -1.3565056219
 H         -0.3772267546       -0.8035796670       -1.3867533813
 H          1.6657266845        0.0152834328       -1.2845263437
 H          3.1443831232       -4.0342427501        1.1167875704
 H          0.7926275591       -3.8121009505        0.4153397155
 H         -3.2450437161       -3.4552153602       -0.2302557026
  43
  -89.945052640000000        1.8702753162141342E-005 !
 C         -2.6636364080       -1.4631434286       -2.4420817138
 C         -2.6915994480       -1.7793141463       -0.9450980953
 C         -3.0431059710       -0.5229783025       -0.1146408963
 S         -1.7141573112        0.7134997637        0.0473949126
 O         -0.8281802064        0.3062290482        1.1017442052
 O         -1.1150737477        0.9275411746       -1.2540018982
 C         -2.5775683501        2.2069510836        0.5344703784
 C         -2.6981948891        2.5066657199        1.8787918408
 C         -3.3850486707        3.6454650877        2.2604431518
 C         -3.9318727051        4.4504427032        1.2729646163
 C         -3.8086265590        4.1593056449       -0.0771239215
 C         -3.1200486331        3.0175265319       -0.4458258153
 F         -4.6020858866        5.5534398186        1.6361309567
 C         -1.3519695943       -2.3679589122       -0.4389876348
 O         -1.3861216999       -3.3660116998        0.2526544575
 N         -0.2406340318       -1.7237555390       -0.8535286934
 C          1.0610695789       -1.9166996035       -0.4031489875
 C          1.9944160575       -0.9287635079       -0.7248145717
 C          3.3056786004       -1.0540682377       -0.3140215677
 C          3.7134118232       -2.1723855487        0.4263157334
 C          2.7732287707       -3.1532606250        0.7415319250
 C          1.4615838426       -3.0316581332        0.3312656626
 C          5.0518462472       -2.3240599236        0.8588782116
 N          6.1272355869       -2.4776835250        1.2219219320
 C          4.3178813823        0.0075729603       -0.6517721619
 F          3.7960956969        1.0109705101       -1.3716657787
 F          5.3408075799       -0.4783702109       -1.3759603189
 F          4.8560248889        0.5683514155        0.4425559449
 O         -3.6834728242       -2.7408675733       -0.6991464291
 H         -3.6894625419       -1.3301166177       -2.7779260737
 H         -2.2338316076       -2.2982548951       -2.9895491109
 H         -2.1011737813       -0.5584052208       -2.6484597190
 H         -3.8920963842       -0.0167240628       -0.5687207995
 H         -3.2910866268       -0.8150544665        0.9037996215
 H         -2.2384207330        1.8543899646        2.6039021023
 H         -3.4980507341        3.9170503847        3.2976653225
 H         -4.2419872422        4.8205688472       -0.8101566693
 H         -2.9802346964        2.7566694550       -1.4827668327
 H         -0.3746350946       -0.8495548344       -1.3553901913
 H          1.6801779168       -0.0582230361       -1.2808722986
 H          3.0853027985       -4.0136974260        1.3134362506
 H          0.7415616027       -3.7912173269        0.5858172032
 H         -3.2837765788       -3.4210423003       -0.1242061136
  43
  -89.945052419999996        1.8698399614319306E-005 !
 C         -2.6908532343       -1.2868674434       -2.5125604116
 C         -2.6848882034       -1.7328034015       -1.0487041259
 C         -3.0387984261       -0.5595917348       -0.1052903220
 S         -1.7242109919        0.6780051531        0.1421929225
 O         -0.8118471815        0.1920752407        1.1391570415
 O         -1.1543046211        1.0163754254       -1.1458597217
 C         -2.5976116550        2.1087928647        0.7771526945
 C         -3.1706785468        2.9953070819       -0.1161640124
 C         -3.8661015185        4.0895381510        0.3663050846
 C         -3.9649741683        4.2576621872        1.7391562150
 C         -3.3875963829        3.3760693394        2.6400450862
 C         -2.6942753086        2.2858913128        2.1449675869
 F         -4.6415896768        5.3140786021        2.2122733847
 C         -1.3268837584       -2.3413414335       -0.6210948025
 O         -1.3324769225       -3.3962838558       -0.0189040944
 N         -0.2336426750       -1.6455660718       -0.9988294896
 C          1.0796603681       -1.8564816869       -0.5923805804
 C          1.9913196365       -0.8280178724       -0.8407986096
 C          3.3125137229       -0.9681415754       -0.4684609246
 C          3.7521627734       -2.1422434322        0.1585952791
 C          2.8333154086       -3.1630419617        0.4017516849
 C          1.5117288020       -3.0264999209        0.0299072621
 C          5.1015726687       -2.3104627458        0.5487491792
 N          6.1865955711       -2.4785479022        0.8749159654
 C          4.3016188723        0.1364736036       -0.7277596095
 F          4.8582169533        0.6010506695        0.4018054482
 F          3.7490740612        1.1943363545       -1.3384421215
 F          5.3134307909       -0.2634902637       -1.5173089995
 O         -3.6572999859       -2.7284655004       -0.8699108324
 H         -2.1466309742       -0.3580108444       -2.6488426819
 H         -3.7249417002       -1.1427238226       -2.8170114387
 H         -2.2587519889       -2.0634309775       -3.1387541699
 H         -3.9027755465       -0.0286440574       -0.4988440206
 H         -3.2642725029       -0.9434903260        0.8875589098
 H         -3.0491926466        2.8297543730       -1.1747971076
 H         -4.3230842216        4.8069226456       -0.2962388223
 H         -3.4824364568        3.5526889259        3.6993912515
 H         -2.2107567006        1.5788395128        2.7998524238
 H         -0.3904872534       -0.7326626299       -1.4184284926
 H          1.6525931581        0.0841157988       -1.3088321508
 H          3.1699247615       -4.0664839169        0.8868436931
 H          0.8083880038       -3.8177292121        0.2285213399
 H         -3.2363351915       -3.4494897874       -0.3640841739
  43
  -89.944959879999999        1.6954149081621140E-005 !
 C         -3.0856324965       -3.2311683277       -0.6636050725
 C         -3.2210640982       -2.1677523779        0.4282670579
 C         -3.8896544681       -0.8908267103       -0.1265616534
 S         -2.8686074949        0.1899517949       -1.1832945717
 O         -2.0435325179       -0.6446068777       -2.0357222790
 O         -3.7522733402        1.1091704430       -1.8345086200
 C         -1.7225962773        1.1320526627       -0.1494117290
 C         -0.6176384272        1.6448693771       -0.8086528157
 C          0.3410257579        2.3552435264       -0.1084340484
 C          0.1653455036        2.5233051687        1.2552819485
 C         -0.9481475760        2.0376430775        1.9212791601
 C         -1.9075213323        1.3427855001        1.2041707197
 F          1.1042577478        3.1726633824        1.9579827813
 C         -1.8650869952       -1.7976169783        1.0671040912
 O         -1.7987140838       -1.6820965552        2.2758741426
 N         -0.8414154007       -1.6361218998        0.1999320020
 C          0.4305142886       -1.1469146453        0.4780449609
 C          1.2351164814       -0.8260126241       -0.6175473440
 C          2.4865342685       -0.2786648858       -0.4215030406
 C          2.9644875915       -0.0449881928        0.8748688177
 C          2.1644385157       -0.3942616551        1.9622045035
 C          0.9116614533       -0.9397481241        1.7701606898
 C          4.2325435170        0.5430532916        1.0988681596
 N          5.2516137272        1.0211270009        1.3078687670
 C          3.3315717527        0.1264667286       -1.6000846590
 F          4.5566767717       -0.4121952659       -1.5736361339
 F          3.4928385426        1.4619671535       -1.6512400024
 F          2.7845659092       -0.2269648491       -2.7708977745
 O         -4.0410113467       -2.6648205210        1.4554002110
 H         -4.0710212123       -3.6547265254       -0.8418788274
 H         -2.4278507703       -4.0305522275       -0.3315072154
 H         -2.7134788565       -2.8030856359       -1.5889895329
 H         -4.7325121912       -1.1662555910       -0.7592507883
 H         -4.2652366084       -0.2702790018        0.6835765249
 H         -0.5216773913        1.4758767185       -1.8693725056
 H          1.2111962018        2.7656826106       -0.5958080930
 H         -1.0534828715        2.2030529388        2.9812832512
 H         -2.7787244622        0.9685068424        1.7159639037
 H         -1.0822700638       -1.6448419929       -0.7929313155
 H          0.8658861538       -0.9945023208       -1.6179204921
 H          2.5345324925       -0.2233621638        2.9612632563
 H          0.2979500632       -1.1963219021        2.6171699016
 H         -3.6063089093       -2.4599671831        2.3027440782
  43
  -89.944959859999997        1.6953790269526395E-005 !
 C         -3.1245765209       -3.2600569447       -0.1458836685
 C         -3.3088351840       -1.9703909257        0.6567497038
 C         -3.8936691452       -0.8488576769       -0.2295478078
 S         -2.7631233486       -0.0561584263       -1.4215020161
 O         -1.9021537037       -1.0762021716       -1.9890958426
 O         -3.5664630920        0.6972992368       -2.3362908402
 C         -1.6698914728        1.0862780416       -0.5442815784
 C         -1.9484888104        1.6065657083        0.7057040406
 C         -1.0247925822        2.4371095014        1.3176208997
 C          0.1490431144        2.7423886921        0.6481421764
 C          0.4204105046        2.2614519758       -0.6222494996
 C         -0.5042969397        1.4197037978       -1.2141651846
 F          1.0520242364        3.5256140161        1.2549234813
 C         -1.9939617583       -1.4795192068        1.3001252310
 O         -2.0151388911       -1.0880126593        2.4512707883
 N         -0.9034896119       -1.5362149077        0.5041145755
 C          0.3580370892       -1.0109225993        0.7631118376
 C          1.2516868998       -0.9614405169       -0.3090870319
 C          2.5004563782       -0.3978434216       -0.1448313717
 C          2.8865832452        0.1237747488        1.0971106936
 C          1.9973235574        0.0445125437        2.1682487525
 C          0.7468687091       -0.5161511455        2.0072902895
 C          4.1511592190        0.7329383599        1.2806939426
 N          5.1650886738        1.2353219533        1.4546968811
 C          3.4428957050       -0.2856614456       -1.3137940861
 F          4.6464375567       -0.8168397166       -1.0667549622
 F          3.6461794641        0.9999446502       -1.6575104546
 F          2.9752325040       -0.8944177579       -2.4118074807
 O         -4.2190186121       -2.2045814178        1.7013214097
 H         -2.6702695691       -3.0634952216       -1.1118287734
 H         -4.1064258744       -3.7007037164       -0.3007793789
 H         -2.5191072253       -3.9688347557        0.4136132657
 H         -4.6946415512       -1.2530469922       -0.8473097829
 H         -4.3097661323       -0.0523366692        0.3827319020
 H         -2.8659603990        1.3710485896        1.2193065540
 H         -1.2036299276        2.8444978696        2.2995165200
 H          1.3362112034        2.5377121716       -1.1204213903
 H         -0.3347873018        1.0086545710       -2.1966151906
 H         -1.0691566718       -1.7718074063       -0.4761720552
 H          0.9535810244       -1.3523074057       -1.2702452018
 H          2.2964386102        0.4374101364        3.1276475316
 H          0.0641619560       -0.5631003933        2.8389173793
 H         -3.8428778940       -1.8148114981        2.5109688131
  43
  -89.944959699999998        1.6950920046386047E-005 !
 C         -3.0947040789       -3.2368264553       -0.5873883211
 C         -3.2482009559       -2.1218658494        0.4493073700
 C         -3.8925745164       -0.8681855266       -0.1818028658
 S         -2.8367884790        0.1549493900       -1.2614486173
 O         -1.9975182104       -0.7242602554       -2.0529719791
 O         -3.6963665569        1.0488937798       -1.9769194664
 C         -1.7094824408        1.1362944490       -0.2437059396
 C         -0.5838993855        1.6098480022       -0.8974016775
 C          0.3626159743        2.3451624667       -0.2064381118
 C          0.1537442360        2.5779190058        1.1430345397
 C         -0.9803458222        2.1318829937        1.8019699697
 C         -1.9270548538        1.4114017992        1.0933750788
 F          1.0796247354        3.2531158758        1.8386381379
 C         -1.9051396347       -1.7312688986        1.1030952855
 O         -1.8671227541       -1.5595277633        2.3064050172
 N         -0.8593907440       -1.6182699649        0.2547724551
 C          0.4094797665       -1.1257676375        0.5408539845
 C          1.2430664370       -0.8627054977       -0.5484792571
 C          2.4940754028       -0.3161790193       -0.3476138357
 C          2.9425206997       -0.0255527653        0.9477914461
 C          2.1135726974       -0.3177166488        2.0303420692
 C          0.8611057076       -0.8621288648        1.8333196881
 C          4.2101818102        0.5619520471        1.1752709416
 N          5.2279007505        1.0419698155        1.3863381770
 C          3.3705799651        0.0272422966       -1.5228487456
 F          2.8489593435       -0.3765956909       -2.6889299247
 F          4.5901472878       -0.5184532336       -1.4414998289
 F          3.5442048126        1.3576958696       -1.6322341541
 O         -4.0970526067       -2.5639128825        1.4781468060
 H         -2.4518662140       -4.0241654859       -0.2015642797
 H         -2.6963121816       -2.8556834844       -1.5223242633
 H         -4.0788103763       -3.6615002983       -0.7701129621
 H         -4.7210985122       -1.1678193852       -0.8223644991
 H         -4.2838882557       -0.2077238629        0.5883633862
 H         -0.4623764494        1.3907261793       -1.9462607607
 H          1.2484917073        2.7258243175       -0.6896926096
 H         -1.1114093025        2.3476346827        2.8500045885
 H         -2.8141756932        1.0677616207        1.5993138058
 H         -1.0760497030       -1.6722452851       -0.7422565894
 H          0.8966150596       -1.0750899351       -1.5486424702
 H          2.4609494804       -0.1031037496        3.0291460635
 H          0.2251364267       -1.0745816297        2.6761145225
 H         -3.6813670516       -2.3225159146        2.3254182048
  43
  -89.944959600000004        1.6949126403780218E-005 !
 C         -3.1516308295       -3.2187752822        0.3514387175
 C         -3.3471727748       -1.8034115922        0.8991243313
 C         -3.8928885812       -0.8599489407       -0.1951841453
 S         -2.7183864025       -0.3033735322       -1.4750659470
 O         -1.8507478449       -1.4136863182       -1.8190917542
 O         -3.4856613458        0.2736230513       -2.5372513944
 C         -1.6410054813        0.9754137896       -0.7867266761
 C         -1.9515498109        1.7153274667        0.3388391780
 C         -1.0384517776        2.6394482382        0.8181327125
 C          0.1575847237        2.8132232631        0.1409525299
 C          0.4618331334        2.1084199466       -1.0120925241
 C         -0.4529314364        1.1768746498       -1.4696924463
 F          1.0496201051        3.6900449556        0.6230704568
 C         -2.0476256334       -1.2095120655        1.4841936197
 O         -2.0999324462       -0.6151549806        2.5438704690
 N         -0.9340001235       -1.4148595003        0.7468622415
 C          0.3242981524       -0.8567568162        0.9461584318
 C          1.2502677382       -1.0058960210       -0.0887461668
 C          2.4990796913       -0.4273460517        0.0101175178
 C          2.8528390172        0.3085878912        1.1489257626
 C          1.9309745033        0.4283210411        2.1882724845
 C          0.6803858599       -0.1467374015        2.0920436190
 C          4.1172568462        0.9353628256        1.2589965227
 N          5.1308761067        1.4555967189        1.3714218983
 C          3.4772627251       -0.5323781779       -1.1297862159
 F          3.7043089577        0.6691871179       -1.6927420317
 F          3.0362810902       -1.3266938790       -2.1144410305
 F          4.6671882442       -1.0163538139       -0.7535563142
 O         -4.2914838033       -1.8387866131        1.9390464660
 H         -2.6656609326       -3.2039576175       -0.6189721830
 H         -4.1327454774       -3.6758130429        0.2479011347
 H         -2.5711127542       -3.8162470075        1.0500232571
 H         -4.6786581960       -1.3665554260       -0.7541827901
 H         -4.3194070714        0.0368677014        0.2478533738
 H         -2.8859924857        1.5806675903        0.8581494073
 H         -1.2423949582        3.2191494731        1.7038053181
 H          1.3947068485        2.2857449243       -1.5234634344
 H         -0.2580728344        0.5931145035       -2.3552267279
 H         -1.0720400944       -1.8241186198       -0.1790882389
 H          0.9773095216       -1.5628362967       -0.9723703884
 H          2.2049954155        0.9869296483        3.0698421204
 H         -0.0275583893       -0.0393155884        2.8965157040
 H         -3.9361709925       -1.3099112933        2.6759266127
  43
  -89.944959499999996        1.6947332950711806E-005 !
 C         -3.1515985747       -3.2196005641        0.3454731680
 C         -3.3467394503       -1.8058948656        0.8975185556
 C         -3.8935118979       -0.8590812735       -0.1933719187
 S         -2.7206580275       -0.3002911540       -1.4738383702
 O         -1.8536386464       -1.4100262613       -1.8212414787
 O         -3.4892709550        0.2790254411       -2.5337989023
 C         -1.6417322184        0.9767945493       -0.7847327515
 C         -1.9495522171        1.7145470126        0.3429758107
 C         -1.0350127284        2.6373143797        0.8221400473
 C          0.1596620262        2.8119287345        0.1428035352
 C          0.4611261441        2.1093761759       -1.0123170361
 C         -0.4550246890        1.1791296730       -1.4698180605
 F          1.0531213480        3.6873615779        0.6248160970
 C         -2.0468886271       -1.2133212046        1.4832158290
 O         -2.0985673731       -0.6220471018        2.5446163514
 N         -0.9338229511       -1.4158416299        0.7442945292
 C          0.3243796802       -0.8578022158        0.9443433232
 C          1.2503490509       -1.0051613760       -0.0908069559
 C          2.4991175155       -0.4265938143        0.0090040188
 C          2.8527588999        0.3077519913        1.1488748416
 C          1.9308475264        0.4258227975        2.1883519025
 C          0.6803347284       -0.1492746440        2.0912508910
 C          4.1171685381        0.9344427900        1.2601084363
 N          5.1303257958        1.4552636108        1.3733580186
 C          3.4774469413       -0.5300871536       -1.1308785625
 F          3.7034804157        0.6719879413       -1.6931349413
 F          3.0372427976       -1.3242778956       -2.1159882711
 F          4.6677557193       -1.0131673968       -0.7547808208
 O         -4.2901341552       -1.8446113678        1.9381303020
 H         -4.1328249581       -3.6763314402        0.2415209436
 H         -2.5703489045       -3.8190239832        1.0417961979
 H         -2.6666455349       -3.2017882470       -0.6253871623
 H         -4.6806198907       -1.3635860208       -0.7524383805
 H         -4.3184745236        0.0370339158        0.2526696414
 H         -2.8827150173        1.5788111587        0.8643270122
 H         -1.2366337885        3.2151089160        1.7095724916
 H          1.3928855435        2.2874892122       -1.5254349098
 H         -0.2623251080        0.5970090008       -2.3569203113
 H         -1.0722679599       -1.8230928696       -0.1824700483
 H          0.9773797366       -1.5605566180       -0.9754167694
 H          2.2049182929        0.9827920153        3.0709309959
 H         -0.0274602574       -0.0434633440        2.8960416804
 H         -3.9341967126       -1.3179900539        2.6763333617
  43
  -89.944959440000005        1.6946256970217596E-005 !
 C         -3.0934979511       -3.2380120546       -0.5796315466
 C         -3.2484797886       -2.1196854244        0.4531189581
 C         -3.8926658245       -0.8683233651       -0.1829173582
 S         -2.8354014041        0.1514926265       -1.2643343731
 O         -1.9955755869       -0.7301965723       -2.0524195516
 O         -3.6940881229        1.0436350748       -1.9831430144
 C         -1.7092745277        1.1356009318       -0.2479034359
 C         -0.5808333349        1.6042183678       -0.9002375081
 C          0.3642110490        2.3421097506       -0.2100208443
 C          0.1510283746        2.5823958812        1.1374313612
 C         -0.9859339470        2.1414389411        1.7948241632
 C         -1.9310666885        1.4182354295        1.0869069179
 F          1.0756149163        3.2598063240        1.8326401221
 C         -1.9064793966       -1.7259272921        1.1071078039
 O         -1.8706687696       -1.5467499553        2.3093899463
 N         -0.8592734391       -1.6177834186        0.2599522063
 C          0.4089531537       -1.1230013253        0.5450346688
 C          1.2449356177       -0.8683065145       -0.5444512203
 C          2.4952672413       -0.3197293744       -0.3450839228
 C          2.9407498234       -0.0186984251        0.9489472795
 C          2.1093029206       -0.3021573687        2.0318706242
 C          0.8575135923       -0.8487305671        1.8363649636
 C          4.2070508653        0.5725755885        1.1743816437
 N          5.2235298766        1.0560600860        1.3836301747
 C          3.3744962372        0.0144903470       -1.5209094362
 F          2.8555152292       -0.3982851399       -2.6850253080
 F          4.5937447795       -0.5308365393       -1.4323969073
 F          3.5486931476        1.3440034318       -1.6400759967
 O         -4.0980110109       -2.5587927266        1.4826425127
 H         -4.0772376905       -3.6639709354       -0.7612764776
 H         -2.4502417720       -4.0235547212       -0.1908813072
 H         -2.6950944543       -2.8597235187       -1.5157257971
 H         -4.7203660130       -1.1700097497       -0.8235939069
 H         -4.2850017932       -0.2055272013        0.5846885065
 H         -0.4559342196        1.3792808131       -1.9474679486
 H          1.2520960464        2.7192182937       -0.6923572770
 H         -1.1202125617        2.3628847961        2.8412475009
 H         -2.8204102016        1.0785472337        1.5915940051
 H         -1.0744806209       -1.6770177268       -0.7370159873
 H          0.9005831826       -1.0880799645       -1.5437476191
 H          2.4541902338       -0.0789904639        3.0296542781
 H          0.2194254028       -1.0542097694        2.6793888177
 H         -3.6844265644       -2.3121958917        2.3294168781
  43
  -89.944959380000000        1.6945181057782165E-005 !
 C         -3.1529668909       -3.2194682249        0.3448047884
 C         -3.3474484925       -1.8056796479        0.8968421111
 C         -3.8930873489       -0.8585203699       -0.1943064618
 S         -2.7193632655       -0.3002667631       -1.4741790768
 O         -1.8525746643       -1.4103681183       -1.8210660051
 O         -3.4872133493        0.2791294063       -2.5346394863
 C         -1.6403340221        0.9765306790       -0.7847197197
 C         -1.9477416462        1.7134559624        0.3436470375
 C         -1.0330322159        2.6358817368        0.8231515251
 C          0.1613862061        2.8110192099        0.1434636643
 C          0.4624638951        2.1092184625       -1.0122451582
 C         -0.4538632238        1.1793181098       -1.4700687166
 F          1.0550036095        3.6861190367        0.6257731785
 C         -2.0474113112       -1.2143039650        1.4833165630
 O         -2.0991070976       -0.6232627433        2.5448573738
 N         -0.9342256532       -1.4171540486        0.7446284628
 C          0.3239712455       -0.8591669004        0.9448725130
 C          1.2495656795       -1.0051076966       -0.0908027933
 C          2.4981407151       -0.4261802209        0.0090686260
 C          2.8520094026        0.3069674102        1.1496195050
 C          1.9305625303        0.4233742437        2.1897096175
 C          0.6802510538       -0.1520931437        2.0925175054
 C          4.1161953473        0.9341973551        1.2608613859
 N          5.1291231944        1.4556635933        1.3739851929
 C          3.4759643803       -0.5279393586       -1.1314332561
 F          3.7013841074        0.6749110362       -1.6923293393
 F          3.0355284563       -1.3209713068       -2.1173675016
 F          4.6666083519       -1.0111678541       -0.7565716719
 O         -4.2913714341       -1.8437186736        1.9370044702
 H         -2.5727540673       -3.8194081081        1.0415145579
 H         -2.6671461334       -3.2020619121       -0.6256239039
 H         -4.1344141864       -3.6755071861        0.2400634283
 H         -4.6803199553       -1.3624702887       -0.7536685201
 H         -4.3176772496        0.0377819616        0.2516240380
 H         -2.8809260504        1.5777840779        0.8649686435
 H         -1.2345320617        3.2133381401        1.7108476084
 H          1.3941361882        2.2875206108       -1.5254458158
 H         -0.2615369732        0.5979386717       -2.3577029968
 H         -1.0726839776       -1.8238894331       -0.1823852262
 H          0.9765658205       -1.5599557436       -0.9757211391
 H          2.2046386119        0.9798454753        3.0726068765
 H         -0.0274085013       -0.0471229301        2.8975647550
 H         -3.9353313518       -1.3175547628        2.6754805892
  43
  -89.944959339999997        1.6944463820775135E-005 !
 C         -3.0800747878       -3.2964311911       -0.1927927337
 C         -3.2438427584       -2.0600003345        0.6936347420
 C         -3.8886563488       -0.8989513166       -0.0947820602
 S         -2.8285434592       -0.0147258013       -1.2870350877
 O         -1.9814929776       -0.9828614196       -1.9571126634
 O         -3.6859341783        0.7796300148       -2.1139645668
 C         -1.7115573096        1.0903575688       -0.3921259553
 C         -0.5808283718        1.4806462727       -1.0904239651
 C          0.3577087974        2.3007000561       -0.4898702087
 C          0.1358249907        2.7021178124        0.8172062767
 C         -1.0036108780        2.3399610158        1.5170733437
 C         -1.9421663903        1.5323387215        0.8971647150
 F          1.0541010621        3.4626251043        1.4299565037
 C         -1.9063271219       -1.5842920181        1.3007296844
 O         -1.8769827934       -1.2592674062        2.4722063820
 N         -0.8552391998       -1.5771576347        0.4515518224
 C          0.4101222179       -1.0468662606        0.6796959506
 C          1.2501958842       -0.9234094017       -0.4292354053
 C          2.4979205297       -0.3501814777       -0.2928815197
 C          2.9365600451        0.1075560784        0.9567945708
 C          2.1011775551       -0.0453912165        2.0627522255
 C          0.8519649474       -0.6161473191        1.9299704254
 C          4.2002860250        0.7258670171        1.1140905437
 N          5.2144478175        1.2346005886        1.2674872177
 C          3.3812278353       -0.1579029514       -1.4970789795
 F          3.5496597221        1.1479696761       -1.7773910204
 F          2.8697342333       -0.7128062620       -2.6040229047
 F          4.6026116275       -0.6818015704       -1.3374820444
 O         -4.0974199576       -2.3719990915        1.7652932536
 H         -2.4366667068       -4.0258822557        0.2929170704
 H         -2.6776638318       -3.0348197002       -1.1663118498
 H         -4.0615872658       -3.7449777617       -0.3255671989
 H         -4.7112021819       -1.2806234689       -0.6983620019
 H         -4.2883082939       -0.1487751977        0.5834171988
 H         -0.4489785579        1.1305494076       -2.1018244241
 H          1.2471353139        2.6199747251       -1.0096568574
 H         -1.1449323376        2.6866260725        2.5279704192
 H         -2.8334452370        1.2531755541        1.4344603190
 H         -1.0653789420       -1.7583514839       -0.5317187420
 H          0.9110897666       -1.2644315316       -1.3957694970
 H          2.4411440118        0.2979541908        3.0275401087
 H          0.2111410882       -0.7208796278        2.7892065680
 H         -3.6885230958       -2.0222965679        2.5773331584
  43
  -89.944693790000002        1.2793503743842229E-005 !
 C         -4.0141008634       -2.0570627672       -2.4901620985
 C         -3.1561744186       -1.7776158058       -1.2489766438
 C         -3.9267645431       -0.8914547735       -0.2669282009
 S         -2.9258964595       -0.3716505620        1.1862316155
 O         -3.8634010446        0.1494381912        2.1403251047
 O         -2.1053437151       -1.4813504825        1.5980066223
 C         -1.8095739552        0.9591485628        0.7034149203
 C         -2.1524414610        1.9305913525       -0.2172952416
 C         -1.2403922283        2.9258318884       -0.5241489364
 C         -0.0156823900        2.9341211317        0.1231461889
 C          0.3218031092        1.9901187691        1.0788383228
 C         -0.5914754545        0.9901419099        1.3603906055
 F          0.8735092616        3.8892978229       -0.1890604635
 C         -1.9128007627       -0.9604677698       -1.6577309830
 O         -1.9979635023       -0.0336476735       -2.4334733512
 N         -0.7960388668       -1.3585313605       -1.0079244719
 C          0.4443651975       -0.7428116039       -0.9959895900
 C          1.3506508234       -1.1362492351       -0.0084228998
 C          2.5829480481       -0.5219647478        0.0834855982
 C          2.9402772423        0.4938427888       -0.8136941854
 C          2.0374455679        0.8630009348       -1.8109092532
 C          0.8039865071        0.2533938644       -1.9044859111
 C          4.1890134672        1.1532770222       -0.7215493848
 N          5.1903804076        1.7059343473       -0.6656188159
 C          3.5448058107       -0.9021946596        1.1778049354
 F          4.7456938929       -1.2682972300        0.7095651859
 F          3.1008982742       -1.9234189429        1.9228633169
 F          3.7535788138        0.1198501650        2.0275632076
 O         -2.7207061147       -2.9748042948       -0.6530922382
 H         -3.5140392918       -2.8008866259       -3.1053659578
 H         -4.1314921332       -1.1450957130       -3.0676063300
 H         -4.9922678534       -2.4351272932       -2.2030133433
 H         -4.2850305567        0.0119991078       -0.7499769438
 H         -4.7716233400       -1.4209518742        0.1735998218
 H         -3.1133570655        1.9202730316       -0.7041387264
 H         -1.4669231705        3.6876907373       -1.2522809686
 H          1.2756603757        2.0437618648        1.5793122926
 H         -0.3762664050        0.2240632887        2.0880730974
 H         -0.9481301821       -2.1024661698       -0.3288128652
 H          1.0750589443       -1.9104058920        0.6915230377
 H          2.3145008215        1.6400307006       -2.5065149270
 H          0.1068180391        0.5516270457       -2.6692453666
 H         -3.4283368645       -3.3626066184       -0.1268190921
  43
  -89.944631880000003        1.1982229526801718E-005 !
 C         -1.7352203957        1.1355116351       -1.2100494842
 C         -1.4655391678       -0.2246806408       -0.5516823526
 C         -2.1512401073       -0.3228324942        0.8122731920
 S         -3.9684265056       -0.1569791937        0.6722374491
 O         -4.3582640581       -0.5682284799       -0.6599202854
 O         -4.5523362026       -0.8585082684        1.7775074658
 C         -4.3424092823        1.5913326775        0.8604548849
 C         -4.0131814683        2.2137755653        2.0507713259
 C         -4.3084813369        3.5544361132        2.2219838678
 C         -4.9371753621        4.2317065470        1.1883213742
 C         -5.2866398695        3.6114349566       -0.0002846721
 C         -4.9828432777        2.2705599004       -0.1586643512
 F         -5.2235818759        5.5324200260        1.3479860111
 C          0.0589502520       -0.3152574625       -0.3001535536
 O          0.6083004778        0.4255294569        0.4815580599
 N          0.6498647766       -1.2754766435       -1.0514507061
 C          1.9842656517       -1.6409678221       -1.1119804484
 C          2.9715514311       -0.9904446069       -0.3694379578
 C          4.2873058702       -1.3991244876       -0.4752474643
 C          4.6469010428       -2.4586207923       -1.3177605383
 C          3.6523040809       -3.1031017023       -2.0557497325
 C          2.3400769402       -2.6982581897       -1.9535803286
 C          5.9893610332       -2.8891315940       -1.4382864166
 N          7.0646444960       -3.2641887992       -1.5594940986
 C          5.3648254648       -0.7069761152        0.3177537509
 F          6.3032026100       -0.1616292597       -0.4746122051
 F          6.0042158365       -1.5503972013        1.1453064051
 F          4.8936578324        0.2856989902        1.0814425087
 O         -1.8597292088       -1.2837866456       -1.3888054919
 H         -1.4022478601        1.9404057857       -0.5608188731
 H         -2.7958158033        1.2414841351       -1.4174748176
 H         -1.1902743525        1.1943396476       -2.1501922620
 H         -1.9940559916       -1.3060196034        1.2537844172
 H         -1.7890760542        0.4460011274        1.4879185448
 H         -3.5477665880        1.6452549498        2.8400886250
 H         -4.0667636013        4.0747480641        3.1348219605
 H         -5.7872211300        4.1728646832       -0.7726662324
 H         -5.2472066514        1.7383293147       -1.0590878942
 H          0.0014079780       -1.8046964869       -1.6280619011
 H          2.7014959736       -0.1745385697        0.2815157164
 H          3.9258496326       -3.9197673058       -2.7059881863
 H          1.5754005155       -3.2008591833       -2.5270260854
 H         -2.8334467441       -1.2493550983       -1.4487545343
  43
  -89.944631840000000        1.1981722356154538E-005 !
 C         -1.7586722341        1.0595812816       -1.2441536621
 C         -1.4675926725       -0.2632179633       -0.5217605997
 C         -2.1363405763       -0.2990889518        0.8536242656
 S         -3.9568019016       -0.1597515864        0.7276173011
 O         -4.3575759283       -0.6419458312       -0.5772400969
 O         -4.5197044916       -0.8107151038        1.8739550830
 C         -4.3491220966        1.5915649574        0.8319201949
 C         -4.0151645974        2.2768313583        1.9858436705
 C         -4.3253903922        3.6207651285        2.0930135293
 C         -4.9732789971        4.2377761442        1.0337853445
 C         -5.3272580369        3.5545632870       -0.1184140676
 C         -5.0085431314        2.2111293582       -0.2127811254
 F         -5.2742786557        5.5413339596        1.1313484299
 C          0.0606367617       -0.3268594922       -0.2847831457
 O          0.6116097995        0.4557735305        0.4538006265
 N          0.6523546389       -1.3162876126       -0.9965177399
 C          1.9895125018       -1.6716141281       -1.0561457099
 C          2.9783740430       -0.9808319738       -0.3531131144
 C          4.2967296668       -1.3819197017       -0.4556492148
 C          4.6574496395       -2.4732359884       -1.2560031861
 C          3.6613643030       -3.1574466634       -1.9551551055
 C          2.3464650711       -2.7607292656       -1.8556227173
 C          6.0025256493       -2.8966236724       -1.3724993779
 N          7.0801368204       -3.2659741092       -1.4902607021
 C          5.3758632556       -0.6473232219        0.2958591048
 F          4.9033850253        0.3726198508        1.0218764695
 F          6.3011035529       -0.1278922086       -0.5286724209
 F          6.0312984883       -1.4493880300        1.1515474005
 O         -1.8607664129       -1.3667084201       -1.2999529763
 H         -1.2257815656        1.0760866656       -2.1928610941
 H         -1.4259011210        1.8991878860       -0.6403704272
 H         -2.8227133055        1.1451512211       -1.4432727610
 H         -1.9631564527       -1.2567970651        1.3426106366
 H         -1.7750163320        0.5069041533        1.4849484404
 H         -3.5346331431        1.7541462355        2.7974695105
 H         -4.0807377148        4.1890538783        2.9759749613
 H         -5.8426821814        4.0705530665       -0.9124263654
 H         -5.2756659216        1.6312669801       -1.0824541396
 H          0.0025584588       -1.8781902298       -1.5397420991
 H          2.7074558473       -0.1402403037        0.2652908634
 H          3.9357155648       -3.9990626970       -2.5724134556
 H          1.5805460794       -3.2945096173       -2.3984153735
 H         -2.8354817539       -1.3451499711       -1.3490752733
  43
  -89.944631709999996        1.1980074199892823E-005 !
 C         -1.7104528814        1.2525161105       -1.1257262341
 C         -1.4616440008       -0.1589218102       -0.5759295181
 C         -2.1583492749       -0.3563933277        0.7715959286
 S         -3.9725779206       -0.1594248235        0.6335909768
 O         -4.3573404590       -0.4615374844       -0.7289390360
 O         -4.5717771094       -0.9381059097        1.6772966333
 C         -4.3303508637        1.5729134170        0.9545619520
 C         -4.9587681776        2.3346811677       -0.0123677796
 C         -5.2520578361        3.6619680385        0.2476181046
 C         -4.9046526428        4.1852530044        1.4825720011
 C         -4.2878623196        3.4244908097        2.4640070183
 C         -4.0029017081        2.0984965930        2.1911670208
 F         -5.1811741857        5.4721643191        1.7409838266
 C          0.0598843204       -0.2882578276       -0.3230441110
 O          0.6122940959        0.3797221202        0.5197137277
 N          0.6447203771       -1.1917220174       -1.1460660566
 C          1.9750546453       -1.5676117145       -1.2282605505
 C          2.9637924874       -0.9974041057       -0.4241775141
 C          4.2752307081       -1.4126207444       -0.5552057083
 C          4.6291105487       -2.3989319775       -1.4845465448
 C          3.6331571677       -2.9630588656       -2.2839430292
 C          2.3251461573       -2.5518765160       -2.1563997489
 C          5.9670936103       -2.8347152499       -1.6321808185
 N          7.0389822333       -3.2105584565       -1.7785669720
 C          5.3541293857       -0.8074299772        0.3042668553
 F          6.3068210897       -0.2074414097       -0.4292788831
 F          5.9748080041       -1.7290378742        1.0596044815
 F          4.8886383638        0.1205809437        1.1485055918
 O         -1.8621972089       -1.1432073857       -1.4971149265
 H         -1.3719986360        1.9991031308       -0.4127765506
 H         -2.7683265003        1.3880169234       -1.3299679215
 H         -1.1587145475        1.3788598103       -2.0551964108
 H         -2.0152255105       -1.3730215588        1.1353095587
 H         -1.7927452486        0.3526161244        1.5080577515
 H         -5.2221427270        1.8760246843       -0.9526796597
 H         -5.7433011400        4.2858523737       -0.4816351560
 H         -4.0471966151        3.8704984159        3.4156304346
 H         -3.5471297881        1.4665746754        2.9366785402
 H         -0.0057309679       -1.6634735781       -1.7685014009
 H          2.6981380534       -0.2380836160        0.2936406263
 H          3.9022492362       -3.7234083495       -3.0009146964
 H          1.5594015616       -2.9921828105       -2.7776419078
 H         -2.8351286676       -1.0931162547       -1.5593215791
  43
  -89.944631709999996        1.1980074199892823E-005 !
 C         -1.7294139396        1.1965331162       -1.1600733123
 C         -1.4546094483       -0.1981352903       -0.5807559379
 C         -2.1536622476       -0.3826288542        0.7674016235
 S         -3.9709452247       -0.2262731905        0.6174456798
 O         -4.3427934803       -0.5637068579       -0.7403865761
 O         -4.5588678712       -0.9960303226        1.6740535976
 C         -4.3661264515        1.5043271207        0.9017060445
 C         -4.0566014206        2.0610475461        2.1292916567
 C         -4.3703028778        3.3860025299        2.3740695415
 C         -4.9970284221        4.1142097474        1.3743801909
 C         -5.3266185142        3.5593981215        0.1483266642
 C         -5.0046301104        2.2335759042       -0.0835329897
 F         -5.3014303008        5.4000054043        1.6055653422
 C          0.0679715203       -0.2914049370       -0.3184224518
 O          0.6028580572        0.4057399908        0.5119262266
 N          0.6746528063       -1.2010548754       -1.1185448734
 C          2.0124028883       -1.5526864031       -1.1859141818
 C          2.9858607693       -0.9448772040       -0.3907093601
 C          4.3056860651       -1.3374071212       -0.5059624901
 C          4.6833247018       -2.3379172101       -1.4104633770
 C          3.7025603435       -2.9395867072       -2.2012417311
 C          2.3862285330       -2.5510295702       -2.0893841151
 C          6.0301812775       -2.7510753940       -1.5415280263
 N          7.1098421363       -3.1093452700       -1.6741645890
 C          5.3682770523       -0.6916928894        0.3443145171
 F          6.0017818822       -1.5831623636        1.1247683677
 F          4.8808290240        0.2473318957        1.1635956999
 F          6.3137600551       -0.0916103715       -0.3984713442
 O         -1.8305999515       -1.2088192461       -1.4835395456
 H         -1.4091913392        1.9640326455       -0.4610499514
 H         -2.7888954381        1.3064577474       -1.3712171007
 H         -1.1762575592        1.3152220560       -2.0896974181
 H         -1.9913372505       -1.3884837752        1.1523975606
 H         -1.8064421975        0.3486255547        1.4909065292
 H         -3.5921037286        1.4535842435        2.8896041397
 H         -4.1442550259        3.8557250651        3.3178399786
 H         -5.8264714362        4.1583712795       -0.5957969164
 H         -5.2532268791        1.7509472989       -1.0158431528
 H          0.0367539951       -1.6990350348       -1.7334876125
 H          2.7018849923       -0.1744654038        0.3080664522
 H          3.9899514069       -3.7110103867       -2.8990413525
 H          1.6322937847       -3.0205076164       -2.7037191743
 H         -2.8040528171       -1.1799584452       -1.5510117837
  43
  -89.944631670000007        1.1979567120654118E-005 !
 C         -1.7080771157        1.2492736452       -1.1193902104
 C         -1.4641001529       -0.1642363652       -0.5725110649
 C         -2.1654559888       -0.3640764267        0.7721413621
 S         -3.9785203019       -0.1604682968        0.6291159506
 O         -4.3599690295       -0.4576207883       -0.7354368156
 O         -4.5838330862       -0.9396212969        1.6689224480
 C         -4.3302779027        1.5724577017        0.9535649057
 C         -4.9491325923        2.3407284648       -0.0143710104
 C         -5.2360114784        3.6689332695        0.2480331660
 C         -4.8921302525        4.1865212991        1.4863681094
 C         -4.2852903474        3.4191848589        2.4688842534
 C         -4.0065699882        2.0923871183        2.1935376894
 F         -5.1621891815        5.4743610085        1.7470072611
 C          0.0565783721       -0.2965364593       -0.3164090745
 O          0.6070093339        0.3637496969        0.5336804072
 N          0.6434856257       -1.1919102076       -1.1468113598
 C          1.9744175684       -1.5653208187       -1.2307386358
 C          2.9617346288       -0.9993851607       -0.4219028959
 C          4.2740135321       -1.4111530125       -0.5554485104
 C          4.6300482400       -2.3898745523       -1.4919213462
 C          3.6355717260       -2.9497465752       -2.2961028601
 C          2.3267621504       -2.5417885799       -2.1662258073
 C          5.9688643287       -2.8224489466       -1.6418438659
 N          7.0413885059       -3.1954424043       -1.7903423550
 C          5.3514409996       -0.8101891158        0.3088331581
 F          6.3034339743       -0.2034116451       -0.4200504501
 F          5.9733861107       -1.7359387554        1.0580094465
 F          4.8839500598        0.1111265275        1.1592740294
 O         -1.8638921205       -1.1449250763       -1.4978785483
 H         -2.7646051145        1.3865404576       -1.3292450152
 H         -1.1509449932        1.3778603855       -2.0453477660
 H         -1.3729221313        1.9933515365       -0.4022795006
 H         -2.0267152877       -1.3824846535        1.1325531729
 H         -1.7996538810        0.3410071950        1.5122798353
 H         -5.2102615830        1.8864719741       -0.9574390553
 H         -5.7195042744        4.2979091880       -0.4820193871
 H         -4.0472028023        3.8609153764        3.4231433556
 H         -3.5584845883        1.4554716988        2.9394657774
 H         -0.0057025938       -1.6593347116       -1.7737917808
 H          2.6943688627       -0.2460129127        0.3015135473
 H          3.9063423132       -3.7043371595       -3.0185069557
 H          1.5620973179       -2.9789010985       -2.7910651943
 H         -2.8365159621       -1.0926295963       -1.5627995668
  43
  -89.944631619999996        1.1978933301472833E-005 !
 C         -1.7085527377        1.2982354177       -1.0790195555
 C         -1.4535255231       -0.1389509126       -0.6040192972
 C         -2.1638083844       -0.4154638867        0.7223920291
 S         -3.9782347347       -0.2272927731        0.5735780808
 O         -4.3442118874       -0.4523506376       -0.8088722125
 O         -4.5819689205       -1.0712426036        1.5625100247
 C         -4.3557414627        1.4799335277        0.9915652176
 C         -4.9745026268        2.2943799569        0.0620811914
 C         -5.2823612845        3.6014756668        0.3968444046
 C         -4.9591149804        4.0514821780        1.6667571630
 C         -4.3521290061        3.2370690833        2.6105590175
 C         -4.0523656212        1.9320383687        2.2628963122
 F         -5.2494211382        5.3186454811        1.9975575136
 C          0.0661182669       -0.2690986138       -0.3405834245
 O          0.6031805088        0.3582157214        0.5423347831
 N          0.6678657218       -1.1242650207       -1.2021147060
 C          2.0022985713       -1.4844177080       -1.2882649868
 C          2.9775382593       -0.9455924097       -0.4468922395
 C          4.2941058246       -1.3421703186       -0.5844264917
 C          4.6664863770       -2.2784859164       -1.5572854632
 C          3.6839251706       -2.8117034233       -2.3936223729
 C          2.3708862336       -2.4188304774       -2.2598202547
 C          6.0099821967       -2.6946116301       -1.7121098024
 N          7.0867726104       -3.0530468452       -1.8657817528
 C          5.3587273100       -0.7696794653        0.3143590092
 F          5.9830091762       -1.7213388886        1.0282465431
 F          4.8757600711        0.1098498004        1.1996844711
 F          6.3110501367       -0.1235800397       -0.3795126859
 O         -1.8347788905       -1.0748633217       -1.5820728497
 H         -1.3839477776        2.0075189126       -0.3228524074
 H         -2.7653448799        1.4361481866       -1.2871265657
 H         -1.1481571089        1.4793036096       -1.9941519430
 H         -2.0151879589       -1.4489920395        1.0322629795
 H         -1.8136499067        0.2559284463        1.5004636232
 H         -5.2195270269        1.8916158464       -0.9083028064
 H         -5.7662331589        4.2650955458       -0.3016115973
 H         -4.1300082534        3.6264692126        3.5911059678
 H         -3.6035849897        1.2591448370        2.9761827524
 H          0.0285577526       -1.5683219862       -1.8556819328
 H          2.6975852654       -0.2248150537        0.3044993299
 H          3.9672503179       -3.5337447276       -3.1439574108
 H          1.6155640425       -2.8349491077       -2.9098391325
 H         -2.8071663681       -1.0282548732       -1.6541662319
  43
  -89.944514440000006        1.0581955902604243E-005 !
 C         -3.2583549594       -1.7892808639       -2.8018031643
 C         -2.8469236458       -1.7421875958       -1.3208685657
 C         -3.7158748117       -0.7488235958       -0.5545815121
 S         -2.9538359055       -0.3378941766        1.0757651110
 O         -4.0426701177       -0.2340441417        2.0087103061
 O         -1.9175513967       -1.2949924751        1.3624700227
 C         -2.2012467082        1.2768188588        0.8772046587
 C         -3.0065830718        2.3590670590        0.5782942996
 C         -2.4306484638        3.6047116036        0.4039731013
 C         -1.0556129523        3.7230004099        0.5343501303
 C         -0.2436534500        2.6455216977        0.8488255306
 C         -0.8342053841        1.4070205017        1.0249249592
 F         -0.4961234465        4.9302744496        0.3595590661
 C         -1.4102507371       -1.1926987328       -1.2291003736
 O         -1.1935347243       -0.0259228602       -1.4785107800
 N         -0.4929494757       -2.1268461277       -0.8924206352
 C          0.8237046199       -1.9212939184       -0.5185179744
 C          1.4693370520       -0.6971005868       -0.7026215789
 C          2.7788459850       -0.5433209515       -0.2891139989
 C          3.4792484601       -1.6058322434        0.2955773180
 C          2.8299426385       -2.8308867923        0.4618038052
 C          1.5205657868       -2.9832929820        0.0634978033
 C          4.8208737017       -1.4649619307        0.7213950015
 N          5.9070760500       -1.3833897797        1.0754613215
 C          3.4703746646        0.7845011796       -0.4466544214
 F          3.8431731469        1.3001399616        0.7386842935
 F          2.6925849501        1.7113349616       -1.0229455427
 F          4.5798827771        0.7014584834       -1.1964075961
 O         -2.8778394099       -3.0312914184       -0.7545520897
 H         -3.0501679012       -0.8341511216       -3.2744977128
 H         -4.3195030150       -2.0117159041       -2.8922615290
 H         -2.6916544006       -2.5668938649       -3.3084687482
 H         -3.7950714666        0.1884890145       -1.0967364080
 H         -4.7054167437       -1.1444527585       -0.3352806030
 H         -4.0742394998        2.2253301760        0.5010174085
 H         -3.0234497741        4.4744710345        0.1694864689
 H          0.8209440660        2.7859741993        0.9448746116
 H         -0.2535511445        0.5344772533        1.2776971041
 H         -0.8996301852       -3.0168357423       -0.6213125283
 H          0.9383000289        0.1257105560       -1.1529317192
 H          3.3658762723       -3.6519206884        0.9128232442
 H          1.0200163583       -3.9283823890        0.2101597690
 H         -3.7890051804       -3.2814899367       -0.5661215321
  43
  -89.944512630000006        1.0561707334380742E-005 !
 C         -3.2707664672       -1.8182142457       -2.7495297522
 C         -2.8491224341       -1.7543355248       -1.2720213256
 C         -3.7134780465       -0.7536158210       -0.5105516722
 S         -2.9373814289       -0.3241528190        1.1084997853
 O         -4.0155656585       -0.2316755842        2.0549357727
 O         -1.8835540365       -1.2645740415        1.3862929059
 C         -2.2123549939        1.3003618708        0.8900279488
 C         -0.8446686886        1.4515673715        1.0085042408
 C         -0.2764695446        2.6974789128        0.8120470718
 C         -1.1108933914        3.7608589017        0.5085792642
 C         -2.4865179264        3.6216880388        0.4081771307
 C         -3.0398995777        2.3686265075        0.6013886213
 F         -0.5731457562        4.9751446693        0.3141304208
 C         -1.4118141646       -1.2035429412       -1.1971382821
 O         -1.1983303739       -0.0374206871       -1.4521018043
 N         -0.4901822230       -2.1380221453       -0.8730422009
 C          0.8321644291       -1.9346476876       -0.5189210364
 C          1.4733569749       -0.7075288513       -0.6990787807
 C          2.7899355246       -0.5576200736       -0.3071006812
 C          3.5023839045       -1.6273523618        0.2492742487
 C          2.8568791430       -2.8547582948        0.4127286534
 C          1.5401738990       -3.0029148094        0.0377454905
 C          4.8531341599       -1.4920834206        0.6471217095
 N          5.9475392514       -1.4156550331        0.9762187333
 C          3.4785878100        0.7720647618       -0.4613964995
 F          2.6799821170        1.7145841705       -0.9814990340
 F          4.5544958664        0.7037223479       -1.2605135382
 F          3.9042948735        1.2585583722        0.7179176323
 O         -2.8748648255       -3.0373208557       -0.6914764724
 H         -2.7059666113       -2.5999960993       -3.2518871196
 H         -3.0681790282       -0.8677826201       -3.2339966813
 H         -4.3320254933       -2.0439534716       -2.8300790826
 H         -3.7979412614        0.1775210284       -1.0624932318
 H         -4.7006727380       -1.1480112257       -0.2789441042
 H         -0.2460628319        0.5893919567        1.2545907865
 H          0.7878771102        2.8536736577        0.8828701395
 H         -3.0970355115        4.4811684907        0.1813389721
 H         -4.1067400171        2.2181230964        0.5469451507
 H         -0.8931406543       -3.0283961360       -0.5979300308
 H          0.9336492864        0.1199793864       -1.1301672881
 H          3.4017945210       -3.6811092465        0.8428226164
 H          1.0430491828       -3.9502013685        0.1820675092
 H         -3.7842994233       -3.2854957169       -0.4922862761
  43
  -89.944512239999995        1.0557349459313760E-005 !
 C         -3.3286751519       -1.8866845993       -2.7142287771
 C         -2.8902102115       -1.7892378022       -1.2437901894
 C         -3.7418039474       -0.7641842236       -0.4986862189
 S         -2.9626720109       -0.3016358076        1.1090065121
 O         -4.0473076051       -0.0946470850        2.0294578892
 O         -1.9746313248       -1.2905284024        1.4526431148
 C         -2.1294494868        1.2621404014        0.8338478508
 C         -0.7625829152        1.3368994728        1.0179578661
 C         -0.1079053194        2.5354642747        0.7976645293
 C         -0.8570718451        3.6307422133        0.3997462305
 C         -2.2315569994        3.5687894883        0.2304739248
 C         -2.8722765628        2.3632117654        0.4534148313
 F         -0.2355822056        4.7994794671        0.1812381412
 C         -1.4513613377       -1.2409945331       -1.1947516755
 O         -1.2311784945       -0.0942954738       -1.5226460772
 N         -0.5374936008       -2.1482257466       -0.7843959645
 C          0.7755473577       -1.9113763327       -0.4156924807
 C          1.4301231142       -0.7163380391       -0.7199461777
 C          2.7320807912       -0.5209592153       -0.3001834531
 C          3.4142425891       -1.5125423560        0.4157607208
 C          2.7578932688       -2.7126897768        0.6974141549
 C          1.4571978427       -2.9068296209        0.2887624437
 C          4.7422222245       -1.3238191368        0.8653783073
 N          5.8148819578       -1.2009918236        1.2476168227
 C          3.4257830667        0.7846158306       -0.5838312338
 F          2.6976059883        1.6038181877       -1.3540755634
 F          4.6011037955        0.6229857152       -1.2082373595
 F          3.6798931658        1.4685859505        0.5480771864
 O         -2.9167114191       -3.0564454410       -0.6305694333
 H         -2.7778645938       -2.6877230380       -3.2015174522
 H         -3.1198968153       -0.9515203596       -3.2250450961
 H         -4.3931921821       -2.1019587813       -2.7781089965
 H         -3.8223952181        0.1546803282       -1.0712835144
 H         -4.7313775486       -1.1451310921       -0.2543153820
 H         -0.2318953387        0.4530882517        1.3342165888
 H          0.9582416678        2.6327082428        0.9265478923
 H         -2.7743976309        4.4508697897       -0.0697149920
 H         -3.9426513317        2.2771651256        0.3504429133
 H         -0.9472932204       -3.0140732643       -0.4470373649
 H          0.9113880035        0.0547764337       -1.2656928504
 H          3.2810250651       -3.4801549391        1.2470375734
 H          0.9501804381       -3.8298199543        0.5256217098
 H         -3.8262301566       -3.2983770419       -0.4242178209
  43
  -89.944507110000004        1.0500193746852606E-005 !
 C         -3.3933040624       -2.1856953719       -2.5798003976
 C         -2.9609876164       -1.8978078502       -1.1342153685
 C         -3.8455186231       -0.8100997655       -0.5258621437
 S         -3.1888420817       -0.1929909185        1.0790325090
 O         -4.3064124095        0.3999552141        1.7597104223
 O         -2.4929109985       -1.2624401629        1.7463658887
 C         -1.9989863886        1.0961235912        0.6934686542
 C         -2.3667096936        2.1559552362       -0.1139240224
 C         -1.4450014062        3.1474345402       -0.3953834351
 C         -0.1772565035        3.0546464716        0.1581450225
 C          0.1908200001        2.0105284173        0.9907464388
 C         -0.7390109628        1.0201051276        1.2552113313
 F          0.7139926524        4.0179542215       -0.1079360904
 C         -1.5328432781       -1.3152253842       -1.1485939284
 O         -1.2721848711       -0.3404986922       -1.8210604786
 N         -0.6821567264       -1.9823168487       -0.3393389458
 C          0.6186814367       -1.6549102509       -0.0021727684
 C          1.3239466412       -0.6365803237       -0.6460558241
 C          2.6116061336       -0.3372086751       -0.2444835985
 C          3.2272553820       -1.0509243752        0.7913563674
 C          2.5187168705       -2.0778895830        1.4189568213
 C          1.2315963243       -2.3725075116        1.0283861420
 C          4.5426469970       -0.7523005006        1.2187076716
 N          5.6032811825       -0.5339878498        1.5915447437
 C          3.3665202206        0.7897325286       -0.8993805784
 F          3.6735554910        1.7563889969       -0.0162139647
 F          2.6719804756        1.3802470925       -1.8785139485
 F          4.5238652727        0.3841308788       -1.4444087339
 O         -2.9637932501       -3.0766521825       -0.3648259393
 H         -4.4584009398       -2.4015668298       -2.6235895276
 H         -2.8429965322       -3.0463779108       -2.9521217220
 H         -3.1717209023       -1.3270839955       -3.2064516714
 H         -3.9014846531        0.0500615783       -1.1855459639
 H         -4.8487145022       -1.1730331571       -0.3064674134
 H         -3.3687741061        2.2140197339       -0.5077320007
 H         -1.6914134293        3.9842131565       -1.0289258309
 H          1.1816594294        1.9887697547        1.4163429071
 H         -0.5070803730        0.1875855255        1.9005312229
 H         -1.1269224293       -2.7105310957        0.2142688581
 H          0.8569925937       -0.0814699545       -1.4430420419
 H          2.9912234935       -2.6306756398        2.2163597969
 H          0.6806163858       -3.1556153533        1.5266421760
 H         -3.8673731236       -3.3074038461       -0.1232331379
  43
  -89.944367170000007        9.0549350905982758E-006 !
 C         -2.7292004664       -1.7174070595       -1.9831294632
 C         -2.3115786904       -1.7962028200       -0.5129056789
 C         -2.8195494574       -0.5699761358        0.2802185150
 S         -1.9388774009        0.9948277703       -0.0244146850
 O         -0.7512700348        1.0292401742        0.7820410759
 O         -1.7508237532        1.1603762925       -1.4521824300
 C         -3.0866775091        2.2468854891        0.5499606780
 C         -4.0815189726        2.6870067833       -0.3038726172
 C         -4.9862667029        3.6345230099        0.1403214037
 C         -4.8624511221        4.1107840018        1.4367322782
 C         -3.8643503838        3.6778193851        2.2959985704
 C         -2.9653687617        2.7302079860        1.8396170247
 F         -5.7387588284        5.0267866726        1.8732720246
 C         -0.7776684081       -1.9197477880       -0.3404650905
 O         -0.3494283312       -2.7772617520        0.4043669936
 N         -0.0391324022       -1.0650485276       -1.0803876397
 C          1.3311305120       -0.8434034369       -0.9969074322
 C          2.1993862850       -1.7068059408       -0.3297745774
 C          3.5522538142       -1.4232557336       -0.2976491442
 C          4.0633494034       -0.2818560715       -0.9271850371
 C          3.1842267519        0.5755365238       -1.5920448193
 C          1.8367311137        0.2953778648       -1.6273003385
 C          5.4449013644        0.0222942293       -0.9044326507
 N          6.5567436600        0.2974704246       -0.9075498000
 C          4.5053798240       -2.3452107572        0.4160479804
 F          3.8959928929       -3.4013990049        0.9677879504
 F          5.1641468945       -1.7265887169        1.4098366698
 F          5.4418166504       -2.8423038829       -0.4114110426
 O         -2.8845394875       -2.9387865881        0.0648280075
 H         -2.5258688839       -0.7381450011       -2.4040962850
 H         -3.7966954727       -1.9169544064       -2.0418474176
 H         -2.2101864632       -2.4811172919       -2.5569178139
 H         -3.8658006676       -0.3944118402        0.0394920555
 H         -2.7144452754       -0.7554216584        1.3472816743
 H         -4.1242164476        2.2986650341       -1.3089982086
 H         -5.7734762365        4.0073586610       -0.4950697497
 H         -3.8018045226        4.0828599442        3.2931893587
 H         -2.1600982839        2.3700358132        2.4596917968
 H         -0.5407625178       -0.3407123625       -1.5876295901
 H          1.8158917586       -2.5838222633        0.1656455372
 H          3.5750542775        1.4586172281       -2.0738329655
 H          1.1553333835        0.9652349294       -2.1300422871
 H         -2.1755205383       -3.3956721325        0.5567685443
  43
  -89.944367130000003        9.0545518232539463E-006 !
 C         -2.7547064087       -1.7723727665       -1.8970702504
 C         -2.3203927417       -1.8062991497       -0.4299566765
 C         -2.8174000460       -0.5550641497        0.3303846980
 S         -1.9375830331        0.9977655130       -0.0324458176
 O         -0.7407667112        1.0545859650        0.7589899827
 O         -1.7655814694        1.1187153220       -1.4667030083
 C         -3.0764602997        2.2694732641        0.5159502961
 C         -4.0799861184        2.6854150077       -0.3398388182
 C         -4.9778228410        3.6482259140        0.0850733419
 C         -4.8384883411        4.1638643357        1.3647357569
 C         -3.8316321713        3.7552336514        2.2257065377
 C         -2.9397155847        2.7919440390        1.7886916528
 F         -5.7079905891        5.0949294826        1.7826146260
 C         -0.7847910885       -1.9274432614       -0.2714015275
 O         -0.3493339426       -2.7623246528        0.4946575638
 N         -0.0534697853       -1.0975373533       -1.0459032666
 C          1.3180377127       -0.8762064473       -0.9849892399
 C          2.1926118149       -1.7212391937       -0.3027634065
 C          3.5462395094       -1.4395999766       -0.2949107496
 C          4.0517911282       -0.3183247829       -0.9638522037
 C          3.1663611033        0.5207872147       -1.6434973262
 C          1.8180917923        0.2423760421       -1.6547393971
 C          5.4340006570       -0.0163777992       -0.9662075933
 N          6.5461482894        0.2564079754       -0.9903701546
 C          4.5061752402       -2.3420403578        0.4344255223
 F          5.4323062366       -2.8647037251       -0.3888600604
 F          3.9016572715       -3.3806208981        1.0236768567
 F          5.1772249987       -1.6958784395        1.4021304604
 O         -2.8884504414       -2.9292847700        0.1895319569
 H         -2.5546758162       -0.8070302745       -2.3505084594
 H         -3.8231072667       -1.9716182359       -1.9374487330
 H         -2.2434708947       -2.5544821884       -2.4527688797
 H         -3.8659984764       -0.3850118032        0.0959945584
 H         -2.7006445936       -0.7075465443        1.4014490033
 H         -4.1347755157        2.2664117535       -1.3319795921
 H         -5.7713211395        4.0032444055       -0.5526963681
 H         -3.7570818518        4.1906078034        3.2091983092
 H         -2.1282525335        2.4491371222        2.4105393748
 H         -0.5597043232       -0.3880752998       -1.5693379966
 H          1.8135110342       -2.5824649324        0.2228240113
 H          3.5529742704        1.3884330898       -2.1557713181
 H          1.1319306797        0.8984067453       -2.1690947458
 H         -2.1744863126       -3.3721073694        0.6871530134
  43
  -89.944367090000000        9.0541685721321206E-006 !
 C         -2.7173623274       -1.8525702447       -1.8840110888
 C         -2.2963658234       -1.8466885230       -0.4126666289
 C         -2.8140390094       -0.5832919591        0.3130290338
 S         -1.9472608149        0.9698764637       -0.0786636041
 O         -0.7581396836        1.0579479259        0.7214722253
 O         -1.7640335997        1.0590850543       -1.5138292022
 C         -3.1041754657        2.2417229373        0.4301498091
 C         -2.9865084401        2.7920097499        1.6930477829
 C         -3.8922786996        3.7555447469        2.0999537083
 C         -4.8932967212        4.1363430527        1.2196260385
 C         -5.0134715823        3.5928170649       -0.0503935369
 C         -4.1019495299        2.6300159520       -0.4451303499
 F         -5.7761429405        5.0674645432        1.6083550644
 C         -0.7611194456       -1.9461100242       -0.2366241511
 O         -0.3237427770       -2.7563776694        0.5543464473
 N         -0.0317716673       -1.1273950852       -1.0248113469
 C          1.3360103488       -0.8865713959       -0.9548543051
 C          2.2134009463       -1.7004722177       -0.2392464034
 C          3.5630188936       -1.4005859761       -0.2236900065
 C          4.0618312380       -0.2919481370       -0.9181927940
 C          3.1736860178        0.5159170348       -1.6313042662
 C          1.8293540371        0.2194526134       -1.6499429549
 C          5.4397880002        0.0288921202       -0.9122040858
 N          6.5485273694        0.3161503551       -0.9307069318
 C          4.5257887453       -2.2688598574        0.5424813524
 F          3.9279697494       -3.2987169771        1.1534700387
 F          5.1757465704       -1.5864577351        1.4996717741
 F          5.4692293680       -2.8015600913       -0.2542612990
 O         -2.8576885113       -2.9610053687        0.2282209564
 H         -3.7829995325       -2.0651537087       -1.9291886856
 H         -2.1921103410       -2.6416070120       -2.4163538357
 H         -2.5243045007       -0.8959427607       -2.3584700471
 H         -3.8620919027       -0.4301185303        0.0649847581
 H         -2.7057571832       -0.7090847009        1.3884409733
 H         -2.1787634597        2.4702323444        2.3307652329
 H         -3.8327493209        4.2121237583        3.0748143879
 H         -5.8031627450        3.9267067665       -0.7041014011
 H         -4.1417034715        2.1897566711       -1.4287443012
 H         -0.5411319561       -0.4379605192       -1.5714095574
 H          1.8393445770       -2.5516660509        0.3059518372
 H          3.5549582433        1.3740660634       -2.1631732734
 H          1.1408515534        0.8518137447       -2.1900726566
 H         -2.1439066005       -3.3829527427        0.7438909403
  43
  -89.944367069999998        9.0539769526544383E-006 !
 C         -2.7942961134       -1.8064647659       -1.8042642762
 C         -2.3390500616       -1.8004256308       -0.3431354227
 C         -2.8153910122       -0.5232914593        0.3867659473
 S         -1.9301875031        1.0114105290       -0.0353338571
 O         -0.7219748814        1.0834828256        0.7373196860
 O         -1.7775471775        1.0877256417       -1.4748495314
 C         -3.0525503599        2.3073989931        0.4897507847
 C         -4.0661391874        2.7031006015       -0.3637942991
 C         -4.9512774744        3.6849888602        0.0437353979
 C         -4.7894067621        4.2396880859        1.3042691518
 C         -3.7723330742        3.8514903158        2.1626786293
 C         -2.8932742064        2.8687957166        1.7431461822
 F         -5.6466133474        5.1893108100        1.7054184527
 C         -0.8022953557       -1.9290632412       -0.2027705849
 O         -0.3621808212       -2.7447167717        0.5811386880
 N         -0.0759469758       -1.1278431738       -1.0114016587
 C          1.2978618410       -0.9153437382       -0.9760291899
 C          2.1758088576       -1.7467560347       -0.2815060576
 C          3.5313805559       -1.4751397177       -0.3003426351
 C          4.0355390864       -0.3775744744       -1.0085138061
 C          3.1467543296        0.4479203423       -1.7003630275
 C          1.7965072219        0.1794432933       -1.6850118562
 C          5.4196571828       -0.0860106482       -1.0383493493
 N          6.5332668478        0.1777789524       -1.0854807832
 C          4.4949102820       -2.3630894515        0.4419282164
 F          5.1834159527       -1.6941505645        1.3814913633
 F          5.4062039502       -2.9159915781       -0.3781486055
 F          3.8913145470       -3.3798204262        1.0690189462
 O         -2.9066746112       -2.8999507050        0.3174824398
 H         -2.5932176760       -0.8567576859       -2.2891646600
 H         -3.8647141775       -1.9978938814       -1.8233815086
 H         -2.2974150515       -2.6090166424       -2.3435915893
 H         -3.8661733097       -0.3522158157        0.1631530119
 H         -2.6834687837       -0.6447036410        1.4600444011
 H         -4.1386003013        2.2533871466       -1.3412507339
 H         -5.7521402310        4.0250174840       -0.5930027990
 H         -3.6802748593        4.3170273840        3.1307511618
 H         -2.0747720652        2.5401286052        2.3634069972
 H         -0.5843292433       -0.4301867807       -1.5484581481
 H          1.7979307866       -2.5894185873        0.2741938776
 H          3.5323892898        1.2973498865       -2.2430090197
 H          1.1079400057        0.8253778219       -2.2088432052
 H         -2.1889820000       -3.3336572130        0.8177617158
  43
  -89.944367000000000        9.0533063164861273E-006 !
 C         -2.7809576240       -1.9439452089       -1.6889037770
 C         -2.3211032072       -1.8472746203       -0.2324279768
 C         -2.8096102827       -0.5349187774        0.4232911120
 S         -1.9415037087        0.9815303393       -0.0903474007
 O         -0.7307582398        1.1096380042        0.6710194832
 O         -1.7959322876        0.9763351775       -1.5325835735
 C         -3.0740853773        2.2948183241        0.3651786247
 C         -2.9137918203        2.9292100179        1.5831182179
 C         -3.8001153081        3.9262381957        1.9502221613
 C         -4.8253026633        4.2546242676        1.0766441237
 C         -4.9883655401        3.6264046079       -0.1487511303
 C         -4.0958911729        2.6309272101       -0.5039584403
 F         -5.6895131857        5.2178714708        1.4271095557
 C         -0.7825402370       -1.9498748208       -0.0904592319
 O         -0.3306172356       -2.7117976190        0.7394281727
 N         -0.0680053504       -1.1904128277       -0.9484533511
 C          1.3029902596       -0.9584464035       -0.9292663896
 C          2.1927361652       -1.7347820964       -0.1876517127
 C          3.5445668673       -1.4470456334       -0.2256682023
 C          4.0332545675       -0.3877654273       -0.9998874836
 C          3.1327427670        0.3827418534       -1.7384120883
 C          1.7861931396        0.0979407845       -1.7041144858
 C          5.4133182487       -0.0801989023       -1.0498822869
 N          6.5232828583        0.1948572168       -1.1151463132
 C          4.5206524702       -2.2755964332        0.5671375441
 F          5.2004708123       -1.5420942892        1.4638577903
 F          5.4389922530       -2.8642134290       -0.2195180360
 F          3.9314819351       -3.2610166869        1.2549817037
 O         -2.8738952358       -2.9126128998        0.4935107761
 H         -2.2760892778       -2.7705385363       -2.1825891089
 H         -2.5930821101       -1.0217431408       -2.2290613685
 H         -3.8490352607       -2.1489458225       -1.6926379169
 H         -3.8626570608       -0.3882106699        0.1931243379
 H         -2.6739458753       -0.5922003046        1.5014318809
 H         -2.0888512706        2.6447012666        2.2165277339
 H         -3.7073876099        4.4479780428        2.8891317420
 H         -5.7957463445        3.9215593627       -0.7994698349
 H         -4.1689724930        2.1249075552       -1.4534302450
 H         -0.5862631550       -0.5323924364       -1.5246281356
 H          1.8267297578       -2.5472048068        0.4187036338
 H          3.5064038661        1.2027138335       -2.3322729135
 H          1.0885226391        0.7018678077       -2.2647169380
 H         -2.1499241712       -3.3074459585        1.0164026934
  43
  -89.944366990000006        9.0532105154327255E-006 !
 C         -2.7185633826       -1.8537413309       -1.8830868512
 C         -2.2968304547       -1.8473260229       -0.4119633798
 C         -2.8139410499       -0.5835668567        0.3135049922
 S         -1.9470717889        0.9692977865       -0.0791465591
 O         -0.7574763694        1.0573319762        0.7202904898
 O         -1.7646132885        1.0579419691       -1.5144447350
 C         -3.1032945980        2.2417118406        0.4298622804
 C         -2.9842061878        2.7930628714        1.6921667287
 C         -3.8894105891        3.7570861514        2.0992292035
 C         -4.8912603056        4.1373612131        1.2195974319
 C         -5.0128311067        3.5927708421       -0.0498388920
 C         -4.1019173257        2.6294410222       -0.4446891559
 F         -5.7736554214        5.0688711002        1.6084838364
 C         -0.7615123153       -1.9469068015       -0.2366838043
 O         -0.3238675116       -2.7569296265        0.5543990935
 N         -0.0323973071       -1.1285633461       -1.0254617127
 C          1.3353268429       -0.8873728113       -0.9554577192
 C          2.2129432007       -1.7013761272       -0.2401812369
 C          3.5623951811       -1.4006472269       -0.2238804050
 C          4.0607089058       -0.2909903016       -0.9172007993
 C          3.1723479378        0.5166632002       -1.6303321382
 C          1.8282348430        0.2193032845       -1.6498324313
 C          5.4385025224        0.0307012942       -0.9106805702
 N          6.5469549177        0.3188938183       -0.9283927185
 C          4.5254668674       -2.2689262616        0.5419171572
 F          3.9284503640       -3.3011406638        1.1497380062
 F          5.1727311897       -1.5874375887        1.5016160533
 F          5.4710996863       -2.7983288658       -0.2544253647
 O         -2.8580292625       -2.9613418375        0.2295447562
 H         -2.1937496213       -2.6431347610       -2.4153547028
 H         -2.5255267544       -0.8973494879       -2.3580508537
 H         -3.7842828518       -2.0661403923       -1.9276431231
 H         -3.8620598500       -0.4302688562        0.0659059952
 H         -2.7051776783       -0.7090148351        1.3888949078
 H         -2.1757763208        2.4717546570        2.3292630561
 H         -3.8288559470        4.2143843969        3.0736880233
 H         -5.8032390199        3.9261397759       -0.7029452506
 H         -4.1428508828        2.1883048351       -1.4278659486
 H         -0.5419088130       -0.4393060397       -1.5721612020
 H          1.8391783264       -2.5530209437        0.3045096388
 H          3.5533077882        1.3753645490       -2.1615766390
 H          1.1395729283        0.8514469439       -2.1901142946
 H         -2.1441133895       -3.3831025972        0.7451933759
  43
  -89.944366950000003        9.0528273210843199E-006 !
 C         -2.7768467211       -1.9399032445       -1.6931523786
 C         -2.3196299834       -1.8446875941       -0.2357514167
 C         -2.8102601687       -0.5334921764        0.4206009747
 S         -1.9418105537        0.9840118698       -0.0892038307
 O         -0.7326901366        1.1114736080        0.6748182867
 O         -1.7934073357        0.9809758947       -1.5311455861
 C         -3.0765096922        2.2954744862        0.3663153351
 C         -2.9263400505        2.9197608211        1.5907761988
 C         -3.8150618139        3.9144979158        1.9582754184
 C         -4.8323464086        4.2508988053        1.0784991694
 C         -4.9851778486        3.6328875515       -0.1533705748
 C         -4.0904337185        2.6395407532       -0.5088828065
 F         -5.6988985831        5.2118916820        1.4293820752
 C         -0.7812184013       -1.9468677080       -0.0915978589
 O         -0.3302892861       -2.7094221212        0.7382705963
 N         -0.0657070627       -1.1862517870       -0.9477225474
 C          1.3055986310       -0.9563580204       -0.9289704019
 C          2.1942069757       -1.7320202548       -0.1852497246
 C          3.5465897934       -1.4471054165       -0.2249188063
 C          4.0370255432       -0.3915239321       -1.0030695054
 C          3.1376462835        0.3786357027       -1.7432957387
 C          1.7905161480        0.0968327253       -1.7071233484
 C          5.4177759252       -0.0873970690       -1.0554035849
 N          6.5284089742        0.1849614235       -1.1224742625
 C          4.5214319461       -2.2749938874        0.5701243916
 F          5.2053371772       -1.5393620827        1.4619832427
 F          5.4363375427       -2.8704447439       -0.2154306127
 F          3.9303345275       -3.2550798313        1.2638971180
 O         -2.8729989167       -2.9112882245        0.4879013984
 H         -2.5887486421       -1.0168618968       -2.2317872667
 H         -3.8447517298       -2.1456964169       -1.6989874012
 H         -2.2704802023       -2.7655029996       -2.1869510228
 H         -3.8628572577       -0.3869044659        0.1882803518
 H         -2.6769071803       -0.5921148749        1.4989472152
 H         -2.1069797371        2.6297984789        2.2289349041
 H         -3.7301836328        4.4284326172        2.9022186084
 H         -5.7866220577        3.9340279442       -0.8086794783
 H         -4.1556840674        2.1410286733       -1.4628910067
 H         -0.5832591350       -0.5275902163       -1.5238024615
 H          1.8269077744       -2.5418094021        0.4238600522
 H          3.5126257797        1.1959524472       -2.3400287808
 H          1.0937732765        0.7003852056       -2.2693068766
 H         -2.1496576011       -3.3063367248        1.0115045054
  43
  -89.944366889999998        9.0522525599729106E-006 !
 C         -2.7421816720       -1.9059590742       -1.7959078944
 C         -2.3045168314       -1.8550297940       -0.3303092038
 C         -2.8124615281       -0.5688652034        0.3615574589
 S         -1.9471565125        0.9695556369       -0.0872401836
 O         -0.7480544653        1.0787224184        0.6952293828
 O         -1.7814559309        1.0147936403       -1.5265775772
 C         -3.0946458549        2.2592969387        0.3973550297
 C         -2.9570305916        2.8497789211        1.6399092226
 C         -3.8549588908        3.8278513813        2.0291285308
 C         -4.8684913093        4.1822105954        1.1521043581
 C         -5.0087968156        3.5981623046       -0.0977029893
 C         -4.1049389913        2.6211872206       -0.4748578364
 F         -5.7438718189        5.1272395451        1.5238000285
 C         -0.7674863060       -1.9513370582       -0.1688141777
 O         -0.3220583347       -2.7368531115        0.6423457272
 N         -0.0461966655       -1.1591444192       -0.9908318844
 C          1.3225277741       -0.9180044843       -0.9433219574
 C          2.2071088762       -1.7119245975       -0.2142534492
 C          3.5570907050       -1.4132950672       -0.2223486677
 C          4.0490640349       -0.3255737987       -0.9538726778
 C          3.1537270859        0.4622615355       -1.6802733207
 C          1.8090504627        0.1667875167       -1.6756860781
 C          5.4273184844       -0.0066108738       -0.9729150407
 N          6.5359077805        0.2787435474       -1.0119508573
 C          4.5276365660       -2.2603848709        0.5575999468
 F          5.4620484486       -2.8163320131       -0.2339354265
 F          3.9358773579       -3.2720353286        1.2039454944
 F          5.1883776363       -1.5517500355        1.4880084497
 O         -2.8598155263       -2.9480708606        0.3511784882
 H         -3.8084034167       -2.1187739606       -1.8223985026
 H         -2.2235069940       -2.7115944150       -2.3095087725
 H         -2.5538839227       -0.9646313646       -2.3018583438
 H         -3.8628182936       -0.4212679502        0.1199711511
 H         -2.6929748885       -0.6616132445        1.4391418570
 H         -2.1403010582        2.5468944075        2.2754006619
 H         -3.7800174675        4.3153820435        2.9877936414
 H         -5.8077021546        3.9125275571       -0.7498805445
 H         -4.1600777475        2.1499185394       -1.4432464759
 H         -0.5609171160       -0.4860732432       -1.5525663794
 H          1.8384066451       -2.5464469835        0.3596033057
 H          3.5298098840        1.3041407137       -2.2410414293
 H          1.1151482321        0.7839333132       -2.2264733715
 H         -2.1408281711       -3.3546133061        0.8719526276
  43
  -89.944366799999997        9.0513904867945058E-006 !
 C         -2.7610021963       -1.7748369014       -1.8963525069
 C         -2.3238082515       -1.8091048830       -0.4301282991
 C         -2.8175175595       -0.5570033601        0.3310596872
 S         -1.9360281576        0.9944112774       -0.0339086812
 O         -0.7374637149        1.0494659670        0.7550205989
 O         -1.7669228620        1.1148809781       -1.4685520925
 C         -3.0712371710        2.2685858195        0.5163100356
 C         -4.0760015224        2.6857173781       -0.3374459862
 C         -4.9702448305        3.6514718745        0.0883462156
 C         -4.8261128949        4.1688120229        1.3667914420
 C         -3.8180270469        3.7589339493        2.2257263438
 C         -2.9297307904        2.7926972696        1.7878466516
 F         -5.6920372198        5.1028418930        1.7854762536
 C         -0.7880843717       -1.9317640272       -0.2739384463
 O         -0.3522776683       -2.7663938902        0.4921845664
 N         -0.0571645651       -1.1029912440       -1.0500586815
 C          1.3140381412       -0.8797991295       -0.9883451420
 C          2.1892050815       -1.7229609808       -0.3045993332
 C          3.5423623491       -1.4390552096       -0.2953769742
 C          4.0468055997       -0.3173515712       -0.9644795256
 C          3.1607808508        0.5197490966       -1.6458029446
 C          1.8129770213        0.2391637898       -1.6582681374
 C          5.4284026533       -0.0126758566       -0.9647301863
 N          6.5400904955        0.2621493526       -0.9868908306
 C          4.5028400806       -2.3390470788        0.4362578226
 F          5.4322391249       -2.8595746355       -0.3846702117
 F          3.8994949850       -3.3790100213        1.0242832972
 F          5.1699539636       -1.6910287317        1.4054658432
 O         -2.8921176768       -2.9312765575        0.1905721375
 H         -2.2518438569       -2.5576493756       -2.4529659366
 H         -2.5607947959       -0.8098007011       -2.3503700613
 H         -3.8297232859       -1.9728194249       -1.9344919530
 H         -3.8663427261       -0.3853518951        0.0988880245
 H         -2.6986622362       -0.7095103199        1.4018905578
 H         -4.1344514472        2.2653715863       -1.3288089068
 H         -5.7646088580        4.0074274192       -0.5478203545
 H         -3.7396051985        4.1957985472        3.2082537882
 H         -2.1172204351        2.4490912937        2.4078824670
 H         -0.5638040125       -0.3941636376       -1.5739480822
 H          1.8108953902       -2.5843849244        0.2212355727
 H          3.5465077355        1.3877719637       -2.1581127316
 H          1.1262820979        0.8938724657       -2.1735963418
 H         -2.1779674308       -3.3745195963        0.6875387730
  43
  -89.944366779999996        9.0511989261113251E-006 !
 C         -2.7378544311       -1.9030530038       -1.7940343479
 C         -2.3015037467       -1.8525387902       -0.3280111148
 C         -2.8106989944       -0.5670002641        0.3640096165
 S         -1.9478807156        0.9729855174       -0.0843274718
 O         -0.7510023583        1.0855478083        0.7010358342
 O         -1.7785195979        1.0174719858       -1.5233083624
 C         -3.0996883530        2.2606470752        0.3954949893
 C         -2.9703074410        2.8498325300        1.6395556877
 C         -3.8718440419        3.8263059642        2.0244385377
 C         -4.8805003246        4.1804609198        1.1417056293
 C         -5.0124888555        3.5977431623       -0.1096266391
 C         -4.1051396874        2.6223271099       -0.4823891818
 F         -5.7592662799        5.1239849520        1.5092106862
 C         -0.7645336508       -1.9488089538       -0.1656633071
 O         -0.3193968490       -2.7363160753        0.6437620034
 N         -0.0428891387       -1.1543533672       -0.9851356212
 C          1.3260201222       -0.9143314957       -0.9371690608
 C          2.2106013881       -1.7130067870       -0.2132943292
 C          3.5608235085       -1.4154166084       -0.2209386321
 C          4.0529468757       -0.3238679259       -0.9466524649
 C          3.1575945183        0.4687280467       -1.6678652076
 C          1.8127262207        0.1741365689       -1.6639315491
 C          5.4314673234       -0.0059944323       -0.9653095048
 N          6.5403027453        0.2787701228       -1.0036306084
 C          4.5315411437       -2.2681447326        0.5526060439
 F          5.4636983333       -2.8209175277       -0.2437906178
 F          3.9395139951       -3.2825850751        1.1942699875
 F          5.1950118659       -1.5657782201        1.4857451373
 O         -2.8570565352       -2.9459683866        0.3526667325
 H         -2.5482239333       -0.9619123428       -2.2998009714
 H         -3.8042142514       -2.1150124468       -1.8216305389
 H         -2.2193037642       -2.7090941985       -2.3071229556
 H         -3.8613088740       -0.4208259080        0.1226213011
 H         -2.6910142641       -0.6597809134        1.4415678635
 H         -2.1570147881        2.5473991909        2.2796855964
 H         -3.8033260050        4.3128643913        2.9840882493
 H         -5.8078460710        3.9118191164       -0.7662771003
 H         -4.1538812527        2.1518815375       -1.4515163941
 H         -0.5572496358       -0.4796687990       -1.5453343681
 H          1.8417570951       -2.5505048677        0.3561110709
 H          3.5338361447        1.3135499526       -2.2241189941
 H          1.1187630567        0.7947865387       -2.2107034578
 H         -2.1379198912       -3.3536300575        0.8723923431
  43
  -89.944366689999995        9.0503369532736341E-006 !
 C         -2.7536598686       -1.7680261273       -1.9017790305
 C         -2.3200736713       -1.8049126122       -0.4345197698
 C         -2.8172956181       -0.5551661200        0.3280558704
 S         -1.9370941389        0.9982047368       -0.0314851671
 O         -0.7406640415        1.0533621773        0.7606264964
 O         -1.7645055476        1.1218937660       -1.4654161877
 C         -3.0766209538        2.2683702163        0.5191066944
 C         -4.0778210739        2.6882565365       -0.3374571640
 C         -4.9765971439        3.6493701230        0.0893153904
 C         -4.8406150063        4.1592440905        1.3716402855
 C         -3.8361547764        3.7465490209        2.2334839604
 C         -2.9431801870        2.7851260812        1.7945253676
 F         -5.7113660878        5.0882497753        1.7915334994
 C         -0.7845694600       -1.9263469099       -0.2751413312
 O         -0.3496788862       -2.7623690383        0.4900240027
 N         -0.0527710616       -1.0955850844       -1.0482294946
 C          1.3189701181       -0.8756821775       -0.9884242263
 C          2.1925775026       -1.7177181802       -0.3012491969
 C          3.5465699975       -1.4377808955       -0.2951957211
 C          4.0535472904       -0.3212952774       -0.9710325584
 C          3.1691180825        0.5149291307       -1.6555000370
 C          1.8204265473        0.2384774762       -1.6645104289
 C          5.4362880638       -0.0218430439       -0.9764331426
 N          6.5489740914        0.2492939902       -1.0027009932
 C          4.5053186497       -2.3367666674        0.4399759208
 F          5.4294970734       -2.8676991140       -0.3802102816
 F          3.8992110854       -3.3694517802        1.0378777543
 F          5.1787579745       -1.6846236315        1.4019980593
 O         -2.8884917714       -2.9291721160        0.1823294636
 H         -3.8220149274       -1.9673507685       -1.9430450607
 H         -2.2420356253       -2.5489164839       -2.4588436683
 H         -2.5536426393       -0.8017113811       -2.3531507969
 H         -3.8657551771       -0.3844025113        0.0935784529
 H         -2.7009876884       -0.7098043131        1.3988586676
 H         -4.1299473399        2.2736675418       -1.3315941532
 H         -5.7685681452        4.0070845842       -0.5488456087
 H         -3.7642834541        4.1773731186        3.2191715599
 H         -2.1333652655        2.4395414896        2.4169599105
 H         -0.5586994905       -0.3858692545       -1.5716127378
 H          1.8124145512       -2.5753227872        0.2294752589
 H          3.5568856183        1.3786213711       -2.1735552659
 H          1.1351306655        0.8923635105       -2.1827163191
 H         -2.1749756583       -3.3726939192        0.6799513635
  43
  -89.944366560000006        9.0490920264220079E-006 !
 C         -2.7082904633       -1.8457391371       -1.8856538025
 C         -2.2908499705       -1.8415867497       -0.4132314162
 C         -2.8126237904       -0.5806932574        0.3136821664
 S         -1.9494599128        0.9752972773       -0.0745389422
 O         -0.7634824525        1.0669119650        0.7298175967
 O         -1.7612589311        1.0657020019       -1.5090113417
 C         -3.1130656894        2.2425746872        0.4305446510
 C         -2.9990371839        2.7970295393        1.6919535504
 C         -3.9106211604        3.7563159023        2.0959532432
 C         -4.9135709829        4.1287989672        1.2143064107
 C         -5.0301171049        3.5811454480       -0.0542725633
 C         -4.1128204963        2.6226770686       -0.4461116093
 F         -5.8023221263        5.0553904264        1.6003960360
 C         -0.7558483265       -1.9397268255       -0.2341315458
 O         -0.3191754213       -2.7525211477        0.5546745369
 N         -0.0258120404       -1.1174365926       -1.0178329141
 C          1.3426181523       -0.8801731794       -0.9492452772
 C          2.2188723945       -1.6970468847       -0.2356038774
 C          3.5694640509       -1.4014938369       -0.2226155696
 C          4.0704627508       -0.2941724287       -0.9176641720
 C          3.1833810878        0.5171768459       -1.6280845747
 C          1.8381193402        0.2248356101       -1.6444779266
 C          5.4496030390        0.0214246767       -0.9155350298
 N          6.5594059627        0.3037939254       -0.9378108062
 C          4.5309748060       -2.2734241684        0.5409530344
 F          3.9306231654       -3.3001105310        1.1547710873
 F          5.1874165771       -1.5933224458        1.4953444800
 F          5.4691447226       -2.8109858884       -0.2587505964
 O         -2.8521796556       -2.9577741263        0.2243393297
 H         -2.5148474410       -0.8882553122       -2.3581592280
 H         -3.7735959338       -2.0593088882       -1.9340268181
 H         -2.1808724300       -2.6334762596       -2.4177784077
 H         -3.8607552163       -0.4298993263        0.0644455340
 H         -2.7055397404       -0.7075816429        1.3891058455
 H         -2.1899856327        2.4812708006        2.3310113450
 H         -3.8544145604        4.2155491799        3.0697601072
 H         -5.8217371309        3.9084032308       -0.7090005885
 H         -4.1498484003        2.1794836246       -1.4285377511
 H         -0.5344938698       -0.4260227819       -1.5625961678
 H          1.8433242458       -2.5478387407        0.3091931046
 H          3.5664318999        1.3740384826       -2.1607530583
 H          1.1507112111        0.8590259498       -2.1839525355
 H         -2.1385989617       -3.3806963118        0.7394890875
  43
  -89.944366529999996        9.0488047598149148E-006 !
 C         -2.7973846614       -1.8112472956       -1.8030725808
 C         -2.3414331815       -1.8030974677       -0.3421985993
 C         -2.8174360152       -0.5247538231        0.3859212268
 S         -1.9298250073        1.0083016776       -0.0370337995
 O         -0.7207417159        1.0780443881        0.7344837399
 O         -1.7786444142        1.0842050444       -1.4767140608
 C         -3.0490339444        2.3065029383        0.4892743743
 C         -4.0532133492        2.7154349095       -0.3690433272
 C         -4.9354591545        3.6995623983        0.0393531212
 C         -4.7803986259        4.2429111938        1.3056212664
 C         -3.7729080601        3.8411479132        2.1690761651
 C         -2.8966045116        2.8564533089        1.7485913996
 F         -5.6348892053        5.1946124902        1.7076763668
 C         -0.8045754415       -1.9315689207       -0.2024431797
 O         -0.3640010437       -2.7449452387        0.5835476192
 N         -0.0787068924       -1.1325266266       -1.0137026648
 C          1.2948227106       -0.9181368750       -0.9780185167
 C          2.1735866350       -1.7476309097       -0.2822747061
 C          3.5287847732       -1.4740784161       -0.3007286071
 C          4.0316680169       -0.3764329687       -1.0096495049
 C          3.1420671999        0.4471393890       -1.7026935587
 C          1.7922247567        0.1766470124       -1.6878526201
 C          5.4153249782       -0.0826273855       -1.0387424741
 N          6.5284772717        0.1834484904       -1.0847501820
 C          4.4932659609       -2.3598911432        0.4428619787
 F          5.1794015775       -1.6892956529        1.3829832426
 F          5.4065749437       -2.9112279052       -0.3760310730
 F          3.8910199077       -3.3776620394        1.0695700965
 O         -2.9086696176       -2.9016701106        0.3202943711
 H         -2.3003476476       -2.6142689643       -2.3415927604
 H         -2.5970237734       -0.8619913962       -2.2892096865
 H         -3.8677405204       -2.0031823998       -1.8213688301
 H         -3.8677427241       -0.3526309205        0.1608624684
 H         -2.6868919700       -0.6452634786        1.4594624694
 H         -4.1203552332        2.2740083706       -1.3506257713
 H         -5.7287902741        4.0500056832       -0.6011192900
 H         -3.6857243318        4.2983060262        3.1415643921
 H         -2.0846800347        2.5184680201        2.3724443778
 H         -0.5875648987       -0.4362262089       -1.5520307706
 H          1.7966149307       -2.5902303161        0.2741328700
 H          3.5267037931        1.2966953153       -2.2458485127
 H          1.1029992829        0.8210171141       -2.2127300136
 H         -2.1908943808       -3.3341354201        0.8215199581
  43
  -89.944366340000002        9.0469856170318321E-006 !
 C         -2.7332232850       -1.8950865858       -1.8007619927
 C         -2.2987275362       -1.8492731909       -0.3340045199
 C         -2.8095653509       -0.5665234150        0.3617607578
 S         -1.9483814664        0.9757576446       -0.0817719489
 O         -0.7526693115        1.0882344891        0.7053222746
 O         -1.7772609327        1.0239417412       -1.5204066025
 C         -3.1034812996        2.2596973633        0.4002140420
 C         -2.9701612821        2.8538189781        1.6414753938
 C         -3.8750392497        3.8263649138        2.0284702192
 C         -4.8910545222        4.1715791368        1.1507024848
 C         -5.0271090690        3.5838524955       -0.0978788923
 C         -4.1162462807        2.6125603441       -0.4728441361
 F         -5.7735310059        5.1107417415        1.5205349710
 C         -0.7619177531       -1.9451769990       -0.1699696356
 O         -0.3175274517       -2.7350551981        0.6375643461
 N         -0.0396366419       -1.1480475464       -0.9862001195
 C          1.3298642083       -0.9115006445       -0.9404845044
 C          2.2126899288       -1.7067864543       -0.2106918306
 C          3.5637978787       -1.4134219395       -0.2218804769
 C          4.0587753077       -0.3297219580       -0.9573327357
 C          3.1651817967        0.4598475184       -1.6839916396
 C          1.8193603171        0.1698131005       -1.6760414100
 C          5.4382554520       -0.0163036282       -0.9797514637
 N          6.5483108706        0.2626093218       -1.0238212558
 C          4.5322910735       -2.2619658454        0.5590235125
 F          5.4631779331       -2.8239893117       -0.2322805776
 F          3.9376294323       -3.2691952804        1.2095407737
 F          5.1973507701       -1.5530058830        1.4860978388
 O         -2.8544547156       -2.9454262052        0.3421635701
 H         -2.2132360683       -2.6988154521       -2.3159984837
 H         -2.5439404067       -0.9520175723       -2.3030250742
 H         -3.7993382619       -2.1080301088       -1.8304485913
 H         -3.8603237571       -0.4209746619        0.1206679012
 H         -2.6900000223       -0.6623603368        1.4390822034
 H         -2.1516026489        2.5577756327        2.2778764964
 H         -3.8039505152        4.3161587766        2.9863104669
 H         -5.8283509281        3.8909002221       -0.7506652223
 H         -4.1680268095        2.1388556701       -1.4402096536
 H         -0.5534784401       -0.4723612701       -1.5456802057
 H          1.8417892354       -2.5385592139        0.3657022708
 H          3.5435360440        1.2989366012       -2.2474672135
 H          1.1268591570        0.7886000472       -2.2268407875
 H         -2.1357751031       -3.3543055556        0.8615324974
  43
  -89.944365989999994        9.0436355216525352E-006 !
 C         -2.7694772939       -1.9361049896       -1.6925069164
 C         -2.3153377119       -1.8410219418       -0.2340837875
 C         -2.8091582154       -0.5309345062        0.4219390406
 S         -1.9432616464        0.9887903996       -0.0856012320
 O         -0.7373104288        1.1198940862        0.6827716180
 O         -1.7894643330        0.9856970535       -1.5270265580
 C         -3.0836120540        2.2971735061        0.3646333730
 C         -2.9460916511        2.9165568487        1.5930625158
 C         -3.8397880056        3.9084822891        1.9560877531
 C         -4.8489571746        4.2472531439        1.0678868195
 C         -4.9889907817        3.6342202594       -0.1679737860
 C         -4.0895490687        2.6434623390       -0.5188334237
 F         -5.7201658207        5.2056528930        1.4143849621
 C         -0.7770387043       -1.9419831946       -0.0875185503
 O         -0.3266892295       -2.7067059252        0.7406798523
 N         -0.0608578165       -1.1787507609       -0.9406969125
 C          1.3107701574       -0.9508632504       -0.9217987273
 C          2.1990247457       -1.7324257104       -0.1838288471
 C          3.5518527303       -1.4496234596       -0.2236240764
 C          4.0430675360       -0.3900725730       -0.9958953162
 C          3.1440024776        0.3860725775       -1.7302674966
 C          1.7964754364        0.1061578417       -1.6942656643
 C          5.4242577612       -0.0880414181       -1.0482938573
 N          6.5352617151        0.1823354969       -1.1156145328
 C          4.5264278133       -2.2844942444        0.5644388144
 F          5.2136037503       -1.5560037256        1.4596107282
 F          5.4385403210       -2.8769292258       -0.2266398069
 F          3.9345326432       -3.2677065648        1.2530987257
 O         -2.8688970027       -2.9085685624        0.4880727936
 H         -3.8373458274       -2.1419927958       -1.7007420656
 H         -2.2619462977       -2.7615986735       -2.1852938975
 H         -2.5801979399       -1.0130228542       -2.2306444339
 H         -3.8616833047       -0.3863540467        0.1879885647
 H         -2.6775484084       -0.5898351858        1.5004883551
 H         -2.1327332859        2.6250020844        2.2381336954
 H         -3.7649585134        4.4184284799        2.9030377261
 H         -5.7843309432        3.9371406481       -0.8298644387
 H         -4.1446273385        2.1488720882       -1.4755177654
 H         -0.5777826112       -0.5180974678       -1.5151174423
 H          1.8311330836       -2.5451478999        0.4209928129
 H          3.5195904684        1.2064185690       -2.3224448921
 H          1.0999821751        0.7142034979       -2.2518775651
 H         -2.1456373080       -3.3043292996        1.0112857956
  43
  -89.944126749999995        7.0209512823185499E-006 !
 C         -2.8296864783       -1.9503467432       -1.9836790280
 C         -2.6418614719       -2.0427372785       -0.4635521133
 C         -2.9498690015       -0.7015673006        0.2330046774
 S         -2.5963198503        0.8179081454       -0.7145460128
 O         -1.2098266902        0.7749185562       -1.1437013253
 O         -3.5896451228        1.0207515231       -1.7241956054
 C         -2.7484268079        2.1021260564        0.5288363877
 C         -3.9689681810        2.7314609265        0.6921202809
 C         -4.1053326114        3.7088427916        1.6616514294
 C         -3.0035855406        4.0254909906        2.4415580134
 C         -1.7748739167        3.4041645025        2.2791270860
 C         -1.6523714837        2.4275797676        1.3067835178
 F         -3.1296894500        4.9694761824        3.3848554507
 C         -1.2070274014       -2.5407828136       -0.1645298104
 O         -1.0600967663       -3.6562163313        0.2959002307
 N         -0.2254662093       -1.6652208491       -0.4630975909
 C          1.1457182634       -1.8344520892       -0.3229771427
 C          1.9485450498       -0.7300997127       -0.6243706626
 C          3.3201795741       -0.8163244739       -0.5014638195
 C          3.9216132725       -2.0109958086       -0.0812765881
 C          3.1119860934       -3.1085631520        0.2121107854
 C          1.7398967354       -3.0249065039        0.0964829757
 C          5.3257185785       -2.1241065838        0.0507455808
 N          6.4583159654       -2.2473012845        0.1679781485
 C          4.1918618074        0.3720267990       -0.8089190377
 F          3.4839444924        1.4510130361       -1.1730256708
 F          5.0542407233        0.1295193449       -1.8075627629
 F          4.9256281427        0.7484655210        0.2524518930
 O         -3.5267547981       -2.9929399360        0.0731004551
 H         -2.6400997370       -2.9251112081       -2.4285180804
 H         -2.1630374351       -1.2149445093       -2.4231238565
 H         -3.8558577412       -1.6642106598       -2.1980672626
 H         -4.0197294677       -0.6714407842        0.4296929089
 H         -2.4060314060       -0.6048568335        1.1711938746
 H         -4.7883461487        2.4599798774        0.0460151348
 H         -5.0387887686        4.2253813222        1.8171343756
 H         -0.9421187946        3.6904700059        2.9011662256
 H         -0.7111085896        1.9313166300        1.1313539690
 H         -0.5048180631       -0.7430263206       -0.8182396589
 H          1.4850878332        0.1874390284       -0.9562724125
 H          3.5738550332       -4.0294337493        0.5334889049
 H          1.1225169575       -3.8765909828        0.3292896508
 H         -2.9882523176       -3.7594328251        0.3467862543
  43
  -89.944126729999994        7.0208026931900421E-006 !
 C         -2.8333854994       -1.9589900228       -1.9699255550
 C         -2.5966887405       -2.1002976489       -0.4604219225
 C         -2.9203470354       -0.7943672564        0.2936260805
 S         -2.6379557185        0.7676675572       -0.6074575258
 O         -1.2641427606        0.7803225549       -1.0774393838
 O         -3.6660693376        0.9775188535       -1.5801779238
 C         -2.7889632237        2.0019585611        0.6856278412
 C         -1.6812199115        2.3268181229        1.4471103360
 C         -1.8019780022        3.2646100943        2.4571169345
 C         -3.0407021464        3.8487549479        2.6728101306
 C         -4.1543728755        3.5326426064        1.9098232533
 C         -4.0196793047        2.5942433045        0.9022874804
 F         -3.1650045592        4.7549069524        3.6527303177
 C         -1.1401177902       -2.5674755424       -0.2229877217
 O         -0.9483539366       -3.6942668829        0.1909540133
 N         -0.1927482057       -1.6536980740       -0.5174302312
 C          1.1862424846       -1.7885889999       -0.4246615651
 C          1.9485610159       -0.6506660545       -0.7056347626
 C          3.3251825435       -0.7020237177       -0.6270353986
 C          3.9720667473       -1.8943603938       -0.2729424479
 C          3.2025194762       -3.0254033526        0.0004847228
 C          1.8257242898       -2.9768631556       -0.0707818285
 C          5.3821818703       -1.9720700617       -0.1876209381
 N          6.5208456695       -2.0668205291       -0.1084930688
 C          4.1537705827        0.5221416794       -0.9123432829
 F          4.9092718623        0.8775541919        0.1409989637
 F          3.4054016106        1.5937513620       -1.2115594591
 F          4.9912809963        0.3440829535       -1.9451324678
 O         -3.4380579906       -3.0942247636        0.0669694322
 H         -2.2009800224       -1.1894950840       -2.4015335343
 H         -3.8731153914       -1.6948721144       -2.1432681938
 H         -2.6306755538       -2.9113284180       -2.4556794340
 H         -3.9841705851       -0.8020922192        0.5225744996
 H         -2.3511848227       -0.7158442208        1.2183885942
 H         -0.7330420375        1.8610754964        1.2301462147
 H         -0.9605100117        3.5492791267        3.0680809538
 H         -5.0957238241        4.0195945208        2.1074672826
 H         -4.8487873931        2.3253043811        0.2676291009
 H         -0.5081904015       -0.7274181796       -0.8291091565
 H          1.4499070356        0.2653436021       -0.9868704789
 H          3.6993608336       -3.9444376996        0.2709250979
 H          1.2395686751       -3.8543239691        0.1464986630
 H         -2.8704866256       -3.8544983591        0.2955382862
  43
  -89.944126710000006        7.0206541073117937E-006 !
 C         -2.8196232138       -1.7736413978       -2.1561868704
 C         -2.6441160382       -1.9893657080       -0.6471279097
 C         -2.9539683725       -0.7079038704        0.1532912424
 S         -2.5886440466        0.8820206847       -0.6654540726
 O         -1.1990675748        0.8689771702       -1.0865169491
 O         -3.5736692819        1.1695174730       -1.6625997375
 C         -2.7463092227        2.0617933195        0.6767973204
 C         -3.9662150640        2.6800472065        0.8818568059
 C         -4.1069126738        3.5761301465        1.9264217207
 C         -3.0100367727        3.8247306441        2.7372539767
 C         -1.7819567088        3.2143249183        2.5337758794
 C         -1.6551043598        2.3193103460        1.4863799496
 F         -3.1404361634        4.6894609465        3.7531569911
 C         -1.2130925288       -2.5148386934       -0.3783045225
 O         -1.0728903621       -3.6642621478       -0.0082525329
 N         -0.2267899142       -1.6213619041       -0.5976355133
 C          1.1427782473       -1.8060487017       -0.4613097756
 C          1.9510620396       -0.6838857152       -0.6671985185
 C          3.3214593772       -0.7844459921       -0.5414000565
 C          3.9162251149       -2.0110492917       -0.2139286515
 C          3.1012104046       -3.1257823222       -0.0155094493
 C          1.7302946271       -3.0283607478       -0.1342635412
 C          5.3189550793       -2.1392640223       -0.0809977202
 N          6.4501984282       -2.2752394911        0.0350093760
 C          4.1988967821        0.4216792299       -0.7460947842
 F          5.0683737728        0.2569311382       -1.7543905737
 F          4.9253916093        0.7093916980        0.3475458306
 F          3.4969109215        1.5287814716       -1.0279752944
 O         -3.5358464805       -2.9768602525       -0.1959389974
 H         -2.6291342342       -2.7098333506       -2.6769947395
 H         -2.1475623099       -1.0072906074       -2.5295442333
 H         -3.8433041879       -1.4677421000       -2.3545864318
 H         -4.0252809027       -0.6901026864        0.3435067258
 H         -2.4173384688       -0.6892796575        1.1003912264
 H         -4.7816171175        2.4645877617        0.2101113271
 H         -5.0400532301        4.0814769114        2.1167091985
 H         -0.9529744876        3.4464207039        3.1828639405
 H         -0.7139685406        1.8357430402        1.2779034460
 H         -0.5007816849       -0.6726009268       -0.8794050029
 H          1.4927852013        0.2589291744       -0.9277909422
 H          3.5579532543       -4.0710401142        0.2344619661
 H          1.1087078452       -3.8938287111        0.0248528014
 H         -3.0016119052       -3.7647126919        0.0191948304
  43
  -89.944126710000006        7.0206541073117937E-006 !
 C         -2.8366663427       -1.9611641044       -1.9684169445
 C         -2.5977597716       -2.1019563752       -0.4592178754
 C         -2.9203805372       -0.7957742843        0.2948718826
 S         -2.6396457519        0.7658996327       -0.6073805418
 O         -1.2670212176        0.7780543911       -1.0808372095
 O         -3.6701934216        0.9757056220       -1.5775278423
 C         -2.7868377877        2.0005905191        0.6857707400
 C         -1.6756294348        2.3294029180        1.4404707589
 C         -1.7932904824        3.2675507953        2.4505251095
 C         -3.0325385047        3.8479301392        2.6732148806
 C         -4.1497389764        3.5278055703        1.9170706228
 C         -4.0181049827        2.5891802205        0.9093384767
 F         -3.1538407732        4.7544877989        3.6531406747
 C         -1.1408314914       -2.5686570713       -0.2230679005
 O         -0.9483034689       -3.6951351697        0.1913511478
 N         -0.1940376501       -1.6548687205       -0.5193409392
 C          1.1850439519       -1.7887659782       -0.4265015380
 C          1.9465548677       -0.6503420021       -0.7076379002
 C          3.3231750103       -0.7004543398       -0.6281670455
 C          3.9708786661       -1.8920419493       -0.2730632103
 C          3.2021542711       -3.0236820971        0.0002232935
 C          1.8253558398       -2.9763527703       -0.0718066077
 C          5.3809824227       -1.9683763539       -0.1864648524
 N          6.5196447031       -2.0622465525       -0.1069561629
 C          4.1508299983        0.5243942574       -0.9132366826
 F          4.9040025642        0.8816783360        0.1411644754
 F          3.4017097471        1.5948512684       -1.2147285026
 F          4.9903924294        0.3464090227       -1.9443376607
 O         -3.4383347208       -3.0957184286        0.0697433308
 H         -3.8767019688       -1.6972752714       -2.1403436135
 H         -2.6345377021       -2.9136775482       -2.4540596863
 H         -2.2049943137       -1.1917611273       -2.4012689708
 H         -3.9838229940       -0.8035088279        0.5255878700
 H         -2.3496510522       -0.7167743403        1.2186380111
 H         -0.7273584193        1.8663726407        1.2181867850
 H         -0.9490525825        3.5553345775        3.0561907803
 H         -5.0913690825        4.0120980220        2.1198623693
 H         -4.8501064396        2.3175156090        0.2796506899
 H         -0.5101214905       -0.7290374842       -0.8316718028
 H          1.4472714212        0.2650887074       -0.9896316421
 H          3.6996290577       -3.9421393251        0.2714582991
 H          1.2398391626       -3.8542340657        0.1454714531
 H         -2.8703240434       -3.8556520650        0.2983552841
  43
  -89.944126679999997        7.0204312341794289E-006 !
 C         -2.8330491579       -1.8748354460       -2.0491262996
 C         -2.6177887753       -2.0545471420       -0.5405025265
 C         -2.9346636171       -0.7624901565        0.2399221400
 S         -2.6207168228        0.8163995818       -0.6204891352
 O         -1.2413401553        0.8216991198       -1.0740187943
 O         -3.6342299422        1.0629631414       -1.5998653212
 C         -2.7709323920        2.0215246225        0.6999335344
 C         -1.6682768207        2.3128283775        1.4821083714
 C         -1.7888465112        3.2273882610        2.5132260178
 C         -3.0222750885        3.8227632497        2.7285633117
 C         -4.1307336914        3.5402846477        1.9450623215
 C         -3.9962834800        2.6248497905        0.9165703575
 F         -3.1463697785        4.7066252454        3.7286684653
 C         -1.1704607696       -2.5457526046       -0.2949502890
 O         -0.9983941688       -3.6839194741        0.0957593928
 N         -0.2078565967       -1.6379124848       -0.5568504195
 C          1.1680482181       -1.7925669777       -0.4499504717
 C          1.9483287089       -0.6596319429       -0.7000583790
 C          3.3231125813       -0.7304592985       -0.6056083739
 C          3.9501162772       -1.9374624305       -0.2657991330
 C          3.1627751459       -3.0632294223       -0.0230001679
 C          1.7877237734       -2.9954525814       -0.1104548028
 C          5.3579673843       -2.0351645915       -0.1646740521
 N          6.4941754115       -2.1461424122       -0.0729950384
 C          4.1709185666        0.4876834321       -0.8583697014
 F          5.0191661462        0.3171769101       -1.8836855234
 F          4.9174847204        0.8143006012        0.2105719263
 F          3.4402713158        1.5741735643       -1.1475871296
 O         -3.4785519820       -3.0495028112       -0.0474446354
 H         -2.1855441787       -1.1035876560       -2.4543852759
 H         -3.8670903444       -1.5934974248       -2.2292587233
 H         -2.6359403737       -2.8179948410       -2.5546795992
 H         -4.0014139946       -0.7616352479        0.4550453594
 H         -2.3767593634       -0.7131655591        1.1735355142
 H         -0.7237833821        1.8396920220        1.2650593676
 H         -0.9510547776        3.4860122255        3.1406044665
 H         -5.0679047152        4.0349102835        2.1435098809
 H         -4.8210853745        2.3827843193        0.2656855007
 H         -0.5075779845       -0.7009934802       -0.8517015199
 H          1.4650520562        0.2679277734       -0.9700385716
 H          3.6443408874       -3.9935230319        0.2363549497
 H          1.1876810795       -3.8691589391        0.0827200491
 H         -2.9235512060       -3.8218165298        0.1714551869
  43
  -89.944126659999995        7.0202826560570503E-006 !
 C         -2.8309120209       -1.9518164851       -1.9836730086
 C         -2.6427980046       -2.0441468797       -0.4635716493
 C         -2.9510526518       -0.7030435912        0.2330439332
 S         -2.5980483497        0.8164799096       -0.7146776692
 O         -1.2122425428        0.7729174341       -1.1460296188
 O         -3.5928657603        1.0200050288       -1.7227116086
 C         -2.7470771690        2.1007393861        0.5290636413
 C         -3.9662205792        2.7324594500        0.6934868482
 C         -4.0996989629        3.7102353225        1.6630351772
 C         -2.9965545077        4.0248980830        2.4417659763
 C         -1.7692072947        3.4011805226        2.2781787563
 C         -1.6496185195        2.4241866893        1.3058879120
 F         -3.1198443615        4.9693444580        3.3849736960
 C         -1.2077917106       -2.5417995776       -0.1647433666
 O         -1.0604149522       -3.6572294660        0.2955432518
 N         -0.2266105469       -1.6656779032       -0.4629184140
 C          1.1446662941       -1.8342243456       -0.3228503323
 C          1.9468717186       -0.7293512512       -0.6240213823
 C          3.3185690443       -0.8148797835       -0.5013591226
 C          3.9206845922       -2.0094224616       -0.0818131981
 C          3.1116823553       -3.1074161539        0.2116802035
 C          1.7395143890       -3.0244070978        0.0964273980
 C          5.3248578933       -2.1219165390        0.0495839411
 N          6.4575223016       -2.2444027322        0.1667755091
 C          4.1895110870        0.3740875304       -0.8084712827
 F          3.4807849385        1.4531760138       -1.1707139840
 F          5.0509510751        0.1329566199       -1.8082492299
 F          4.9241929343        0.7496960147        0.2525502640
 O         -3.5273355441       -2.9945886629        0.0732544051
 H         -3.8571938424       -1.6659849086       -2.1979328990
 H         -2.6410935565       -2.9265308775       -2.4285299398
 H         -2.1645511048       -1.2162178501       -2.4232121507
 H         -4.0209192576       -0.6731330524        0.4297043544
 H         -2.4072204397       -0.6061804460        1.1712321715
 H         -4.7867625917        2.4625300281        0.0482070480
 H         -5.0319737135        4.2286566599        1.8193454597
 H         -0.9352610275        3.6859484687        2.8993299883
 H         -0.7094781796        1.9261180750        1.1295687531
 H         -0.5064069823       -0.7437701390       -0.8184964993
 H          1.4828791648        0.1880209015       -0.9556502493
 H          3.5740814531       -4.0280900674        0.5328672753
 H          1.1225889186       -3.8764109340        0.3292693125
 H         -2.9886308250       -3.7610736463        0.3465412571
  43
  -89.944126600000004        7.0198369406619468E-006 !
 C         -2.8352528874       -2.0523463311       -1.8679143418
 C         -2.6095899071       -2.1053490222       -0.3510468701
 C         -2.9288949487       -0.7547534599        0.3217894051
 S         -2.6292748337        0.7490110541       -0.6684699304
 O         -1.2528416928        0.7237560643       -1.1301974462
 O         -3.6503763245        0.9084701352       -1.6579933314
 C         -2.7778317680        2.0585161425        0.5486914409
 C         -1.6709978105        2.4215412877        1.2941189903
 C         -1.7900424288        3.4178148060        2.2467276080
 C         -3.0262513785        4.0202927465        2.4229161894
 C         -4.1389400716        3.6660098521        1.6753757138
 C         -4.0059375747        2.6693031024        0.7252248202
 F         -3.1489306342        4.9832363513        3.3473192784
 C         -1.1580363870       -2.5671912545       -0.0755105759
 O         -0.9770790531       -3.6683987934        0.4065355987
 N         -0.2022307455       -1.6791973530       -0.4177131810
 C          1.1751644529       -1.8177846363       -0.3080979708
 C          1.9475556074       -0.7049924763       -0.6546288729
 C          3.3233172465       -0.7611113792       -0.5644947351
 C          3.9592781221       -1.9336363471       -0.1328970090
 C          3.1797479041       -3.0398858613        0.2058732267
 C          1.8037573058       -2.9861331751        0.1232312682
 C          5.3682858102       -2.0161050513       -0.0348395158
 N          6.5057233266       -2.1141299755        0.0562257592
 C          4.1626307447        0.4367797567       -0.9210510714
 F          3.4237996122        1.4939713442       -1.2876829662
 F          5.0015566715        0.1892431137       -1.9383112319
 F          4.9180149941        0.8499199686        0.1110338792
 O         -3.4615677149       -3.0604527824        0.2284570241
 H         -2.6359454999       -3.0331813358       -2.2947784284
 H         -2.1946615843       -1.3140463205       -2.3400285485
 H         -3.8719428763       -1.7922068968       -2.0640178189
 H         -3.9942579627       -0.7416471915        0.5432156428
 H         -2.3653682561       -0.6252259293        1.2442687214
 H         -0.7247191161        1.9386305761        1.1085883829
 H         -0.9491217849        3.7334375378        2.8430984374
 H         -5.0782500472        4.1688253767        1.8404232272
 H         -4.8344675829        2.3676341973        0.1046652456
 H         -0.5090249860       -0.7713389596       -0.7868812161
 H          1.4573493882        0.1952824754       -0.9952916660
 H          3.6681743401       -3.9437866197        0.5359900095
 H          1.2098637552       -3.8443094728        0.3906965251
 H         -2.9009102226       -3.8093057617        0.5064595687
  43
  -89.944126549999993        7.0194655326421469E-006 !
 C         -2.8298935519       -1.9483701866       -1.9851052962
 C         -2.6417686703       -2.0421246904       -0.4651148551
 C         -2.9494155605       -0.7015430130        0.2326932377
 S         -2.5962572489        0.8185846784       -0.7139643438
 O         -1.2097556193        0.7761345340       -1.1431138402
 O         -3.5896481425        1.0217884524       -1.7234646849
 C         -2.7486856797        2.1021164477        0.5300818948
 C         -3.9712327990        2.7262250066        0.6982422277
 C         -4.1078475965        3.7031676447        1.6681781233
 C         -3.0043366432        4.0247141672        2.4435398664
 C         -1.7736766351        3.4086289931        2.2762687320
 C         -1.6509220354        2.4323826061        1.3035443872
 F         -3.1307343515        4.9681702911        3.3872743213
 C         -1.2068970791       -2.5405877259       -0.1670621470
 O         -1.0599610666       -3.6565637346        0.2920263485
 N         -0.2252867370       -1.6648428554       -0.4649334263
 C          1.1458706668       -1.8345557282       -0.3252356446
 C          1.9488917392       -0.7296931169       -0.6242355232
 C          3.3204968714       -0.8164014143       -0.5014930640
 C          3.9217049210       -2.0121114419       -0.0840163796
 C          3.1118957261       -3.1102106964        0.2069058044
 C          1.7398440202       -3.0260673079        0.0914830196
 C          5.3257800259       -2.1259266254        0.0472486413
 N          6.4582701430       -2.2493165881        0.1651726134
 C          4.1923032152        0.3725785371       -0.8059444570
 F          3.4845673750        1.4524980596       -1.1675133626
 F          5.0547898054        0.1324905310       -1.8050093540
 F          4.9259189665        0.7463782483        0.2564150566
 O         -3.5265636865       -2.9927266737        0.0710242073
 H         -2.1633741370       -1.2125663914       -2.4240923530
 H         -3.8561229523       -1.6621473525       -2.1990497271
 H         -2.6403182976       -2.9227886431       -2.4307064872
 H         -4.0191700733       -0.6716623036        0.4300354447
 H         -2.4049955258       -0.6055278762        1.1706241473
 H         -4.7920498487        2.4513866031        0.0554645551
 H         -5.0428621823        4.2155636304        1.8275318054
 H         -0.9396579460        3.6986702157        2.8947817241
 H         -0.7083544576        1.9400659165        1.1243124299
 H         -0.5045437950       -0.7421511847       -0.8187363346
 H          1.4855968603        0.1886983318       -0.9539523275
 H          3.5736219236       -4.0320033383        0.5258621213
 H          1.1223292258       -3.8781833369        0.3224154775
 H         -2.9880719780       -3.7595834647        0.3437110674
  43
  -89.944126539999999        7.0193912534596149E-006 !
 C         -2.8309010510       -1.9605145440       -1.9669307053
 C         -2.5952185816       -2.0994694554       -0.4570462001
 C         -2.9193986553       -0.7924105856        0.2947717444
 S         -2.6364756393        0.7682228081       -0.6085143044
 O         -1.2618180395        0.7809331918       -1.0759693423
 O         -3.6629315220        0.9757695959       -1.5834880150
 C         -2.7911991551        2.0041554946        0.6825462612
 C         -1.6841744727        2.3353992345        1.4422905890
 C         -1.8083478057        3.2739231560        2.4512297156
 C         -3.0496898503        3.8521643058        2.6677325825
 C         -4.1626868100        3.5296721804        1.9064169971
 C         -4.0245463166        2.5907333042        0.8998618881
 F         -3.1773283380        4.7588787046        3.6467150528
 C         -1.1388257232       -2.5661954447       -0.2176737156
 O         -0.9474430605       -3.6923171405        0.1982743818
 N         -0.1911130205       -1.6533077271       -0.5138116399
 C          1.1878412177       -1.7887116882       -0.4208687527
 C          1.9508597292       -0.6522197028       -0.7057289422
 C          3.3274629447       -0.7041730738       -0.6270019256
 C          3.9736230122       -1.8955849569       -0.2684942293
 C          3.2033923306       -3.0252291511        0.0087313914
 C          1.8266396228       -2.9761451584       -0.0629265172
 C          5.3836476830       -1.9737053956       -0.1822184820
 N          6.5221605750       -2.0688540571       -0.1022880572
 C          4.1568770204        0.5183929017       -0.9167183043
 F          4.9096553274        0.8792777521        0.1367608701
 F          3.4094199959        1.5884525252       -1.2235848782
 F          4.9970919802        0.3348191572       -1.9463156267
 O         -3.4369552723       -3.0925345256        0.0713701113
 H         -2.6276246328       -2.9136013553       -2.4509690055
 H         -2.1983527045       -1.1915611870       -2.3993144400
 H         -3.8705641076       -1.6969028979       -2.1414765284
 H         -3.9833494460       -0.7998494901        0.5231478169
 H         -2.3507367000       -0.7123241976        1.2197165454
 H         -0.7340704737        1.8738288335        1.2248414555
 H         -0.9675828552        3.5634702669        3.0608719137
 H         -5.1061930954        4.0122178615        2.1045902811
 H         -4.8531597874        2.3168183833        0.2666890558
 H         -0.5061522004       -0.7273648531       -0.8268049229
 H          1.4527732991        0.2631186471       -0.9901352806
 H          3.6996502886       -3.9435358029        0.2826922319
 H          1.2399857545       -3.8525377041        0.1572713722
 H         -2.8694714921       -3.8522657132        0.3019797772
  43
  -89.944126440000005        7.0186485044415826E-006 !
 C         -2.8144219383       -1.7702558629       -2.1575100357
 C         -2.6418978932       -1.9866433678       -0.6481936049
 C         -2.9531248764       -0.7055588881        0.1522312476
 S         -2.5859827367        0.8847005961       -0.6649784026
 O         -1.1948306069        0.8725215101       -1.0807984955
 O         -3.5674107039        1.1717279862       -1.6658124726
 C         -2.7499968141        2.0640368717        0.6768886468
 C         -3.9716739116        2.6802165698        0.8776549637
 C         -4.1177381362        3.5756734092        1.9220051910
 C         -3.0242858979        3.8257869603        2.7369680634
 C         -1.7944455680        3.2175326142        2.5377923075
 C         -1.6622126449        2.3230877441        1.4905668895
 F         -3.1598448627        4.6900194198        3.7526137974
 C         -1.2114563243       -2.5125738497       -0.3771951500
 O         -1.0722886109       -3.6623696138       -0.0078845137
 N         -0.2243904450       -1.6195333116       -0.5949155830
 C          1.1450365131       -1.8057884211       -0.4590554892
 C          1.9546268076       -0.6846787119       -0.6655473595
 C          3.3249964764       -0.7870505150       -0.5408340217
 C          3.9183822856       -2.0143698488       -0.2136078632
 C          3.1020829542       -3.1280013533       -0.0144151624
 C          1.7312124406       -3.0287948921       -0.1321959202
 C          5.3210482718       -2.1444606370       -0.0817965566
 N          6.4521534313       -2.2819377766        0.0332833646
 C          4.2039299894        0.4178001054       -0.7466427844
 F          5.0725100585        0.2513230040       -1.7554488572
 F          4.9315785044        0.7050127948        0.3463547995
 F          3.5033281357        1.5257317426       -1.0286457888
 O         -3.5346522758       -2.9741945942       -0.1991573220
 H         -2.1415507685       -1.0037552557       -2.5290933985
 H         -3.8376657187       -1.4641849137       -2.3578900153
 H         -2.6228721707       -2.7062177505       -2.6783547292
 H         -4.0248083538       -0.6877938200        0.3403293247
 H         -2.4183969597       -0.6874210694        1.1004143361
 H         -4.7841427435        2.4638594894        0.2026593111
 H         -5.0523478863        4.0795694064        2.1088862745
 H         -0.9683169104        3.4506834014        3.1901256119
 H         -0.7195914658        1.8409520665        1.2855359215
 H         -0.4974753888       -0.6702020004       -0.8755890076
 H          1.4973873642        0.2587825003       -0.9256164933
 H          3.5577767976       -4.0739028388        0.2350337291
 H          1.1086608080       -3.8935430648        0.0270450179
 H         -3.0009742745       -3.7623157554        0.0163949151
  43
  -89.944126400000002        7.0183514267987108E-006 !
 C         -2.8176856417       -1.7659728775       -2.1613257761
 C         -2.6426254549       -1.9865988018       -0.6529038716
 C         -2.9524866800       -0.7077476316        0.1516247288
 S         -2.5864066405        0.8847500305       -0.6617241459
 O         -1.1955729567        0.8737372784       -1.0786991174
 O         -3.5686483213        1.1742460934       -1.6610525509
 C         -2.7490015265        2.0614803364        0.6826140482
 C         -3.9675628495        2.6848836176        0.8798099968
 C         -4.1119562415        3.5797189661        1.9249322630
 C         -3.0199872723        3.8219397892        2.7442380073
 C         -1.7932364841        3.2062628500        2.5487728960
 C         -1.6626651402        2.3125459914        1.5007358982
 F         -3.1538549860        4.6856888555        3.7605228554
 C         -1.2117229627       -2.5137408585       -0.3867057962
 O         -1.0719114138       -3.6650952837       -0.0225344126
 N         -0.2250621432       -1.6196099892       -0.6017174217
 C          1.1445365354       -1.8061522242       -0.4680368202
 C          1.9531998737       -0.6825054478       -0.6640909450
 C          3.3236837290       -0.7850120390       -0.5408591694
 C          3.9181672776       -2.0151055107       -0.2262590222
 C          3.1027752384       -3.1312298485       -0.0375124971
 C          1.7317469091       -3.0318324954       -0.1533032791
 C          5.3210268772       -2.1455358124       -0.0970379076
 N          6.4523986821       -2.2834271769        0.0154741924
 C          4.2014872580        0.4226535212       -0.7345958220
 F          5.0683240174        0.2683148970       -1.7468232821
 F          4.9309302846        0.6979034611        0.3602680281
 F          3.4996068820        1.5332757558       -1.0025992472
 O         -3.5346634843       -2.9753354686       -0.2050004649
 H         -3.8411575121       -1.4589936189       -2.3590970245
 H         -2.6273327954       -2.7005552767       -2.6850824117
 H         -2.1451502433       -0.9986792808       -2.5318995785
 H         -4.0238940075       -0.6903605196        0.3413414209
 H         -2.4163719334       -0.6924137315        1.0990651505
 H         -4.7788886292        2.4741759047        0.2016611306
 H         -5.0441713070        4.0889807283        2.1091887819
 H         -0.9679682526        3.4337092653        3.2042038092
 H         -0.7218652468        1.8259223806        1.2978604742
 H         -0.4985897940       -0.6690243498       -0.8777567734
 H          1.4951626325        0.2629602093       -0.9153259984
 H          3.5593280183       -4.0792155921        0.2022910340
 H          1.1098783280       -3.8984969726       -0.0019616300
 H         -3.0008476192       -3.7646710974        0.0056893994
  43
  -89.944126139999995        7.0164207287021421E-006 !
 C         -2.8169273684       -1.8587087010       -2.0794671117
 C         -2.6250636990       -2.0350156836       -0.5672787399
 C         -2.9437929663       -0.7381894026        0.2043453616
 S         -2.6056390486        0.8355209599       -0.6562777557
 O         -1.2197018593        0.8292849833       -1.0893116017
 O         -3.6027261231        1.0863845435       -1.6513194756
 C         -2.7665420285        2.0457578399        0.6581656574
 C         -3.9890761475        2.6624374927        0.8517024600
 C         -4.1319690400        3.5818819613        1.8754567178
 C         -3.0346210214        3.8546493320        2.6777885070
 C         -1.8038761215        3.2459169669        2.4856030207
 C         -1.6747663349        2.3276008694        1.4588680069
 F         -3.1670234217        4.7422335100        3.6735162457
 C         -1.1851131910       -2.5360364854       -0.2993761995
 O         -1.0272510634       -3.6741726765        0.0974780402
 N         -0.2120262157       -1.6364359605       -0.5504311015
 C          1.1611289125       -1.8019211920       -0.4257940360
 C          1.9538931641       -0.6767255989       -0.6716255221
 C          3.3268203868       -0.7587380320       -0.5608573130
 C          3.9396168826       -1.9694591769       -0.2085043233
 C          3.1399254267       -3.0873347501        0.0303584762
 C          1.7666222468       -3.0083339121       -0.0734601560
 C          5.3452983774       -2.0787595926       -0.0908440783
 N          6.4794175923       -2.1995256464        0.0135019278
 C          4.1878848933        0.4509561344       -0.8093687842
 F          4.9257557591        0.7755571953        0.2661665260
 F          3.4699446982        1.5424934473       -1.1109901875
 F          5.0455736220        0.2686522861       -1.8247497984
 O         -3.5001625991       -3.0220531632       -0.0836796922
 H         -2.1577717534       -1.0937293446       -2.4778117708
 H         -3.8460500479       -1.5701666838       -2.2757018673
 H         -2.6196481898       -2.8050795189       -2.5789072585
 H         -4.0135341432       -0.7288422650        0.4037619713
 H         -2.3992123604       -0.6897549063        1.1458161749
 H         -4.8047610366        2.4272508179        0.1869677148
 H         -5.0672864473        4.0867445232        2.0562074281
 H         -0.9746890383        3.4971337812        3.1272686211
 H         -0.7315123675        1.8442813306        1.2594197346
 H         -0.5003969157       -0.6982235397       -0.8524721619
 H          1.4816798544        0.2537222816       -0.9511087636
 H          3.6105206633       -4.0204258697        0.2996076045
 H          1.1570259148       -3.8760920893        0.1164680349
 H         -2.9541201896       -3.7977205415        0.1456459392
  43
  -89.944126080000004        7.0159752584995259E-006 !
 C         -2.8286553036       -1.8709432594       -2.0499146112
 C         -2.6148685625       -2.0516178352       -0.5411761259
 C         -2.9322056299       -0.7601544041        0.2399025309
 S         -2.6178264347        0.8191704329       -0.6193776435
 O         -1.2367763789        0.8263728794       -1.0676919261
 O         -3.6281213627        1.0642161678       -1.6024984581
 C         -2.7755841673        2.0236966547        0.7006821263
 C         -1.6731535845        2.3290131548        1.4777361771
 C         -1.8002373598        3.2431496998        2.5084844909
 C         -3.0398226685        3.8236921837        2.7287649598
 C         -4.1482357809        3.5270530965        1.9504157565
 C         -4.0071933824        2.6124486150        0.9221102379
 F         -3.1703317377        4.7068059109        3.7287228271
 C         -1.1678694034       -2.5435609196       -0.2955163025
 O         -0.9965007247       -3.6825067420        0.0933671789
 N         -0.2046529268       -1.6359090399       -0.5555930633
 C          1.1711464859       -1.7924000478       -0.4497861822
 C          1.9527662236       -0.6599420829       -0.6979012491
 C          3.3275527405       -0.7329292609       -0.6053013415
 C          3.9533199903       -1.9416316725       -0.2693172170
 C          3.1646743422       -3.0669012144       -0.0284299697
 C          1.7896082809       -2.9969205502       -0.1138498544
 C          5.3611215390       -2.0414421587       -0.1694998972
 N          6.4973135621       -2.1543278126       -0.0796949597
 C          4.1768369836        0.4846695004       -0.8557345533
 F          5.0243530859        0.3153202129       -1.8818229727
 F          4.9243491867        0.8078530873        0.2135592584
 F          3.4475039870        1.5727708186       -1.1421287177
 O         -3.4761871139       -3.0467693565       -0.0495061772
 H         -3.8624161409       -1.5892112602       -2.2310639747
 H         -2.6312431819       -2.8139290903       -2.5556839728
 H         -2.1805619724       -1.0996002297       -2.4541071000
 H         -3.9990085008       -0.7596931128        0.4546712916
 H         -2.3744937475       -0.7110170255        1.1736349577
 H         -0.7241220109        1.8668905934        1.2568364545
 H         -0.9629428929        3.5123335344        3.1320732070
 H         -5.0904214777        4.0105666071        2.1524803544
 H         -4.8319135396        2.3601096131        0.2750437856
 H         -0.5035735981       -0.6980866940       -0.8483411237
 H          1.4704591747        0.2689506183       -0.9650305516
 H          3.6452342192       -3.9984942349        0.2280944482
 H          1.1886564240       -3.8703012242        0.0779095991
 H         -2.9216558583       -3.8197720628        0.1681364196
  43
  -89.944125720000002        7.0133030307369335E-006 !
 C         -2.8373769313       -2.0531584353       -1.8656863608
 C         -2.6092393711       -2.1056816390       -0.3491876945
 C         -2.9270197800       -0.7548917718        0.3239847430
 S         -2.6299765078        0.7483500043       -0.6678121357
 O         -1.2542480213        0.7235951386       -1.1316113167
 O         -3.6528211504        0.9063335346       -1.6557697055
 C         -2.7778504549        2.0582104968        0.5490554890
 C         -1.6655646225        2.4372883442        1.2780875899
 C         -1.7843789367        3.4335174982        2.2307943001
 C         -3.0259115574        4.0195375820        2.4237913744
 C         -4.1443145518        3.6489491897        1.6928410251
 C         -4.0114774594        2.6526428010        0.7423015076
 F         -3.1484563437        4.9822415209        3.3484631596
 C         -1.1573030435       -2.5675405180       -0.0758783988
 O         -0.9756845330       -3.6687120688        0.4059998593
 N         -0.2019411019       -1.6796056985       -0.4195860153
 C          1.1755226136       -1.8178123225       -0.3102746301
 C          1.9476545370       -0.7048106158       -0.6566534043
 C          3.3234022130       -0.7605213250       -0.5662963758
 C          3.9596498737       -1.9328028712       -0.1344853590
 C          3.1803969895       -3.0393311086        0.2039798870
 C          1.8044314001       -2.9859769759        0.1210860398
 C          5.3686154680       -2.0145691272       -0.0352298765
 N          6.5060904838       -2.1122132472        0.0564129305
 C          4.1624011077        0.4377707158       -0.9222364376
 F          3.4234253741        1.4937218762       -1.2921929027
 F          5.0044667704        0.1899850340       -1.9367769854
 F          4.9144041137        0.8529966317        0.1115285145
 O         -3.4603747026       -3.0605475213        0.2319358584
 H         -3.8742809757       -1.7926394863       -2.0601741864
 H         -2.6391494993       -3.0342844053       -2.2924304491
 H         -2.1972310915       -1.3152946711       -2.3390960333
 H         -3.9917625158       -0.7419268775        0.5483255225
 H         -2.3609917292       -0.6246681216        1.2448470461
 H         -0.7158074770        1.9665511825        1.0796750657
 H         -0.9393389983        3.7614262655        2.8145459313
 H         -5.0878228248        4.1393727892        1.8705903419
 H         -4.8445888394        2.3398223825        0.1335321858
 H         -0.5092094523       -0.7718776244       -0.7886217843
 H          1.4572773423        0.1952885426       -0.9975153649
 H          3.6690081535       -3.9430726682        0.5343392630
 H          1.2107732572       -3.8442749232        0.3886868718
 H         -2.8993794666       -3.8093953867        0.5092359812
  43
  -89.943996229999996        6.1152345716809989E-006 !
 C         -2.1083282030        0.9747588991       -1.8373328053
 C         -2.2188687684       -0.5343946999       -1.5816914860
 C         -2.6785077609       -0.8559050871       -0.1494342863
 S         -2.1335716266        0.2395504120        1.2059912214
 O         -2.3724626190       -0.4770565275        2.4236268508
 O         -0.7697374666        0.6732093618        0.9581870183
 C         -3.1971643253        1.6855157874        1.1822721292
 C         -4.5460375258        1.5126272285        1.4354829119
 C         -5.3832214122        2.6137165872        1.4423464453
 C         -4.8351205107        3.8645771403        1.2017342101
 C         -3.4818964915        4.0480474930        0.9667301242
 C         -2.6560714631        2.9376674360        0.9601061648
 F         -5.6426189745        4.9346084181        1.2041040257
 C         -0.8641632488       -1.2109293433       -1.9120477568
 O         -0.8076312507       -1.9627321869       -2.8655771675
 N          0.1505697256       -0.8788966660       -1.0904723108
 C          1.4709309158       -1.3091503682       -1.1416840975
 C          2.3274550648       -0.8293084496       -0.1465902484
 C          3.6547560903       -1.2063788018       -0.1347456832
 C          4.1550933162       -2.0743986669       -1.1153966089
 C          3.2913883472       -2.5491710920       -2.1024737403
 C          1.9643708867       -2.1724102473       -2.1198061246
 C          5.5116564118       -2.4765086652       -1.1238337891
 N          6.6034190302       -2.8207217406       -1.1595360239
 C          4.5881333561       -0.6908752011        0.9284063061
 F          3.9835018778        0.1387163444        1.7895986606
 F          5.6194258018       -0.0050253808        0.4075610369
 F          5.1171854211       -1.6810621539        1.6645523467
 O         -3.1772105631       -1.0841578705       -2.4503475590
 H         -1.3748018120        1.4351436320       -1.1849567189
 H         -3.0804583369        1.4367380938       -1.6820700273
 H         -1.8185739007        1.1360612546       -2.8736487824
 H         -3.7659667990       -0.8154646241       -0.1280968995
 H         -2.3689520342       -1.8548055284        0.1563153289
 H         -4.9285555693        0.5264363945        1.6447744300
 H         -6.4397991724        2.5194956033        1.6350101259
 H         -3.0953488842        5.0403211505        0.7987171330
 H         -1.5945578315        3.0317534375        0.7963998477
 H         -0.0616391957       -0.2512159613       -0.3069078776
 H          1.9412516780       -0.1638948250        0.6114263740
 H          3.6751343521       -3.2179572164       -2.8575109047
 H          1.3052777945       -2.5433875998       -2.8870448133
 H         -2.6971926521       -1.6678225606       -3.0687947450
  43
  -89.943996139999996        6.1146521995400394E-006 !
 C         -2.2024440861        0.8001897357       -1.8054770525
 C         -2.2545266210       -0.6951449015       -1.4640677814
 C         -2.6543067269       -0.9505361059       -0.0009367249
 S         -2.1014762287        0.2362257514        1.2718345318
 O         -2.2801396746       -0.4158425502        2.5351998253
 O         -0.7599545581        0.6938300570        0.9549083966
 C         -3.2086431461        1.6476292218        1.2017565229
 C         -2.7118826413        2.9003056742        0.8949537674
 C         -3.5699527291        3.9855804418        0.8659148567
 C         -4.9097405824        3.7773347873        1.1518314412
 C         -5.4130069159        2.5268151494        1.4772617273
 C         -4.5438505664        1.4510964172        1.5052140035
 F         -5.7485339946        4.8225377791        1.1197886184
 C         -0.8899915652       -1.3455711996       -1.8061385570
 O         -0.8408115665       -2.1455280434       -2.7200505511
 N          0.1404763184       -0.9375305843       -1.0402873378
 C          1.4726157810       -1.3253015742       -1.1183182887
 C          2.3459852591       -0.7661459839       -0.1809628383
 C          3.6855477952       -1.0967799124       -0.1995085751
 C          4.1817378666       -1.9964399120       -1.1534478762
 C          3.3012027780       -2.5506025410       -2.0826116828
 C          1.9617070510       -2.2207428472       -2.0693376677
 C          5.5508137535       -2.3516421625       -1.1924898447
 N          6.6522928453       -2.6597155660       -1.2516618960
 C          4.6368267620       -0.4961337417        0.8012579172
 F          4.0339079822        0.3565384233        1.6408210224
 F          5.6247278831        0.1955460932        0.2089872091
 F          5.2254908013       -1.4287234318        1.5668379371
 O         -3.2231740815       -1.3219810548       -2.2665801256
 H         -1.4628847991        1.3186474619       -1.2055775667
 H         -3.1834561765        1.2397746361       -1.6413692977
 H         -1.9531514941        0.9125176695       -2.8586518791
 H         -3.7411634787       -0.9441348358        0.0568308945
 H         -2.3006213595       -1.9201497803        0.3481365077
 H         -1.6588143468        3.0150301961        0.6940402669
 H         -3.2182221593        4.9774702757        0.6319995133
 H         -6.4603321710        2.4136372806        1.7067525699
 H         -4.8906867064        0.4676729517        1.7795386429
 H         -0.0659300167       -0.2762288708       -0.2832567927
 H          1.9631772725       -0.0762694535        0.5566572311
 H          3.6817454633       -3.2437628730       -2.8170211109
 H          1.2895328434       -2.6532687265       -2.7916869587
 H         -2.7452614546       -1.9223259177       -2.8705143618
  43
  -89.943995500000000        6.1105124857374172E-006 !
 C         -2.0990114820        1.0278987066       -1.8143801146
 C         -2.2198915922       -0.4861319602       -1.5943702022
 C         -2.6851686711       -0.8381132929       -0.1711978238
 S         -2.1401558312        0.2252219249        1.2093452438
 O         -2.3953293294       -0.5122657693        2.4110910520
 O         -0.7701195961        0.6491815478        0.9796248239
 C         -3.1879640040        1.6829795423        1.2065888716
 C         -4.5427726141        1.5197874291        1.4330092164
 C         -5.3670050357        2.6304297616        1.4557344370
 C         -4.8004048911        3.8805556395        1.2580777057
 C         -3.4414101529        4.0538179370        1.0502749683
 C         -2.6287119641        2.9340237897        1.0271452544
 F         -5.5953599966        4.9598093942        1.2757920766
 C         -0.8683509163       -1.1625655110       -1.9375211299
 O         -0.8135186293       -1.8905058651       -2.9094633984
 N          0.1459560660       -0.8572708441       -1.1051026581
 C          1.4640654049       -1.2934174899       -1.1642921354
 C          2.3202658998       -0.8461913334       -0.1538473380
 C          3.6453247359       -1.2312650078       -0.1484986868
 C          4.1436742915       -2.0748702635       -1.1512237221
 C          3.2803340598       -2.5170318643       -2.1536648439
 C          1.9555635954       -2.1322364103       -2.1644228629
 C          5.4976410477       -2.4853465670       -1.1662872889
 N          6.5875783498       -2.8343046582       -1.2088869955
 C          4.5782599335       -0.7512985733        0.9315563944
 F          5.6174721703       -0.0608805095        0.4331115263
 F          5.0958103994       -1.7647622392        1.6439036493
 F          3.9767268908        0.0606783206        1.8114964082
 O         -3.1793036033       -1.0093247882       -2.4781227274
 H         -1.3652666339        1.4684226183       -1.1486379268
 H         -3.0688684847        1.4922856873       -1.6522671036
 H         -1.8040740987        1.2114294524       -2.8455296508
 H         -3.7725145606       -0.7947109958       -0.1523080222
 H         -2.3797454528       -1.8444956065        0.1134381346
 H         -4.9406835953        0.5333194593        1.6095962965
 H         -6.4277251776        2.5438865718        1.6281051189
 H         -3.0404799434        5.0454581057        0.9156393919
 H         -1.5636109182        3.0193360209        0.8830915537
 H         -0.0648936528       -0.2487798551       -0.3061488454
 H          1.9355326357       -0.1997797884        0.6211652417
 H          3.6624950195       -3.1670827081       -2.9256766369
 H          1.2965282934       -2.4788002645       -2.9430493034
 H         -2.7010187224       -1.5798579751       -3.1100147039
  43
  -89.943842720000006        5.1983415308630990E-006 !
 C         -3.2447105421       -2.2115311369       -2.3542777690
 C         -2.7150976791       -1.7884541663       -0.9738177215
 C         -3.7321160491       -0.9013569781       -0.2609157403
 S         -2.9566323046       -0.0409529365        1.1741790469
 O         -3.9593380422        0.0061910600        2.2026196513
 O         -1.7043109736       -0.6770072459        1.4844745788
 C         -2.6196260607        1.6300708128        0.6169039302
 C         -3.6768241158        2.4495115315        0.2703802527
 C         -3.4219458652        3.7332353623       -0.1782006897
 C         -2.1043073690        4.1540508306       -0.2641267141
 C         -1.0406217972        3.3435661688        0.0967782633
 C         -1.3104273382        2.0633879750        0.5456835800
 F         -1.8515292514        5.3967570761       -0.7072218573
 C         -1.4637130561       -0.9131432036       -1.1811276314
 O         -1.5723513311        0.1931442031       -1.6682766733
 N         -0.3157123730       -1.5146061565       -0.8025478734
 C          0.9486838912       -0.9578647546       -0.7167798809
 C          1.9359854461       -1.6866537218       -0.0482327514
 C          3.2178051637       -1.1861058397        0.0587435454
 C          3.5435915246        0.0579025639       -0.4982694445
 C          2.5516037085        0.7790941236       -1.1639016221
 C          1.2715210673        0.2791837657       -1.2778799381
 C          4.8495007130        0.5930738534       -0.4007627988
 N          5.8959578238        1.0546519175       -0.3404259647
 C          4.2874164484       -1.9692195523        0.7730162069
 F          4.7911460718       -1.3046548484        1.8240357896
 F          5.3230540956       -2.2615565744       -0.0311880016
 F          3.8391455286       -3.1411872638        1.2459466919
 O         -2.3594437235       -2.9157178437       -0.2098627664
 H         -2.5504092780       -2.9166589036       -2.8050810740
 H         -3.3356385067       -1.3423329629       -2.9987661745
 H         -4.2169834725       -2.6895956327       -2.2556620129
 H         -4.0919329018       -0.1206054482       -0.9241527653
 H         -4.5677195757       -1.4698073822        0.1422924305
 H         -4.6877445829        2.0862934627        0.3688290031
 H         -4.2183896760        4.4035119182       -0.4595332612
 H         -0.0314968202        3.7161493280        0.0233698937
 H         -0.5220988983        1.3914963795        0.8445627297
 H         -0.4576171728       -2.3890728161       -0.3058149359
 H          1.6921155383       -2.6413477188        0.3923347468
 H          2.8010725634        1.7366415099       -1.5949325821
 H          0.5107194939        0.8418398946       -1.7928664656
 H         -3.1530613488       -3.3420395029        0.1318905185
  43
  -89.943840449999996        5.1858695681728789E-006 !
 C         -3.1876231236       -2.2199478995       -2.3424655674
 C         -2.6838853162       -1.7826555083       -0.9566060632
 C         -3.7149958437       -0.8929919514       -0.2685176292
 S         -2.9572462182       -0.0146959745        1.1655943182
 O         -3.9547052916        0.0004242428        2.2001834932
 O         -1.6852537907       -0.6151410330        1.4668579969
 C         -2.6735480982        1.6668055693        0.6107608374
 C         -3.7582579333        2.4550302040        0.2767633802
 C         -3.5466098868        3.7475367757       -0.1691252793
 C         -2.2430546855        4.2081324729       -0.2656156286
 C         -1.1520452334        3.4286251117        0.0817774311
 C         -1.3785877348        2.1392319835        0.5285640541
 F         -2.0321360970        5.4598130629       -0.7056333022
 C         -1.4312530477       -0.9058885640       -1.1508320471
 O         -1.5381902509        0.2061156332       -1.6248440778
 N         -0.2837049012       -1.5176642138       -0.7867193379
 C          0.9831759230       -0.9673430626       -0.6975434651
 C          1.9732661803       -1.7157261687       -0.0552128790
 C          3.2584435102       -1.2237826464        0.0512333007
 C          3.5848532460        0.0314475546       -0.4795547915
 C          2.5898222554        0.7728138813       -1.1179526963
 C          1.3064830621        0.2813170853       -1.2318799294
 C          4.8944869693        0.5576712003       -0.3829422423
 N          5.9441637962        1.0120820749       -0.3227669462
 C          4.3311136279       -2.0290521789        0.7355646533
 F          4.8506001205       -1.3920317127        1.7958644926
 F          5.3559905040       -2.3091224785       -0.0866859846
 F          3.8809332748       -3.2090704537        1.1865400729
 O         -2.3372898423       -2.9022313229       -0.1771138208
 H         -3.2730525553       -1.3566352042       -2.9955656927
 H         -4.1586969713       -2.7028719650       -2.2560962492
 H         -2.4820207275       -2.9246481052       -2.7761266272
 H         -4.0686498285       -0.1210871321       -0.9452694298
 H         -4.5531643550       -1.4604107084        0.1305164195
 H         -4.7566744183        2.0608142232        0.3833767241
 H         -4.3655558350        4.3946225120       -0.4399867157
 H         -0.1555433085        3.8322318594        0.0003864276
 H         -0.5677905545        1.4899898002        0.8169279828
 H         -0.4268770831       -2.3980987308       -0.3013441369
 H          1.7296293799       -2.6800703857        0.3640415682
 H          2.8395990794        1.7395566840       -1.5277816966
 H          0.5434796028        0.8589843705       -1.7266849165
 H         -3.1351068453       -3.3279065414        0.1556312331
