43
RBICALUTAMIDE
C   0.99569331 -3.24258836 -1.24399336
C   1.38268833 -1.81125060 -1.62047886
C   2.70031955 -1.39930937 -0.92837109
S   2.59014630 -0.96302719  0.83749291
O   1.69643878 -1.90183019  1.48945653
O   3.92749150 -0.88587150  1.34455002
C   1.82681899  0.66747203  0.99813916
C   1.19986242  0.91949534  2.20684210
C   0.59182060  2.14117187  2.43049360
C   0.62184736  3.08652316  1.41776008
C   1.25664925  2.85065468  0.20900506
C   1.87566763  1.62867200  0.00558386
F   0.02074725  4.26593194  1.61502176
C   0.28761737 -0.78074372 -1.26693616
O   0.04025159  0.10548013 -2.06079485
N  -0.32333877 -0.97098875 -0.07621825
C  -1.24640198 -0.14131458  0.55040736
C  -1.75922887  1.01117411 -0.04324740
C  -2.64823638  1.80437842  0.65854785
C  -3.05759775  1.45539576  1.95038720
C  -2.54677456  0.29271042  2.53142875
C  -1.64992912 -0.49118891  1.84119858
C  -3.98062070  2.24443056  2.67807243
N  -4.72860341  2.85180158  3.29652163
C  -3.20064051  3.05759310  0.02975828
F  -3.04773467  4.13285390  0.81389978
F  -4.51555232  2.95062776 -0.22699224
F  -2.60906803  3.35133897 -1.13541189
O   1.58452126 -1.74114435 -3.00878700
H   1.11399682 -3.41689559 -0.17910864
H   1.65106654 -3.91913442 -1.78715970
H  -0.02854509 -3.44839680 -1.54533259
H   3.41025673 -2.22460567 -0.96265689
H   3.14773096 -0.54670715 -1.43353387
H   1.19820736  0.14824760  2.96040615
H   0.10067247  2.36750032  3.36319041
H   1.26062813  3.61453238 -0.55163142
H   2.38164251  1.44347768 -0.92748937
H   0.08190899 -1.68355050  0.53182000
H  -1.45831666  1.28532798 -1.04109318
H  -2.86305159  0.01972739  3.52641403
H  -1.24612127 -1.38313070  2.29592982
H   1.15273569 -0.92879869 -3.32823755